*NODE
1, 3.8901336200113494, 0.2540333258871157, 0
2, 3.8909409104141672, 0.31845524046956397, 0
3, 3.893362781622623, 0.38210372023713646, 0
4, 3.8973992336367136, 0.44497876518983287, 0
5, 3.903050266456442, 0.5070803753276536, 0
6, 3.910315880081806, 0.5684085506505978, 0
7, 3.9191960745128065, 0.6289632911586668, 0
8, 3.929690849749444, 0.6887445968518591, 0
9, 3.941800205791718, 0.7477524677301768, 0
10, 3.9555241426396286, 0.8059869037936173, 0
11, 3.9708626602931756, 0.8634479050421824, 0
12, 3.9878157587523586, 0.920135471475871, 0
13, 4.0063834380171786, 0.9760496030946845, 0
14, 4.026565698087635, 1.031190299898622, 0
15, 4.048362538963729, 1.0855575618876832, 0
16, 4.071773960645458, 1.1391513890618685, 0
17, 4.096799963132824, 1.191971781421178, 0
18, 4.123440546425827, 1.2440187389656117, 0
19, 4.151695710524466, 1.2952922616951692, 0
20, 4.181565455428741, 1.345792349609851, 0
21, 4.213049781138653, 1.3955190027096567, 0
22, 4.246627116014241, 1.4443833275390408, 0
23, 4.282775888415543, 1.492296430642458, 0
24, 4.32149609834256, 1.5392583120199075, 0
25, 4.36278774579529, 1.58526897167139, 0
26, 4.406650830773735, 1.630328409596905, 0
27, 4.453085353277895, 1.674436625796453, 0
28, 4.502091313307769, 1.7175936202700344, 0
29, 4.553668710863357, 1.7597993930176472, 0
30, 4.60781754594466, 1.8010539440392939, 0
31, 4.664537818551677, 1.8413572733349726, 0
32, 4.7238295286844085, 1.8807093809046842, 0
33, 4.785692676342855, 1.9191102667484294, 0
34, 4.850127261527016, 1.9565599308662063, 0
35, 4.917133284236891, 1.9930583732580165, 0
36, 4.986710744472479, 2.0286055939238583, 0
37, 5.058859642233783, 2.0632015928637344, 0
38, 5.133579977520801, 2.0968463700776425, 0
39, 5.210871750333534, 2.129539925565583, 0
40, 5.290734960671981, 2.161282259327557, 0
41, 5.373169608536141, 2.192073371363563, 0
42, 5.454346919643409, 2.224931928056337, 0
43, 5.530438119711175, 2.2628765957886148, 0
44, 5.601443208739437, 2.305907374560392, 0
45, 5.667362186728199, 2.3540242643716733, 0
46, 5.7281950536774575, 2.4072272652224553, 0
47, 5.783941809587214, 2.4655163771127397, 0
48, 5.834602454457468, 2.5288916000425274, 0
49, 5.88017698828822, 2.5973529340118158, 0
50, 5.9206654110794705, 2.670900379020608, 0
51, 5.956067722831218, 2.749533935068901, 0
52, 5.986383923543464, 2.8332536021566965, 0
53, 6.0116140132162075, 2.9220593802839936, 0
54, 6.031757991849449, 3.015951269450793, 0
55, 6.046815859443188, 3.1149292696570967, 0
56, 6.056787615997425, 3.2189933809029, 0
57, 6.06167326151216, 3.328143603188206, 0
58, 6.061472795987393, 3.442379936513015, 0
59, 6.056186219423124, 3.5617023808773256, 0
60, 6.045813531819352, 3.686110936281139, 0
61, 6.030354733176079, 3.815605602724454, 0
62, 6.011909983655642, 3.9452353233499315, 0
63, 5.992579443420378, 4.070049041300233, 0
64, 5.97236311247029, 4.190046756575358, 0
65, 5.951260990805375, 4.305228469175306, 0
66, 5.929273078425635, 4.4155941791000775, 0
67, 5.906399375331071, 4.521143886349673, 0
68, 5.882639881521679, 4.621877590924092, 0
69, 5.857994596997463, 4.717795292823333, 0
70, 5.832463521758421, 4.8088969920474005, 0
71, 5.806046655804553, 4.895182688596289, 0
72, 5.778743999135861, 4.976652382470002, 0
73, 5.750555551752342, 5.053306073668538, 0
74, 5.721481313653998, 5.125143762191898, 0
75, 5.691521284840827, 5.192165448040081, 0
76, 5.660675465312833, 5.254371131213087, 0
77, 5.628943855070012, 5.311760811710918, 0
78, 5.596326454112366, 5.364334489533571, 0
79, 5.562823262439894, 5.412092164681049, 0
80, 5.528434280052596, 5.455033837153349, 0
81, 5.493159506950473, 5.493159506950473, 0
82, 5.455033837153349, 5.528434280052596, 0
83, 5.412092164681049, 5.562823262439894, 0
84, 5.3643344895335705, 5.596326454112365, 0
85, 5.311760811710918, 5.628943855070012, 0
86, 5.254371131213087, 5.660675465312833, 0
87, 5.192165448040081, 5.691521284840827, 0
88, 5.1251437621918985, 5.721481313653998, 0
89, 5.053306073668537, 5.750555551752342, 0
90, 4.976652382470002, 5.778743999135861, 0
91, 4.895182688596289, 5.806046655804553, 0
92, 4.8088969920474005, 5.832463521758421, 0
93, 4.717795292823334, 5.857994596997462, 0
94, 4.6218775909240915, 5.88263988152168, 0
95, 4.521143886349673, 5.906399375331071, 0
96, 4.4155941791000775, 5.929273078425635, 0
97, 4.305228469175306, 5.951260990805375, 0
98, 4.1900467565753585, 5.972363112470289, 0
99, 4.070049041300232, 5.992579443420378, 0
100, 3.9452353233499315, 6.011909983655642, 0
101, 3.815605602724454, 6.030354733176079, 0
102, 3.686110936281139, 6.045813531819352, 0
103, 3.5617023808773274, 6.056186219423124, 0
104, 3.442379936513014, 6.0614727959873935, 0
105, 3.328143603188206, 6.06167326151216, 0
106, 3.2189933809029, 6.056787615997425, 0
107, 3.1149292696570967, 6.046815859443188, 0
108, 3.0159512694507953, 6.0317579918494495, 0
109, 2.922059380283993, 6.011614013216207, 0
110, 2.8332536021566965, 5.986383923543464, 0
111, 2.749533935068901, 5.956067722831218, 0
112, 2.670900379020608, 5.9206654110794705, 0
113, 2.5973529340118167, 5.88017698828822, 0
114, 2.528891600042527, 5.8346024544574675, 0
115, 2.4655163771127397, 5.783941809587214, 0
116, 2.4072272652224553, 5.7281950536774575, 0
117, 2.3540242643716733, 5.667362186728199, 0
118, 2.305907374560392, 5.601443208739438, 0
119, 2.2628765957886134, 5.530438119711174, 0
120, 2.224931928056337, 5.454346919643409, 0
121, 2.192073371363563, 5.373169608536141, 0
122, 2.161282259327557, 5.290734960671981, 0
123, 2.129539925565584, 5.210871750333534, 0
124, 2.096846370077642, 5.1335799775208, 0
125, 2.0632015928637344, 5.058859642233783, 0
126, 2.0286055939238583, 4.986710744472479, 0
127, 1.9930583732580165, 4.917133284236891, 0
128, 1.956559930866207, 4.850127261527016, 0
129, 1.9191102667484288, 4.785692676342855, 0
130, 1.8807093809046842, 4.7238295286844085, 0
131, 1.8413572733349726, 4.664537818551677, 0
132, 1.8010539440392939, 4.60781754594466, 0
133, 1.7597993930176477, 4.553668710863358, 0
134, 1.7175936202700337, 4.502091313307768, 0
135, 1.674436625796453, 4.453085353277895, 0
136, 1.630328409596905, 4.406650830773735, 0
137, 1.58526897167139, 4.36278774579529, 0
138, 1.5392583120199075, 4.32149609834256, 0
139, 1.4922964306424578, 4.282775888415543, 0
140, 1.4443833275390408, 4.246627116014241, 0
141, 1.3955190027096567, 4.213049781138653, 0
142, 1.3431537325543241, 4.179953110884608, 0
143, 1.289931470914365, 4.148645449833484, 0
144, 1.2358522177897786, 4.119126797985282, 0
145, 1.1809159731805652, 4.091397155340001, 0
146, 1.125122737086724, 4.065456521897642, 0
147, 1.0684725095082568, 4.041304897658204, 0
148, 1.010965290445162, 4.018942282621687, 0
149, 0.952601079897441, 3.998368676788092, 0
150, 0.8933798778650917, 3.9795840801574167, 0
151, 0.8333016843481158, 3.962588492729664, 0
152, 0.7723664993465126, 3.947381914504833, 0
153, 0.7105743228602828, 3.9339643454829227, 0
154, 0.6479251548894265, 3.922335785663934, 0
155, 0.5844189954339426, 3.9124962350478665, 0
156, 0.5200558444938305, 3.9044456936347207, 0
157, 0.4548357020690927, 3.898184161424495, 0
158, 0.3887585681597273, 3.8937116384171926, 0
159, 0.32182444276573424, 3.8910281246128102, 0
160, -0.2540333258871157, 3.8901336200113494, 0
161, -0.31845524046956397, 3.8909409104141672, 0
162, -0.38210372023713646, 3.893362781622623, 0
163, -0.44497876518983287, 3.8973992336367136, 0
164, -0.5070803753276536, 3.903050266456442, 0
165, -0.5684085506505978, 3.910315880081806, 0
166, -0.6289632911586668, 3.9191960745128065, 0
167, -0.6887445968518591, 3.929690849749444, 0
168, -0.7477524677301768, 3.941800205791718, 0
169, -0.8059869037936173, 3.9555241426396286, 0
170, -0.8634479050421824, 3.9708626602931756, 0
171, -0.920135471475871, 3.9878157587523586, 0
172, -0.9760496030946845, 4.0063834380171786, 0
173, -1.031190299898622, 4.026565698087635, 0
174, -1.0855575618876832, 4.048362538963729, 0
175, -1.1391513890618685, 4.071773960645458, 0
176, -1.191971781421178, 4.096799963132824, 0
177, -1.2440187389656117, 4.123440546425827, 0
178, -1.2952922616951692, 4.151695710524466, 0
179, -1.345792349609851, 4.181565455428741, 0
180, -1.3955190027096567, 4.213049781138653, 0
181, -1.4443833275390408, 4.246627116014241, 0
182, -1.492296430642458, 4.282775888415543, 0
183, -1.5392583120199075, 4.32149609834256, 0
184, -1.58526897167139, 4.36278774579529, 0
185, -1.630328409596905, 4.406650830773735, 0
186, -1.674436625796453, 4.453085353277895, 0
187, -1.7175936202700344, 4.502091313307769, 0
188, -1.7597993930176472, 4.553668710863357, 0
189, -1.8010539440392939, 4.60781754594466, 0
190, -1.8413572733349726, 4.664537818551677, 0
191, -1.8807093809046842, 4.7238295286844085, 0
192, -1.9191102667484294, 4.785692676342855, 0
193, -1.9565599308662063, 4.850127261527016, 0
194, -1.9930583732580165, 4.917133284236891, 0
195, -2.0286055939238583, 4.986710744472479, 0
196, -2.0632015928637344, 5.058859642233783, 0
197, -2.0968463700776425, 5.133579977520801, 0
198, -2.129539925565583, 5.210871750333534, 0
199, -2.161282259327557, 5.290734960671981, 0
200, -2.192073371363563, 5.373169608536141, 0
201, -2.224931928056337, 5.454346919643409, 0
202, -2.2628765957886148, 5.530438119711175, 0
203, -2.305907374560392, 5.601443208739437, 0
204, -2.3540242643716733, 5.667362186728199, 0
205, -2.4072272652224553, 5.7281950536774575, 0
206, -2.4655163771127397, 5.783941809587214, 0
207, -2.5288916000425274, 5.834602454457468, 0
208, -2.5973529340118158, 5.88017698828822, 0
209, -2.670900379020608, 5.9206654110794705, 0
210, -2.749533935068901, 5.956067722831218, 0
211, -2.8332536021566965, 5.986383923543464, 0
212, -2.9220593802839936, 6.0116140132162075, 0
213, -3.015951269450793, 6.031757991849449, 0
214, -3.1149292696570967, 6.046815859443188, 0
215, -3.2189933809029, 6.056787615997425, 0
216, -3.328143603188206, 6.06167326151216, 0
217, -3.442379936513015, 6.061472795987393, 0
218, -3.5617023808773256, 6.056186219423124, 0
219, -3.686110936281139, 6.045813531819352, 0
220, -3.815605602724454, 6.030354733176079, 0
221, -3.9452353233499315, 6.011909983655642, 0
222, -4.070049041300233, 5.992579443420378, 0
223, -4.190046756575358, 5.97236311247029, 0
224, -4.305228469175306, 5.951260990805375, 0
225, -4.4155941791000775, 5.929273078425635, 0
226, -4.521143886349673, 5.906399375331071, 0
227, -4.621877590924092, 5.882639881521679, 0
228, -4.717795292823333, 5.857994596997463, 0
229, -4.8088969920474005, 5.832463521758421, 0
230, -4.895182688596289, 5.806046655804553, 0
231, -4.976652382470002, 5.778743999135861, 0
232, -5.053306073668538, 5.750555551752342, 0
233, -5.125143762191898, 5.721481313653998, 0
234, -5.192165448040081, 5.691521284840827, 0
235, -5.254371131213087, 5.660675465312833, 0
236, -5.311760811710918, 5.628943855070012, 0
237, -5.364334489533571, 5.596326454112366, 0
238, -5.412092164681049, 5.562823262439894, 0
239, -5.455033837153349, 5.528434280052596, 0
240, -5.493159506950473, 5.493159506950473, 0
241, -5.528434280052596, 5.455033837153349, 0
242, -5.562823262439894, 5.412092164681049, 0
243, -5.596326454112365, 5.3643344895335705, 0
244, -5.628943855070012, 5.311760811710918, 0
245, -5.660675465312833, 5.254371131213087, 0
246, -5.691521284840827, 5.192165448040081, 0
247, -5.721481313653998, 5.1251437621918985, 0
248, -5.750555551752342, 5.053306073668537, 0
249, -5.778743999135861, 4.976652382470002, 0
250, -5.806046655804553, 4.895182688596289, 0
251, -5.832463521758421, 4.8088969920474005, 0
252, -5.857994596997462, 4.717795292823334, 0
253, -5.88263988152168, 4.6218775909240915, 0
254, -5.906399375331071, 4.521143886349673, 0
255, -5.929273078425635, 4.4155941791000775, 0
256, -5.951260990805375, 4.305228469175306, 0
257, -5.972363112470289, 4.1900467565753585, 0
258, -5.992579443420378, 4.070049041300232, 0
259, -6.011909983655642, 3.9452353233499315, 0
260, -6.030354733176079, 3.815605602724454, 0
261, -6.045813531819352, 3.686110936281139, 0
262, -6.056186219423124, 3.5617023808773274, 0
263, -6.0614727959873935, 3.442379936513014, 0
264, -6.06167326151216, 3.328143603188206, 0
265, -6.056787615997425, 3.2189933809029, 0
266, -6.046815859443188, 3.1149292696570967, 0
267, -6.0317579918494495, 3.0159512694507953, 0
268, -6.011614013216207, 2.922059380283993, 0
269, -5.986383923543464, 2.8332536021566965, 0
270, -5.956067722831218, 2.749533935068901, 0
271, -5.9206654110794705, 2.670900379020608, 0
272, -5.88017698828822, 2.5973529340118167, 0
273, -5.8346024544574675, 2.528891600042527, 0
274, -5.783941809587214, 2.4655163771127397, 0
275, -5.7281950536774575, 2.4072272652224553, 0
276, -5.667362186728199, 2.3540242643716733, 0
277, -5.601443208739438, 2.305907374560392, 0
278, -5.530438119711174, 2.2628765957886134, 0
279, -5.454346919643409, 2.224931928056337, 0
280, -5.373169608536141, 2.192073371363563, 0
281, -5.290734960671981, 2.161282259327557, 0
282, -5.210871750333534, 2.129539925565584, 0
283, -5.1335799775208, 2.096846370077642, 0
284, -5.058859642233783, 2.0632015928637344, 0
285, -4.986710744472479, 2.0286055939238583, 0
286, -4.917133284236891, 1.9930583732580165, 0
287, -4.850127261527016, 1.956559930866207, 0
288, -4.785692676342855, 1.9191102667484288, 0
289, -4.7238295286844085, 1.8807093809046842, 0
290, -4.664537818551677, 1.8413572733349726, 0
291, -4.60781754594466, 1.8010539440392939, 0
292, -4.553668710863358, 1.7597993930176477, 0
293, -4.502091313307768, 1.7175936202700337, 0
294, -4.453085353277895, 1.674436625796453, 0
295, -4.406650830773735, 1.630328409596905, 0
296, -4.36278774579529, 1.58526897167139, 0
297, -4.32149609834256, 1.5392583120199075, 0
298, -4.282775888415543, 1.4922964306424578, 0
299, -4.246627116014241, 1.4443833275390408, 0
300, -4.213049781138653, 1.3955190027096567, 0
301, -4.179953110884608, 1.3431537325543241, 0
302, -4.148645449833484, 1.289931470914365, 0
303, -4.119126797985282, 1.2358522177897786, 0
304, -4.091397155340001, 1.1809159731805652, 0
305, -4.065456521897642, 1.125122737086724, 0
306, -4.041304897658204, 1.0684725095082568, 0
307, -4.018942282621687, 1.010965290445162, 0
308, -3.998368676788092, 0.952601079897441, 0
309, -3.9795840801574167, 0.8933798778650917, 0
310, -3.962588492729664, 0.8333016843481158, 0
311, -3.947381914504833, 0.7723664993465126, 0
312, -3.9339643454829227, 0.7105743228602828, 0
313, -3.922335785663934, 0.6479251548894265, 0
314, -3.9124962350478665, 0.5844189954339426, 0
315, -3.9044456936347207, 0.5200558444938305, 0
316, -3.898184161424495, 0.4548357020690927, 0
317, -3.8937116384171926, 0.3887585681597273, 0
318, -3.8910281246128102, 0.32182444276573424, 0
319, -3.890133620011349, -0.25403332588711536, 0
320, -3.890940910414167, -0.3184552404695637, 0
321, -3.8933627816226224, -0.3821037202371361, 0
322, -3.8973992336367136, -0.44497876518983254, 0
323, -3.903050266456442, -0.5070803753276533, 0
324, -3.9103158800818054, -0.5684085506505975, 0
325, -3.9191960745128065, -0.6289632911586663, 0
326, -3.9296908497494436, -0.6887445968518587, 0
327, -3.941800205791718, -0.7477524677301765, 0
328, -3.9555241426396286, -0.8059869037936168, 0
329, -3.970862660293175, -0.8634479050421819, 0
330, -3.9878157587523586, -0.9201354714758707, 0
331, -4.0063834380171786, -0.9760496030946841, 0
332, -4.026565698087635, -1.0311902998986215, 0
333, -4.048362538963728, -1.085557561887683, 0
334, -4.071773960645458, -1.139151389061868, 0
335, -4.096799963132824, -1.1919717814211777, 0
336, -4.123440546425826, -1.2440187389656112, 0
337, -4.151695710524466, -1.295292261695169, 0
338, -4.181565455428741, -1.3457923496098505, 0
339, -4.213049781138653, -1.3955190027096562, 0
340, -4.24662711601424, -1.4443833275390403, 0
341, -4.282775888415542, -1.4922964306424575, 0
342, -4.321496098342559, -1.539258312019907, 0
343, -4.3627877457952895, -1.5852689716713895, 0
344, -4.406650830773735, -1.6303284095969046, 0
345, -4.453085353277895, -1.6744366257964525, 0
346, -4.502091313307769, -1.717593620270034, 0
347, -4.553668710863357, -1.7597993930176468, 0
348, -4.60781754594466, -1.8010539440392932, 0
349, -4.664537818551677, -1.8413572733349721, 0
350, -4.7238295286844085, -1.8807093809046835, 0
351, -4.785692676342855, -1.9191102667484288, 0
352, -4.850127261527015, -1.9565599308662058, 0
353, -4.917133284236891, -1.993058373258016, 0
354, -4.986710744472479, -2.028605593923858, 0
355, -5.058859642233783, -2.0632015928637335, 0
356, -5.133579977520801, -2.096846370077642, 0
357, -5.210871750333533, -2.1295399255655827, 0
358, -5.290734960671981, -2.1612822593275567, 0
359, -5.373169608536141, -2.1920733713635627, 0
360, -5.454346919643408, -2.2249319280563364, 0
361, -5.5304381197111745, -2.262876595788614, 0
362, -5.601443208739437, -2.305907374560391, 0
363, -5.667362186728199, -2.3540242643716724, 0
364, -5.728195053677457, -2.407227265222455, 0
365, -5.783941809587214, -2.465516377112739, 0
366, -5.834602454457468, -2.528891600042527, 0
367, -5.88017698828822, -2.597352934011815, 0
368, -5.9206654110794705, -2.670900379020607, 0
369, -5.956067722831218, -2.7495339350689, 0
370, -5.986383923543464, -2.8332536021566956, 0
371, -6.0116140132162075, -2.922059380283993, 0
372, -6.031757991849449, -3.0159512694507926, 0
373, -6.046815859443188, -3.114929269657096, 0
374, -6.056787615997425, -3.218993380902899, 0
375, -6.06167326151216, -3.328143603188205, 0
376, -6.061472795987393, -3.442379936513014, 0
377, -6.0561862194231235, -3.5617023808773247, 0
378, -6.045813531819352, -3.6861109362811386, 0
379, -6.030354733176079, -3.815605602724453, 0
380, -6.0119099836556416, -3.9452353233499307, 0
381, -5.992579443420378, -4.070049041300232, 0
382, -5.97236311247029, -4.190046756575357, 0
383, -5.951260990805375, -4.305228469175305, 0
384, -5.929273078425635, -4.415594179100077, 0
385, -5.906399375331071, -4.521143886349672, 0
386, -5.882639881521679, -4.6218775909240915, 0
387, -5.857994596997463, -4.717795292823332, 0
388, -5.832463521758421, -4.8088969920474, 0
389, -5.806046655804553, -4.895182688596288, 0
390, -5.778743999135861, -4.976652382470001, 0
391, -5.750555551752342, -5.053306073668537, 0
392, -5.721481313653998, -5.125143762191897, 0
393, -5.691521284840827, -5.19216544804008, 0
394, -5.660675465312833, -5.2543711312130865, 0
395, -5.628943855070012, -5.311760811710917, 0
396, -5.596326454112366, -5.3643344895335705, 0
397, -5.562823262439894, -5.412092164681048, 0
398, -5.528434280052596, -5.455033837153348, 0
399, -5.493159506950473, -5.493159506950472, 0
400, -5.455033837153349, -5.528434280052595, 0
401, -5.412092164681049, -5.562823262439893, 0
402, -5.3643344895335705, -5.596326454112364, 0
403, -5.311760811710918, -5.628943855070011, 0
404, -5.254371131213087, -5.660675465312832, 0
405, -5.192165448040081, -5.691521284840826, 0
406, -5.1251437621918985, -5.721481313653997, 0
407, -5.053306073668537, -5.750555551752341, 0
408, -4.976652382470002, -5.77874399913586, 0
409, -4.895182688596289, -5.806046655804552, 0
410, -4.8088969920474005, -5.83246352175842, 0
411, -4.717795292823334, -5.857994596997462, 0
412, -4.6218775909240915, -5.882639881521679, 0
413, -4.521143886349673, -5.90639937533107, 0
414, -4.4155941791000775, -5.929273078425634, 0
415, -4.305228469175306, -5.951260990805374, 0
416, -4.1900467565753585, -5.972363112470288, 0
417, -4.070049041300233, -5.992579443420378, 0
418, -3.945235323349932, -6.0119099836556416, 0
419, -3.815605602724454, -6.030354733176078, 0
420, -3.686110936281139, -6.045813531819351, 0
421, -3.5617023808773274, -6.0561862194231235, 0
422, -3.4423799365130145, -6.061472795987393, 0
423, -3.328143603188206, -6.061673261512159, 0
424, -3.2189933809029, -6.0567876159974245, 0
425, -3.1149292696570967, -6.046815859443187, 0
426, -3.0159512694507953, -6.031757991849449, 0
427, -2.922059380283993, -6.011614013216207, 0
428, -2.8332536021566965, -5.986383923543464, 0
429, -2.749533935068901, -5.956067722831218, 0
430, -2.670900379020608, -5.9206654110794705, 0
431, -2.5973529340118167, -5.88017698828822, 0
432, -2.528891600042527, -5.8346024544574675, 0
433, -2.4655163771127397, -5.783941809587213, 0
434, -2.407227265222456, -5.728195053677457, 0
435, -2.3540242643716733, -5.667362186728198, 0
436, -2.3059073745603924, -5.601443208739438, 0
437, -2.262876595788614, -5.530438119711174, 0
438, -2.2249319280563373, -5.454346919643408, 0
439, -2.1920733713635636, -5.373169608536141, 0
440, -2.1612822593275576, -5.29073496067198, 0
441, -2.129539925565584, -5.210871750333534, 0
442, -2.096846370077642, -5.1335799775208, 0
443, -2.0632015928637344, -5.058859642233783, 0
444, -2.0286055939238583, -4.986710744472479, 0
445, -1.9930583732580167, -4.91713328423689, 0
446, -1.9565599308662072, -4.850127261527016, 0
447, -1.919110266748429, -4.785692676342854, 0
448, -1.8807093809046844, -4.7238295286844085, 0
449, -1.8413572733349728, -4.664537818551677, 0
450, -1.801053944039294, -4.60781754594466, 0
451, -1.7597993930176479, -4.553668710863358, 0
452, -1.7175936202700337, -4.502091313307768, 0
453, -1.6744366257964531, -4.453085353277895, 0
454, -1.6303284095969053, -4.406650830773735, 0
455, -1.5852689716713901, -4.3627877457952895, 0
456, -1.5392583120199077, -4.321496098342559, 0
457, -1.492296430642458, -4.282775888415542, 0
458, -1.444383327539041, -4.24662711601424, 0
459, -1.395519002709657, -4.213049781138652, 0
460, -1.3431537325543244, -4.179953110884608, 0
461, -1.2899314709143652, -4.148645449833484, 0
462, -1.2358522177897788, -4.119126797985282, 0
463, -1.1809159731805654, -4.091397155340001, 0
464, -1.1251227370867243, -4.065456521897641, 0
465, -1.068472509508257, -4.041304897658203, 0
466, -1.0109652904451623, -4.018942282621686, 0
467, -0.9526010798974412, -3.9983686767880915, 0
468, -0.8933798778650919, -3.9795840801574163, 0
469, -0.833301684348116, -3.962588492729664, 0
470, -0.7723664993465128, -3.9473819145048323, 0
471, -0.710574322860283, -3.9339643454829223, 0
472, -0.6479251548894267, -3.9223357856639334, 0
473, -0.5844189954339428, -3.912496235047866, 0
474, -0.5200558444938307, -3.9044456936347203, 0
475, -0.4548357020690929, -3.8981841614244948, 0
476, -0.38875856815972754, -3.893711638417192, 0
477, -0.32182444276573446, -3.89102812461281, 0
478, 0.2540333258871149, -3.8901336200113494, 0
479, 0.31845524046956347, -3.8909409104141672, 0
480, 0.3821037202371359, -3.893362781622623, 0
481, 0.4449787651898323, -3.897399233636714, 0
482, 0.5070803753276528, -3.903050266456442, 0
483, 0.5684085506505973, -3.910315880081806, 0
484, 0.6289632911586659, -3.9191960745128065, 0
485, 0.6887445968518585, -3.929690849749444, 0
486, 0.7477524677301762, -3.9418002057917185, 0
487, 0.8059869037936166, -3.9555241426396286, 0
488, 0.8634479050421817, -3.9708626602931756, 0
489, 0.9201354714758705, -3.987815758752359, 0
490, 0.9760496030946839, -4.0063834380171786, 0
491, 1.031190299898621, -4.026565698087635, 0
492, 1.0855575618876827, -4.048362538963729, 0
493, 1.1391513890618679, -4.071773960645459, 0
494, 1.1919717814211774, -4.096799963132824, 0
495, 1.244018738965611, -4.123440546425827, 0
496, 1.2952922616951688, -4.151695710524466, 0
497, 1.3457923496098503, -4.181565455428741, 0
498, 1.395519002709656, -4.213049781138653, 0
499, 1.44438332753904, -4.246627116014241, 0
500, 1.4922964306424573, -4.282775888415543, 0
501, 1.5392583120199068, -4.32149609834256, 0
502, 1.5852689716713892, -4.36278774579529, 0
503, 1.6303284095969044, -4.406650830773735, 0
504, 1.6744366257964522, -4.453085353277895, 0
505, 1.7175936202700337, -4.50209131330777, 0
506, 1.7597993930176465, -4.553668710863358, 0
507, 1.801053944039293, -4.607817545944661, 0
508, 1.841357273334972, -4.664537818551678, 0
509, 1.8807093809046833, -4.723829528684409, 0
510, 1.9191102667484286, -4.785692676342856, 0
511, 1.9565599308662056, -4.850127261527016, 0
512, 1.9930583732580158, -4.917133284236891, 0
513, 2.0286055939238574, -4.98671074447248, 0
514, 2.0632015928637335, -5.0588596422337835, 0
515, 2.0968463700776416, -5.133579977520802, 0
516, 2.1295399255655822, -5.210871750333534, 0
517, 2.1612822593275562, -5.290734960671981, 0
518, 2.1920733713635627, -5.373169608536141, 0
519, 2.2249319280563364, -5.454346919643409, 0
520, 2.262876595788614, -5.530438119711175, 0
521, 2.305907374560391, -5.601443208739437, 0
522, 2.3540242643716724, -5.667362186728199, 0
523, 2.4072272652224544, -5.7281950536774575, 0
524, 2.465516377112739, -5.783941809587214, 0
525, 2.5288916000425266, -5.834602454457469, 0
526, 2.597352934011815, -5.88017698828822, 0
527, 2.670900379020607, -5.920665411079471, 0
528, 2.7495339350689, -5.956067722831219, 0
529, 2.8332536021566956, -5.986383923543465, 0
530, 2.9220593802839927, -6.011614013216208, 0
531, 3.015951269450792, -6.0317579918494495, 0
532, 3.1149292696570954, -6.046815859443189, 0
533, 3.218993380902899, -6.056787615997426, 0
534, 3.328143603188205, -6.061673261512161, 0
535, 3.442379936513014, -6.0614727959873935, 0
536, 3.5617023808773247, -6.056186219423124, 0
537, 3.686110936281138, -6.045813531819353, 0
538, 3.815605602724453, -6.03035473317608, 0
539, 3.9452353233499307, -6.011909983655642, 0
540, 4.070049041300232, -5.992579443420379, 0
541, 4.190046756575357, -5.9723631124702905, 0
542, 4.305228469175305, -5.951260990805376, 0
543, 4.415594179100077, -5.929273078425636, 0
544, 4.521143886349672, -5.9063993753310715, 0
545, 4.6218775909240915, -5.88263988152168, 0
546, 4.717795292823332, -5.857994596997464, 0
547, 4.8088969920474, -5.832463521758422, 0
548, 4.895182688596288, -5.806046655804554, 0
549, 4.976652382470001, -5.778743999135862, 0
550, 5.053306073668537, -5.750555551752343, 0
551, 5.125143762191897, -5.721481313653999, 0
552, 5.19216544804008, -5.691521284840828, 0
553, 5.2543711312130865, -5.660675465312834, 0
554, 5.311760811710917, -5.628943855070013, 0
555, 5.3643344895335705, -5.596326454112367, 0
556, 5.412092164681048, -5.562823262439895, 0
557, 5.455033837153348, -5.528434280052597, 0
558, 5.493159506950472, -5.493159506950474, 0
559, 5.528434280052595, -5.4550338371533496, 0
560, 5.562823262439893, -5.41209216468105, 0
561, 5.596326454112364, -5.364334489533571, 0
562, 5.628943855070011, -5.3117608117109185, 0
563, 5.660675465312832, -5.254371131213088, 0
564, 5.691521284840826, -5.192165448040082, 0
565, 5.721481313653997, -5.125143762191899, 0
566, 5.750555551752341, -5.053306073668538, 0
567, 5.77874399913586, -4.976652382470003, 0
568, 5.806046655804552, -4.8951826885962895, 0
569, 5.83246352175842, -4.808896992047401, 0
570, 5.857994596997462, -4.717795292823335, 0
571, 5.882639881521679, -4.621877590924092, 0
572, 5.90639937533107, -4.521143886349674, 0
573, 5.929273078425635, -4.415594179100078, 0
574, 5.951260990805374, -4.305228469175307, 0
575, 5.972363112470288, -4.190046756575359, 0
576, 5.992579443420378, -4.0700490413002335, 0
577, 6.0119099836556416, -3.9452353233499324, 0
578, 6.030354733176078, -3.815605602724455, 0
579, 6.045813531819352, -3.68611093628114, 0
580, 6.056186219423124, -3.5617023808773283, 0
581, 6.061472795987393, -3.442379936513015, 0
582, 6.061673261512159, -3.328143603188207, 0
583, 6.0567876159974245, -3.218993380902901, 0
584, 6.046815859443188, -3.1149292696570976, 0
585, 6.031757991849449, -3.015951269450796, 0
586, 6.011614013216207, -2.922059380283994, 0
587, 5.986383923543464, -2.8332536021566974, 0
588, 5.956067722831218, -2.749533935068902, 0
589, 5.9206654110794705, -2.6709003790206087, 0
590, 5.88017698828822, -2.5973529340118175, 0
591, 5.8346024544574675, -2.528891600042528, 0
592, 5.783941809587213, -2.4655163771127406, 0
593, 5.728195053677457, -2.4072272652224562, 0
594, 5.667362186728198, -2.3540242643716742, 0
595, 5.601443208739438, -2.305907374560393, 0
596, 5.530438119711174, -2.2628765957886143, 0
597, 5.454346919643408, -2.2249319280563378, 0
598, 5.373169608536141, -2.1920733713635645, 0
599, 5.290734960671981, -2.161282259327558, 0
600, 5.210871750333534, -2.1295399255655845, 0
601, 5.1335799775208, -2.096846370077643, 0
602, 5.058859642233783, -2.063201592863735, 0
603, 4.986710744472479, -2.028605593923859, 0
604, 4.917133284236891, -1.9930583732580172, 0
605, 4.850127261527016, -1.9565599308662076, 0
606, 4.785692676342854, -1.9191102667484294, 0
607, 4.7238295286844085, -1.8807093809046849, 0
608, 4.664537818551677, -1.8413572733349732, 0
609, 4.60781754594466, -1.8010539440392945, 0
610, 4.553668710863358, -1.7597993930176483, 0
611, 4.502091313307768, -1.7175936202700344, 0
612, 4.453085353277895, -1.6744366257964538, 0
613, 4.406650830773735, -1.6303284095969057, 0
614, 4.3627877457952895, -1.5852689716713906, 0
615, 4.321496098342559, -1.5392583120199081, 0
616, 4.282775888415543, -1.4922964306424584, 0
617, 4.24662711601424, -1.4443833275390414, 0
618, 4.213049781138653, -1.3955190027096573, 0
619, 4.179953110884608, -1.3431537325543248, 0
620, 4.148645449833484, -1.2899314709143657, 0
621, 4.119126797985282, -1.235852217789779, 0
622, 4.091397155340001, -1.1809159731805656, 0
623, 4.065456521897642, -1.1251227370867247, 0
624, 4.041304897658203, -1.0684725095082575, 0
625, 4.018942282621687, -1.0109652904451627, 0
626, 3.9983686767880915, -0.9526010798974416, 0
627, 3.9795840801574167, -0.8933798778650923, 0
628, 3.962588492729664, -0.8333016843481164, 0
629, 3.947381914504833, -0.7723664993465131, 0
630, 3.9339643454829227, -0.7105743228602834, 0
631, 3.922335785663934, -0.647925154889427, 0
632, 3.9124962350478665, -0.5844189954339433, 0
633, 3.9044456936347207, -0.520055844493831, 0
634, 3.898184161424495, -0.45483570206909324, 0
635, 3.8937116384171926, -0.38875856815972787, 0
636, 3.8910281246128102, -0.3218244427657348, 0
637, 4.314675641076001, 0.2540333258871158, 0
638, 4.306218235599668, 0.29394199082996303, 0
639, 4.299905237361444, 0.3344401410892671, 0
640, 4.295736646361325, 0.37552777666502773, 0
641, 4.293712462599315, 0.41720489755724544, 0
642, 4.293832686075411, 0.4594715037659196, 0
643, 4.296097316789614, 0.5023275952910501, 0
644, 4.300506354741924, 0.5457731721326377, 0
645, 4.307059799932343, 0.5898082342906822, 0
646, 4.315757652360868, 0.6344327817651829, 0
647, 4.3265999120275005, 0.6796468145561404, 0
648, 4.33958657893224, 0.7254503326635546, 0
649, 4.354717653075086, 0.7718433360874257, 0
650, 4.371993134456041, 0.8188258248277531, 0
651, 4.391413023075101, 0.8663977988845377, 0
652, 4.4129773189322705, 0.9145592582577786, 0
653, 4.436686022027546, 0.9633102029474765, 0
654, 4.462539132360929, 1.0126506329536307, 0
655, 4.490536649932419, 1.0625805482762423, 0
656, 4.520678574742016, 1.1130999489153095, 0
657, 4.552964906789721, 1.1642088348708344, 0
658, 4.587591319365493, 1.2152089390774308, 0
659, 4.624753485759293, 1.2654019944697148, 0
660, 4.664451405971122, 1.3147880010476878, 0
661, 4.706685080000979, 1.3633669588113477, 0
662, 4.751454507848865, 1.411138867760696, 0
663, 4.79875968951478, 1.4581037278957318, 0
664, 4.8486006249987215, 1.5042615392164551, 0
665, 4.900977314300692, 1.5496123017228665, 0
666, 4.9558897574206915, 1.5941560154149657, 0
667, 5.013337954358718, 1.6378926802927531, 0
668, 5.073321905114774, 1.6808222963562274, 0
669, 5.135841609688859, 1.7229448636053908, 0
670, 5.20089706808097, 1.764260382040241, 0
671, 5.268488280291111, 1.8047688516607792, 0
672, 5.33861524631928, 1.844470272467006, 0
673, 5.4112779661654775, 1.8833646444589192, 0
674, 5.486476439829702, 1.921451967636521, 0
675, 5.564210667311957, 1.9587322419998112, 0
676, 5.64448064861224, 1.995205467548789, 0
677, 5.72728638373055, 2.0308716442834536, 0
678, 5.808752819893999, 2.0688523162527614, 0
679, 5.885004904329695, 2.112269027505667, 0
680, 5.956042637037636, 2.1611217780421685, 0
681, 6.021866018017827, 2.2154105678622678, 0
682, 6.0824750472702656, 2.275135396965965, 0
683, 6.137869724794949, 2.3402962653532584, 0
684, 6.188050050591881, 2.410893173024149, 0
685, 6.233016024661061, 2.4869261199786368, 0
686, 6.272767647002487, 2.5683951062167227, 0
687, 6.307304917616162, 2.655300131738406, 0
688, 6.336627836502083, 2.747641196543685, 0
689, 6.36073640366025, 2.8454183006325624, 0
690, 6.379630619090666, 2.9486314440050356, 0
691, 6.393310482793329, 3.057280626661108, 0
692, 6.401775994768239, 3.171365848600776, 0
693, 6.405027155015397, 3.2908871098240415, 0
694, 6.403063963534803, 3.415844410330905, 0
695, 6.395886420326454, 3.5462377501213647, 0
696, 6.383494525390353, 3.682067129195423, 0
697, 6.3658882787265, 3.823332547553077, 0
698, 6.345054457854586, 3.96484213350992, 0
699, 6.322979840294305, 4.101404015381545, 0
700, 6.2996644260456565, 4.233018193167951, 0
701, 6.275108215108641, 4.35968466686914, 0
702, 6.249311207483257, 4.481403436485109, 0
703, 6.222273403169506, 4.598174502015859, 0
704, 6.193994802167388, 4.709997863461392, 0
705, 6.164475404476901, 4.816873520821703, 0
706, 6.133715210098048, 4.918801474096799, 0
707, 6.101714219030827, 5.015781723286675, 0
708, 6.0684724312752385, 5.107814268391331, 0
709, 6.033989846831282, 5.19489910941077, 0
710, 5.9982664656989595, 5.27703624634499, 0
711, 5.961302287878267, 5.35422567919399, 0
712, 5.92309731336921, 5.426467407957773, 0
713, 5.8836515421717825, 5.493761432636336, 0
714, 5.84296497428599, 5.556107753229682, 0
715, 5.801037609711829, 5.613506369737808, 0
716, 5.757869448449299, 5.665957282160715, 0
717, 5.713460490498405, 5.713460490498405, 0
718, 5.665957282160715, 5.757869448449299, 0
719, 5.613506369737808, 5.801037609711829, 0
720, 5.556107753229681, 5.842964974285991, 0
721, 5.493761432636336, 5.8836515421717825, 0
722, 5.426467407957773, 5.92309731336921, 0
723, 5.35422567919399, 5.961302287878267, 0
724, 5.2770362463449905, 5.998266465698959, 0
725, 5.19489910941077, 6.033989846831283, 0
726, 5.107814268391331, 6.0684724312752385, 0
727, 5.015781723286675, 6.101714219030827, 0
728, 4.918801474096799, 6.133715210098048, 0
729, 4.816873520821705, 6.164475404476902, 0
730, 4.70999786346139, 6.193994802167388, 0
731, 4.598174502015859, 6.222273403169506, 0
732, 4.481403436485109, 6.249311207483257, 0
733, 4.35968466686914, 6.275108215108641, 0
734, 4.233018193167953, 6.2996644260456565, 0
735, 4.1014040153815445, 6.322979840294305, 0
736, 3.96484213350992, 6.345054457854586, 0
737, 3.823332547553077, 6.3658882787265, 0
738, 3.682067129195423, 6.383494525390353, 0
739, 3.5462377501213664, 6.3958864203264545, 0
740, 3.415844410330904, 6.403063963534802, 0
741, 3.2908871098240415, 6.405027155015397, 0
742, 3.171365848600776, 6.401775994768239, 0
743, 3.057280626661108, 6.393310482793329, 0
744, 2.9486314440050374, 6.379630619090667, 0
745, 2.8454183006325615, 6.360736403660251, 0
746, 2.747641196543685, 6.336627836502083, 0
747, 2.655300131738406, 6.307304917616162, 0
748, 2.5683951062167227, 6.272767647002487, 0
749, 2.4869261199786385, 6.233016024661061, 0
750, 2.410893173024149, 6.188050050591881, 0
751, 2.3402962653532584, 6.137869724794949, 0
752, 2.275135396965965, 6.0824750472702656, 0
753, 2.2154105678622678, 6.021866018017827, 0
754, 2.1611217780421694, 5.956042637037638, 0
755, 2.1122690275056666, 5.885004904329694, 0
756, 2.0688523162527614, 5.808752819893999, 0
757, 2.0308716442834536, 5.72728638373055, 0
758, 1.995205467548789, 5.64448064861224, 0
759, 1.958732241999811, 5.564210667311957, 0
760, 1.9214519676365207, 5.486476439829702, 0
761, 1.8833646444589192, 5.4112779661654775, 0
762, 1.844470272467006, 5.33861524631928, 0
763, 1.8047688516607792, 5.268488280291111, 0
764, 1.7642603820402412, 5.2008970680809705, 0
765, 1.722944863605391, 5.135841609688859, 0
766, 1.6808222963562274, 5.073321905114774, 0
767, 1.6378926802927531, 5.013337954358718, 0
768, 1.5941560154149657, 4.9558897574206915, 0
769, 1.549612301722867, 4.900977314300693, 0
770, 1.5042615392164547, 4.848600624998721, 0
771, 1.4581037278957318, 4.79875968951478, 0
772, 1.411138867760696, 4.751454507848865, 0
773, 1.3633669588113477, 4.706685080000979, 0
774, 1.3147880010476878, 4.664451405971122, 0
775, 1.2654019944697144, 4.6247534857592925, 0
776, 1.2152089390774308, 4.587591319365493, 0
777, 1.1642088348708344, 4.552964906789721, 0
778, 1.1104263367823721, 4.519038695970478, 0
779, 1.0572970080196238, 4.4874885596532925, 0
780, 1.00482084858259, 4.458314497838165, 0
781, 0.9529978584712698, 4.431516510525096, 0
782, 0.9018280376856622, 4.407094597714084, 0
783, 0.8513113862257694, 4.385048759405131, 0
784, 0.8014479040915911, 4.3653789955982365, 0
785, 0.7522375912831254, 4.348085306293399, 0
786, 0.703680447800373, 4.333167691490618, 0
787, 0.6557764736433361, 4.320626151189896, 0
788, 0.6085256688120114, 4.310460685391233, 0
789, 0.5619280333064015, 4.302671294094626, 0
790, 0.5159835671265052, 4.297257977300077, 0
791, 0.47069227027232247, 4.2942207350075865, 0
792, 0.4260541427438533, 4.293559567217153, 0
793, 0.38206918454109856, 4.295274473928779, 0
794, 0.338737395664057, 4.299365455142462, 0
795, 0.29605877611272885, 4.305832510858203, 0
796, 0.2540333258871158, 4.314675641076001, 0
797, 0.2540333258871159, 6.945066810005676, 0
798, 0.25403332588711625, 10.0, 0
799, -0.2540333258871158, 10.0, 0
800, -0.2540333258871158, 4.314675641076001, 0
801, -0.29394199082996303, 4.306218235599668, 0
802, -0.3344401410892671, 4.299905237361444, 0
803, -0.37552777666502773, 4.295736646361325, 0
804, -0.41720489755724544, 4.293712462599315, 0
805, -0.4594715037659196, 4.293832686075411, 0
806, -0.5023275952910501, 4.296097316789614, 0
807, -0.5457731721326377, 4.300506354741924, 0
808, -0.5898082342906822, 4.307059799932343, 0
809, -0.6344327817651829, 4.315757652360868, 0
810, -0.6796468145561404, 4.3265999120275005, 0
811, -0.7254503326635546, 4.33958657893224, 0
812, -0.7718433360874257, 4.354717653075086, 0
813, -0.8188258248277531, 4.371993134456041, 0
814, -0.8663977988845377, 4.391413023075101, 0
815, -0.9145592582577786, 4.4129773189322705, 0
816, -0.9633102029474765, 4.436686022027546, 0
817, -1.0126506329536307, 4.462539132360929, 0
818, -1.0625805482762423, 4.490536649932419, 0
819, -1.1130999489153095, 4.520678574742016, 0
820, -1.1642088348708344, 4.552964906789721, 0
821, -1.2152089390774308, 4.587591319365493, 0
822, -1.2654019944697148, 4.624753485759293, 0
823, -1.3147880010476878, 4.664451405971122, 0
824, -1.3633669588113477, 4.706685080000979, 0
825, -1.411138867760696, 4.751454507848865, 0
826, -1.4581037278957318, 4.79875968951478, 0
827, -1.5042615392164551, 4.8486006249987215, 0
828, -1.5496123017228665, 4.900977314300692, 0
829, -1.5941560154149657, 4.9558897574206915, 0
830, -1.6378926802927531, 5.013337954358718, 0
831, -1.6808222963562274, 5.073321905114774, 0
832, -1.7229448636053908, 5.135841609688859, 0
833, -1.764260382040241, 5.20089706808097, 0
834, -1.8047688516607792, 5.268488280291111, 0
835, -1.844470272467006, 5.33861524631928, 0
836, -1.8833646444589192, 5.4112779661654775, 0
837, -1.921451967636521, 5.486476439829702, 0
838, -1.9587322419998112, 5.564210667311957, 0
839, -1.995205467548789, 5.64448064861224, 0
840, -2.0308716442834536, 5.72728638373055, 0
841, -2.0688523162527614, 5.808752819893999, 0
842, -2.112269027505667, 5.885004904329695, 0
843, -2.1611217780421685, 5.956042637037636, 0
844, -2.2154105678622678, 6.021866018017827, 0
845, -2.275135396965965, 6.0824750472702656, 0
846, -2.3402962653532584, 6.137869724794949, 0
847, -2.410893173024149, 6.188050050591881, 0
848, -2.4869261199786368, 6.233016024661061, 0
849, -2.5683951062167227, 6.272767647002487, 0
850, -2.655300131738406, 6.307304917616162, 0
851, -2.747641196543685, 6.336627836502083, 0
852, -2.8454183006325624, 6.36073640366025, 0
853, -2.9486314440050356, 6.379630619090666, 0
854, -3.057280626661108, 6.393310482793329, 0
855, -3.171365848600776, 6.401775994768239, 0
856, -3.2908871098240415, 6.405027155015397, 0
857, -3.415844410330905, 6.403063963534803, 0
858, -3.5462377501213647, 6.395886420326454, 0
859, -3.682067129195423, 6.383494525390353, 0
860, -3.823332547553077, 6.3658882787265, 0
861, -3.96484213350992, 6.345054457854586, 0
862, -4.101404015381545, 6.322979840294305, 0
863, -4.233018193167951, 6.2996644260456565, 0
864, -4.35968466686914, 6.275108215108641, 0
865, -4.481403436485109, 6.249311207483257, 0
866, -4.598174502015859, 6.222273403169506, 0
867, -4.709997863461392, 6.193994802167388, 0
868, -4.816873520821703, 6.164475404476901, 0
869, -4.918801474096799, 6.133715210098048, 0
870, -5.015781723286675, 6.101714219030827, 0
871, -5.107814268391331, 6.0684724312752385, 0
872, -5.19489910941077, 6.033989846831282, 0
873, -5.27703624634499, 5.9982664656989595, 0
874, -5.35422567919399, 5.961302287878267, 0
875, -5.426467407957773, 5.92309731336921, 0
876, -5.493761432636336, 5.8836515421717825, 0
877, -5.556107753229682, 5.84296497428599, 0
878, -5.613506369737808, 5.801037609711829, 0
879, -5.665957282160715, 5.757869448449299, 0
880, -5.713460490498405, 5.713460490498405, 0
881, -5.757869448449299, 5.665957282160715, 0
882, -5.801037609711829, 5.613506369737808, 0
883, -5.842964974285991, 5.556107753229681, 0
884, -5.8836515421717825, 5.493761432636336, 0
885, -5.92309731336921, 5.426467407957773, 0
886, -5.961302287878267, 5.35422567919399, 0
887, -5.998266465698959, 5.2770362463449905, 0
888, -6.033989846831283, 5.19489910941077, 0
889, -6.0684724312752385, 5.107814268391331, 0
890, -6.101714219030827, 5.015781723286675, 0
891, -6.133715210098048, 4.918801474096799, 0
892, -6.164475404476902, 4.816873520821705, 0
893, -6.193994802167388, 4.70999786346139, 0
894, -6.222273403169506, 4.598174502015859, 0
895, -6.249311207483257, 4.481403436485109, 0
896, -6.275108215108641, 4.35968466686914, 0
897, -6.2996644260456565, 4.233018193167953, 0
898, -6.322979840294305, 4.1014040153815445, 0
899, -6.345054457854586, 3.96484213350992, 0
900, -6.3658882787265, 3.823332547553077, 0
901, -6.383494525390353, 3.682067129195423, 0
902, -6.3958864203264545, 3.5462377501213664, 0
903, -6.403063963534802, 3.415844410330904, 0
904, -6.405027155015397, 3.2908871098240415, 0
905, -6.401775994768239, 3.171365848600776, 0
906, -6.393310482793329, 3.057280626661108, 0
907, -6.379630619090667, 2.9486314440050374, 0
908, -6.360736403660251, 2.8454183006325615, 0
909, -6.336627836502083, 2.747641196543685, 0
910, -6.307304917616162, 2.655300131738406, 0
911, -6.272767647002487, 2.5683951062167227, 0
912, -6.233016024661061, 2.4869261199786385, 0
913, -6.188050050591881, 2.410893173024149, 0
914, -6.137869724794949, 2.3402962653532584, 0
915, -6.0824750472702656, 2.275135396965965, 0
916, -6.021866018017827, 2.2154105678622678, 0
917, -5.956042637037638, 2.1611217780421694, 0
918, -5.885004904329694, 2.1122690275056666, 0
919, -5.808752819893999, 2.0688523162527614, 0
920, -5.72728638373055, 2.0308716442834536, 0
921, -5.64448064861224, 1.995205467548789, 0
922, -5.564210667311957, 1.958732241999811, 0
923, -5.486476439829702, 1.9214519676365207, 0
924, -5.4112779661654775, 1.8833646444589192, 0
925, -5.33861524631928, 1.844470272467006, 0
926, -5.268488280291111, 1.8047688516607792, 0
927, -5.2008970680809705, 1.7642603820402412, 0
928, -5.135841609688859, 1.722944863605391, 0
929, -5.073321905114774, 1.6808222963562274, 0
930, -5.013337954358718, 1.6378926802927531, 0
931, -4.9558897574206915, 1.5941560154149657, 0
932, -4.900977314300693, 1.549612301722867, 0
933, -4.848600624998721, 1.5042615392164547, 0
934, -4.79875968951478, 1.4581037278957318, 0
935, -4.751454507848865, 1.411138867760696, 0
936, -4.706685080000979, 1.3633669588113477, 0
937, -4.664451405971122, 1.3147880010476878, 0
938, -4.6247534857592925, 1.2654019944697144, 0
939, -4.587591319365493, 1.2152089390774308, 0
940, -4.552964906789721, 1.1642088348708344, 0
941, -4.519038695970478, 1.1104263367823721, 0
942, -4.4874885596532925, 1.0572970080196238, 0
943, -4.458314497838165, 1.00482084858259, 0
944, -4.431516510525096, 0.9529978584712698, 0
945, -4.407094597714084, 0.9018280376856622, 0
946, -4.385048759405131, 0.8513113862257694, 0
947, -4.3653789955982365, 0.8014479040915911, 0
948, -4.348085306293399, 0.7522375912831254, 0
949, -4.333167691490618, 0.703680447800373, 0
950, -4.320626151189896, 0.6557764736433361, 0
951, -4.310460685391233, 0.6085256688120114, 0
952, -4.302671294094626, 0.5619280333064015, 0
953, -4.297257977300077, 0.5159835671265052, 0
954, -4.2942207350075865, 0.47069227027232247, 0
955, -4.293559567217153, 0.4260541427438533, 0
956, -4.295274473928779, 0.38206918454109856, 0
957, -4.299365455142462, 0.338737395664057, 0
958, -4.305832510858203, 0.29605877611272885, 0
959, -4.314675641076001, 0.2540333258871158, 0
960, -6.945066810005676, 0.2540333258871159, 0
961, -10.0, 0.25403332588711625, 0
962, -10.0, -0.2540333258871158, 0
963, -4.314675641076001, -0.2540333258871154, 0
964, -4.306218235599668, -0.2939419908299627, 0
965, -4.299905237361443, -0.33444014108926673, 0
966, -4.295736646361324, -0.37552777666502735, 0
967, -4.293712462599314, -0.4172048975572451, 0
968, -4.29383268607541, -0.4594715037659192, 0
969, -4.296097316789614, -0.5023275952910498, 0
970, -4.300506354741924, -0.5457731721326372, 0
971, -4.307059799932342, -0.5898082342906819, 0
972, -4.315757652360868, -0.6344327817651825, 0
973, -4.3265999120275, -0.6796468145561401, 0
974, -4.33958657893224, -0.7254503326635543, 0
975, -4.354717653075086, -0.7718433360874253, 0
976, -4.371993134456041, -0.8188258248277528, 0
977, -4.391413023075101, -0.8663977988845373, 0
978, -4.41297731893227, -0.9145592582577782, 0
979, -4.436686022027545, -0.9633102029474762, 0
980, -4.462539132360928, -1.0126506329536304, 0
981, -4.490536649932419, -1.0625805482762418, 0
982, -4.520678574742016, -1.113099948915309, 0
983, -4.55296490678972, -1.164208834870834, 0
984, -4.587591319365493, -1.2152089390774303, 0
985, -4.624753485759293, -1.2654019944697144, 0
986, -4.664451405971122, -1.3147880010476873, 0
987, -4.706685080000979, -1.3633669588113473, 0
988, -4.751454507848865, -1.4111388677606953, 0
989, -4.798759689514779, -1.4581037278957312, 0
990, -4.8486006249987215, -1.5042615392164547, 0
991, -4.900977314300692, -1.5496123017228658, 0
992, -4.955889757420691, -1.5941560154149652, 0
993, -5.013337954358718, -1.6378926802927525, 0
994, -5.073321905114773, -1.680822296356227, 0
995, -5.135841609688859, -1.7229448636053901, 0
996, -5.20089706808097, -1.7642603820402403, 0
997, -5.268488280291111, -1.8047688516607785, 0
998, -5.3386152463192795, -1.8444702724670052, 0
999, -5.4112779661654775, -1.8833646444589185, 0
1000, -5.486476439829702, -1.9214519676365205, 0
1001, -5.564210667311957, -1.9587322419998108, 0
1002, -5.644480648612239, -1.9952054675487885, 0
1003, -5.727286383730549, -2.0308716442834527, 0
1004, -5.808752819893998, -2.068852316252761, 0
1005, -5.885004904329694, -2.112269027505666, 0
1006, -5.956042637037636, -2.1611217780421677, 0
1007, -6.021866018017827, -2.215410567862267, 0
1008, -6.082475047270265, -2.2751353969659642, 0
1009, -6.137869724794949, -2.3402962653532575, 0
1010, -6.1880500505918805, -2.410893173024148, 0
1011, -6.23301602466106, -2.486926119978636, 0
1012, -6.272767647002486, -2.568395106216722, 0
1013, -6.307304917616161, -2.6553001317384055, 0
1014, -6.336627836502083, -2.747641196543684, 0
1015, -6.36073640366025, -2.8454183006325615, 0
1016, -6.379630619090666, -2.948631444005035, 0
1017, -6.393310482793329, -3.057280626661107, 0
1018, -6.401775994768239, -3.171365848600775, 0
1019, -6.405027155015397, -3.2908871098240406, 0
1020, -6.403063963534803, -3.4158444103309042, 0
1021, -6.395886420326454, -3.5462377501213638, 0
1022, -6.383494525390353, -3.682067129195422, 0
1023, -6.3658882787265, -3.823332547553076, 0
1024, -6.345054457854586, -3.964842133509919, 0
1025, -6.322979840294305, -4.1014040153815445, 0
1026, -6.2996644260456565, -4.2330181931679505, 0
1027, -6.275108215108641, -4.359684666869139, 0
1028, -6.249311207483257, -4.481403436485108, 0
1029, -6.222273403169506, -4.598174502015858, 0
1030, -6.193994802167388, -4.709997863461391, 0
1031, -6.164475404476901, -4.816873520821702, 0
1032, -6.133715210098048, -4.9188014740967985, 0
1033, -6.101714219030827, -5.015781723286674, 0
1034, -6.0684724312752385, -5.10781426839133, 0
1035, -6.033989846831282, -5.194899109410769, 0
1036, -5.9982664656989595, -5.277036246344989, 0
1037, -5.961302287878267, -5.3542256791939895, 0
1038, -5.92309731336921, -5.426467407957772, 0
1039, -5.8836515421717825, -5.493761432636334, 0
1040, -5.84296497428599, -5.556107753229681, 0
1041, -5.801037609711829, -5.613506369737807, 0
1042, -5.757869448449299, -5.665957282160714, 0
1043, -5.713460490498405, -5.713460490498404, 0
1044, -5.665957282160715, -5.7578694484492985, 0
1045, -5.613506369737808, -5.801037609711828, 0
1046, -5.556107753229681, -5.84296497428599, 0
1047, -5.493761432636336, -5.883651542171782, 0
1048, -5.426467407957773, -5.923097313369209, 0
1049, -5.35422567919399, -5.961302287878266, 0
1050, -5.2770362463449905, -5.998266465698958, 0
1051, -5.19489910941077, -6.0339898468312825, 0
1052, -5.107814268391331, -6.068472431275238, 0
1053, -5.015781723286675, -6.101714219030826, 0
1054, -4.918801474096799, -6.133715210098047, 0
1055, -4.816873520821705, -6.164475404476901, 0
1056, -4.70999786346139, -6.193994802167387, 0
1057, -4.598174502015859, -6.222273403169505, 0
1058, -4.481403436485109, -6.249311207483256, 0
1059, -4.359684666869141, -6.27510821510864, 0
1060, -4.233018193167953, -6.299664426045656, 0
1061, -4.1014040153815445, -6.3229798402943045, 0
1062, -3.96484213350992, -6.3450544578545856, 0
1063, -3.823332547553077, -6.365888278726499, 0
1064, -3.6820671291954232, -6.383494525390352, 0
1065, -3.5462377501213664, -6.395886420326454, 0
1066, -3.415844410330904, -6.403063963534801, 0
1067, -3.2908871098240415, -6.4050271550153965, 0
1068, -3.171365848600776, -6.401775994768238, 0
1069, -3.057280626661108, -6.3933104827933285, 0
1070, -2.948631444005038, -6.379630619090666, 0
1071, -2.845418300632562, -6.36073640366025, 0
1072, -2.747641196543685, -6.336627836502082, 0
1073, -2.6553001317384064, -6.307304917616161, 0
1074, -2.568395106216723, -6.272767647002486, 0
1075, -2.4869261199786385, -6.233016024661061, 0
1076, -2.4108931730241494, -6.1880500505918805, 0
1077, -2.3402962653532584, -6.137869724794949, 0
1078, -2.2751353969659656, -6.082475047270265, 0
1079, -2.2154105678622678, -6.0218660180178265, 0
1080, -2.16112177804217, -5.956042637037637, 0
1081, -2.112269027505667, -5.885004904329693, 0
1082, -2.068852316252762, -5.808752819893998, 0
1083, -2.030871644283454, -5.727286383730549, 0
1084, -1.9952054675487894, -5.644480648612239, 0
1085, -1.9587322419998112, -5.564210667311957, 0
1086, -1.921451967636521, -5.486476439829702, 0
1087, -1.8833646444589196, -5.4112779661654775, 0
1088, -1.8444702724670061, -5.3386152463192795, 0
1089, -1.8047688516607794, -5.268488280291111, 0
1090, -1.7642603820402414, -5.2008970680809705, 0
1091, -1.7229448636053915, -5.135841609688858, 0
1092, -1.6808222963562278, -5.073321905114773, 0
1093, -1.6378926802927534, -5.013337954358718, 0
1094, -1.5941560154149659, -4.955889757420691, 0
1095, -1.5496123017228671, -4.900977314300692, 0
1096, -1.504261539216455, -4.848600624998721, 0
1097, -1.458103727895732, -4.798759689514779, 0
1098, -1.4111388677606962, -4.751454507848865, 0
1099, -1.363366958811348, -4.706685080000979, 0
1100, -1.314788001047688, -4.664451405971122, 0
1101, -1.2654019944697148, -4.6247534857592925, 0
1102, -1.215208939077431, -4.587591319365493, 0
1103, -1.1642088348708346, -4.55296490678972, 0
1104, -1.1104263367823723, -4.519038695970477, 0
1105, -1.057297008019624, -4.487488559653292, 0
1106, -1.0048208485825902, -4.458314497838165, 0
1107, -0.95299785847127, -4.431516510525096, 0
1108, -0.9018280376856624, -4.407094597714084, 0
1109, -0.8513113862257696, -4.385048759405131, 0
1110, -0.8014479040915913, -4.365378995598236, 0
1111, -0.7522375912831258, -4.348085306293398, 0
1112, -0.7036804478003732, -4.333167691490618, 0
1113, -0.6557764736433364, -4.320626151189896, 0
1114, -0.6085256688120119, -4.310460685391232, 0
1115, -0.5619280333064017, -4.302671294094625, 0
1116, -0.5159835671265056, -4.297257977300077, 0
1117, -0.4706922702723227, -4.2942207350075865, 0
1118, -0.4260541427438535, -4.293559567217153, 0
1119, -0.382069184541099, -4.295274473928779, 0
1120, -0.3387373956640572, -4.299365455142461, 0
1121, -0.2960587761127293, -4.3058325108582025, 0
1122, -0.2540333258871158, -4.3146756410760005, 0
1123, -0.25403332588711636, -6.945066810005675, 0
1124, -0.25403332588711625, -10.0, 0
1125, 0.2540333258871149, -10.0, 0
1126, 0.25403332588711497, -4.314675641076001, 0
1127, 0.29394199082996225, -4.306218235599668, 0
1128, 0.3344401410892665, -4.299905237361444, 0
1129, 0.3755277766650271, -4.295736646361325, 0
1130, 0.4172048975572449, -4.293712462599315, 0
1131, 0.459471503765919, -4.293832686075411, 0
1132, 0.5023275952910495, -4.296097316789614, 0
1133, 0.545773172132637, -4.300506354741924, 0
1134, 0.5898082342906816, -4.307059799932343, 0
1135, 0.6344327817651823, -4.315757652360868, 0
1136, 0.6796468145561398, -4.3265999120275005, 0
1137, 0.7254503326635539, -4.33958657893224, 0
1138, 0.7718433360874248, -4.354717653075086, 0
1139, 0.8188258248277526, -4.371993134456041, 0
1140, 0.8663977988845368, -4.391413023075102, 0
1141, 0.914559258257778, -4.4129773189322705, 0
1142, 0.9633102029474757, -4.436686022027546, 0
1143, 1.0126506329536302, -4.462539132360929, 0
1144, 1.0625805482762414, -4.4905366499324195, 0
1145, 1.1130999489153088, -4.520678574742016, 0
1146, 1.1642088348708337, -4.552964906789721, 0
1147, 1.21520893907743, -4.587591319365494, 0
1148, 1.2654019944697141, -4.624753485759293, 0
1149, 1.3147880010476871, -4.664451405971123, 0
1150, 1.363366958811347, -4.70668508000098, 0
1151, 1.4111388677606949, -4.751454507848866, 0
1152, 1.458103727895731, -4.79875968951478, 0
1153, 1.5042615392164544, -4.8486006249987215, 0
1154, 1.5496123017228656, -4.900977314300692, 0
1155, 1.594156015414965, -4.9558897574206915, 0
1156, 1.637892680292752, -5.013337954358719, 0
1157, 1.6808222963562267, -5.073321905114774, 0
1158, 1.72294486360539, -5.135841609688859, 0
1159, 1.76426038204024, -5.2008970680809705, 0
1160, 1.804768851660778, -5.268488280291112, 0
1161, 1.844470272467005, -5.33861524631928, 0
1162, 1.8833646444589183, -5.4112779661654775, 0
1163, 1.9214519676365203, -5.486476439829702, 0
1164, 1.9587322419998106, -5.564210667311957, 0
1165, 1.9952054675487882, -5.64448064861224, 0
1166, 2.0308716442834527, -5.72728638373055, 0
1167, 2.0688523162527606, -5.808752819893999, 0
1168, 2.112269027505666, -5.885004904329695, 0
1169, 2.1611217780421677, -5.956042637037637, 0
1170, 2.215410567862267, -6.021866018017827, 0
1171, 2.2751353969659642, -6.0824750472702656, 0
1172, 2.340296265353257, -6.13786972479495, 0
1173, 2.410893173024148, -6.188050050591881, 0
1174, 2.486926119978636, -6.233016024661061, 0
1175, 2.568395106216722, -6.272767647002487, 0
1176, 2.655300131738405, -6.307304917616162, 0
1177, 2.7476411965436838, -6.336627836502083, 0
1178, 2.845418300632561, -6.360736403660251, 0
1179, 2.9486314440050347, -6.379630619090666, 0
1180, 3.057280626661107, -6.39331048279333, 0
1181, 3.1713658486007748, -6.40177599476824, 0
1182, 3.2908871098240406, -6.405027155015398, 0
1183, 3.4158444103309042, -6.4030639635348034, 0
1184, 3.5462377501213638, -6.3958864203264545, 0
1185, 3.682067129195422, -6.383494525390354, 0
1186, 3.8233325475530755, -6.3658882787265005, 0
1187, 3.964842133509919, -6.345054457854586, 0
1188, 4.1014040153815445, -6.322979840294306, 0
1189, 4.2330181931679505, -6.299664426045657, 0
1190, 4.359684666869139, -6.275108215108641, 0
1191, 4.481403436485108, -6.249311207483257, 0
1192, 4.598174502015858, -6.222273403169507, 0
1193, 4.709997863461391, -6.1939948021673885, 0
1194, 4.816873520821702, -6.164475404476902, 0
1195, 4.9188014740967985, -6.133715210098049, 0
1196, 5.015781723286674, -6.101714219030828, 0
1197, 5.10781426839133, -6.068472431275239, 0
1198, 5.194899109410769, -6.0339898468312825, 0
1199, 5.277036246344989, -5.99826646569896, 0
1200, 5.3542256791939895, -5.961302287878268, 0
1201, 5.426467407957772, -5.923097313369211, 0
1202, 5.493761432636334, -5.883651542171783, 0
1203, 5.556107753229681, -5.842964974285991, 0
1204, 5.613506369737807, -5.8010376097118295, 0
1205, 5.665957282160714, -5.7578694484493, 0
1206, 5.713460490498404, -5.713460490498406, 0
1207, 5.7578694484492985, -5.665957282160716, 0
1208, 5.801037609711828, -5.6135063697378085, 0
1209, 5.84296497428599, -5.556107753229682, 0
1210, 5.883651542171782, -5.493761432636337, 0
1211, 5.923097313369209, -5.426467407957774, 0
1212, 5.961302287878267, -5.354225679193991, 0
1213, 5.998266465698958, -5.277036246344991, 0
1214, 6.0339898468312825, -5.194899109410771, 0
1215, 6.068472431275238, -5.107814268391332, 0
1216, 6.101714219030827, -5.0157817232866755, 0
1217, 6.133715210098047, -4.9188014740968, 0
1218, 6.164475404476901, -4.816873520821706, 0
1219, 6.193994802167387, -4.709997863461391, 0
1220, 6.222273403169505, -4.59817450201586, 0
1221, 6.249311207483256, -4.48140343648511, 0
1222, 6.27510821510864, -4.359684666869141, 0
1223, 6.299664426045656, -4.233018193167954, 0
1224, 6.3229798402943045, -4.101404015381545, 0
1225, 6.3450544578545856, -3.964842133509921, 0
1226, 6.3658882787265, -3.8233325475530777, 0
1227, 6.383494525390352, -3.6820671291954237, 0
1228, 6.3958864203264545, -3.5462377501213673, 0
1229, 6.403063963534801, -3.4158444103309047, 0
1230, 6.4050271550153965, -3.2908871098240424, 0
1231, 6.401775994768239, -3.171365848600777, 0
1232, 6.3933104827933285, -3.057280626661109, 0
1233, 6.379630619090666, -2.9486314440050383, 0
1234, 6.36073640366025, -2.8454183006325624, 0
1235, 6.336627836502082, -2.747641196543686, 0
1236, 6.307304917616161, -2.655300131738407, 0
1237, 6.272767647002486, -2.5683951062167236, 0
1238, 6.233016024661061, -2.4869261199786394, 0
1239, 6.1880500505918805, -2.41089317302415, 0
1240, 6.137869724794949, -2.3402962653532593, 0
1241, 6.082475047270265, -2.275135396965966, 0
1242, 6.0218660180178265, -2.2154105678622686, 0
1243, 5.956042637037638, -2.1611217780421703, 0
1244, 5.885004904329693, -2.1122690275056675, 0
1245, 5.808752819893998, -2.0688523162527623, 0
1246, 5.727286383730549, -2.0308716442834545, 0
1247, 5.644480648612239, -1.99520546754879, 0
1248, 5.564210667311957, -1.9587322419998119, 0
1249, 5.486476439829702, -1.9214519676365216, 0
1250, 5.4112779661654775, -1.8833646444589203, 0
1251, 5.3386152463192795, -1.8444702724670066, 0
1252, 5.268488280291111, -1.8047688516607798, 0
1253, 5.2008970680809705, -1.764260382040242, 0
1254, 5.135841609688858, -1.722944863605392, 0
1255, 5.073321905114774, -1.6808222963562285, 0
1256, 5.013337954358718, -1.6378926802927538, 0
1257, 4.955889757420691, -1.5941560154149665, 0
1258, 4.900977314300692, -1.5496123017228678, 0
1259, 4.848600624998721, -1.5042615392164553, 0
1260, 4.798759689514779, -1.4581037278957325, 0
1261, 4.751454507848865, -1.4111388677606966, 0
1262, 4.706685080000979, -1.3633669588113484, 0
1263, 4.664451405971122, -1.3147880010476884, 0
1264, 4.6247534857592925, -1.2654019944697152, 0
1265, 4.587591319365493, -1.2152089390774314, 0
1266, 4.55296490678972, -1.164208834870835, 0
1267, 4.519038695970477, -1.1104263367823728, 0
1268, 4.487488559653292, -1.0572970080196245, 0
1269, 4.458314497838165, -1.0048208485825907, 0
1270, 4.431516510525096, -0.9529978584712705, 0
1271, 4.407094597714084, -0.9018280376856629, 0
1272, 4.385048759405131, -0.85131138622577, 0
1273, 4.3653789955982365, -0.8014479040915917, 0
1274, 4.348085306293398, -0.7522375912831262, 0
1275, 4.333167691490618, -0.7036804478003736, 0
1276, 4.320626151189896, -0.6557764736433367, 0
1277, 4.310460685391232, -0.6085256688120123, 0
1278, 4.302671294094626, -0.5619280333064021, 0
1279, 4.297257977300077, -0.515983567126506, 0
1280, 4.2942207350075865, -0.4706922702723231, 0
1281, 4.293559567217153, -0.42605414274385384, 0
1282, 4.295274473928779, -0.38206918454109934, 0
1283, 4.299365455142462, -0.33873739566405753, 0
1284, 4.3058325108582025, -0.2960587761127296, 0
1285, 4.314675641076001, -0.25403332588711613, 0
1286, 6.945066810005676, -0.2540333258871169, 0
1287, 10.0, -0.254033325887117, 0
1288, 10.0, 0.25403332588711414, 0
1289, -0.2540333258871158, 7.157337820538, 0
1290, -7.157337820538, -0.2540333258871156, 0
1291, 0.2540333258871149, -7.157337820538, 0
1292, 7.157337820538, 0.25403332588711497, 0
1293, -4.181265583475632, -0.5359277096827915, 0
1294, -4.202938627518432, -0.25120460164698344, 0
1295, -0.2512239062743853, -4.197043444349861, 0
1296, -4.1970434443498625, 0.25122390627438507, 0
1297, -0.39091347174083513, 4.182452272925549, 0
1298, 0.251204601646983, -4.202938627518432, 0
1299, 0.5359277096827912, -4.181265583475632, 0
1300, 4.175927751021801, -0.399441946995885, 0
1301, 0.3493827640963368, 4.180590240962428, 0
1302, 4.182452272925549, 0.39091347174083513, 0
1303, -4.197416689225541, -0.4386122761194809, 0
1304, -4.241338354088569, -0.3045694017156196, 0
1305, -0.39944194699588464, -4.175927751021801, 0
1306, -0.3075294179108229, -4.237471799223653, 0
1307, -4.175927751021801, 0.3994419469958843, 0
1308, -4.237471799223654, 0.30752941791082267, 0
1309, -0.25120460164698377, 4.202938627518432, 0
1310, -0.34854803752352087, 4.234385409048376, 0
1311, -0.43851976901908196, 4.229939132520683, 0
1312, 0.3045694017156205, -4.241338354088569, 0
1313, 0.43861227611948067, -4.197416689225542, 0
1314, 4.23026128650084, -0.3540722384851809, 0
1315, 0.4014623032643307, 4.227747063069424, 0
1316, 0.307411432858408, 4.236693169908231, 0
1317, 4.202938627518432, 0.25120460164698377, 0
1318, 4.234385409048376, 0.34854803752352087, 0
1319, 4.229939132520683, 0.43851976901908196, 0
1320, -0.5338380319533327, 4.201856754463805, 0
1321, 4.214119602371717, -0.2548171262921655, 0
1322, 4.201856754463805, 0.5338380319533327, 0
1323, -5.613502067042595, -5.569121932259884, 0
1324, -4.253550894759576, -0.8949262509566765, 0
1325, -0.823429505917964, -4.22416651357085, 0
1326, -0.6062103718512148, -4.181038536279862, 0
1327, -4.22416651357085, 0.8234295059179637, 0
1328, -5.613502067042595, 5.569121932259885, 0
1329, -4.181038536279864, 0.6062103718512145, 0
1330, -0.8418722891110411, 4.236791200004693, 0
1331, 0.7894078125818562, -4.222175912487914, 0
1332, 4.197850375921243, -0.7135136002331619, 0
1333, 5.569121932259884, -5.613502067042596, 0
1334, 0.6062103718512145, 4.181038536279864, 0
1335, 0.8234295059179637, 4.22416651357085, 0
1336, 4.222175912487914, 0.789407812581857, 0
1337, 5.569121932259885, 5.613502067042595, 0
1338, -4.237851396964101, -0.5776028763405646, 0
1339, 0.5776028763405658, -4.237851396964101, 0
1340, 4.176196728212261, -0.5535385116488127, 0
1341, 4.2264581147190645, -0.4493719914700727, 0
1342, -0.5000300998864063, -4.19594568296174, 0
1343, -4.19594568296174, 0.500030099886406, 0
1344, 0.5001430276309685, 4.194261706673546, 0
1345, -0.6303241879361176, 4.218014295170822, 0
1346, 4.218014295170822, 0.6303241879361176, 0
1347, -5.5288307671167285, -5.569954581888197, 0
1348, -4.209705032209243, -0.7375328213691317, 0
1349, -4.290454020010888, -0.8221404470413209, 0
1350, -0.799333667849916, -4.292732781173395, 0
1351, -0.5953571693897142, -4.245964478900042, 0
1352, -0.7066786522358453, -4.223957310506406, 0
1353, -4.265064295309234, 0.7511730672770227, 0
1354, -5.560380379155535, 5.519972487883194, 0
1355, -4.245964478900044, 0.5953571693897138, 0
1356, -0.7721352375995464, 4.275134917428897, 0
1357, -0.8713207419586109, 4.311376183239915, 0
1358, 0.7227139261378591, -4.261970755280161, 0
1359, 0.8209152808359574, -4.293785988375714, 0
1360, 4.264596481032605, -0.6960390799683874, 0
1361, 4.2521629739788205, -0.8135908753484947, 0
1362, 5.5199724878831935, -5.560380379155536, 0
1363, 0.5953571693897138, 4.245964478900044, 0
1364, 0.7066786522358449, 4.223957310506406, 0
1365, 0.7993336678499157, 4.292732781173396, 0
1366, 4.2868167348299275, 0.7683252138422304, 0
1367, 4.28149302947257, 0.883519679027217, 0
1368, 5.519972487883194, 5.560380379155535, 0
1369, 4.236837070665605, -0.5968829325210494, 0
1370, -4.2509630030435925, -0.673877440442325, 0
1371, -5.744209651877986, -5.419678198674846, 0
1372, -5.419678198674849, -5.744209651877984, 0
1373, -4.432891030279504, -1.2829875554309247, 0
1374, -4.250327412721202, -1.1462292887389283, 0
1375, -1.4510297713327995, -4.466088145424208, 0
1376, -1.1096497333299593, -4.331538161480888, 0
1377, -4.432891030279505, 1.2829875554309227, 0
1378, -4.305311682894765, 1.0510993491961327, 0
1379, -5.744209651877985, 5.419678198674849, 0
1380, -5.477209736316114, 5.706436252313948, 0
1381, -1.4114705905910188, 4.428644673812763, 0
1382, -1.1935400760604997, 4.275691762184997, 0
1383, 1.340415098130785, -4.470959395366664, 0
1384, 1.0576250483923386, -4.316696422452876, 0
1385, 4.27956799931477, -1.183372762408063, 0
1386, 4.393772639727033, -1.3709601881232718, 0
1387, 5.419678198674846, -5.744209651877987, 0
1388, 5.7064362523139485, -5.477209736316112, 0
1389, 1.0831389497889103, 4.228725942239225, 0
1390, 1.2801786090887084, 4.3375660932020015, 0
1391, 1.4510297713327993, 4.466088145424209, 0
1392, 4.250327412721202, 1.1462292887389263, 0
1393, 4.3614720431670175, 1.3294985639295585, 0
1394, 5.419678198674849, 5.744209651877985, 0
1395, 5.706436252313948, 5.477209736316114, 0
1396, -4.0421379193756914, -0.5216969844800889, 0
1397, -0.4625474808366705, 4.048385181571556, 0
1398, 0.5216969844800877, -4.0421379193756914, 0
1399, 4.048385181571556, 0.4625474808366705, 0
1400, -5.608616889645743, -5.484005779913443, 0
1401, -4.120639422981713, -0.9070680632724079, 0
1402, -4.331100601262123, -0.9223111257494107, 0
1403, -0.8287416667462896, -4.093391696414876, 0
1404, -0.9813632443875697, -4.18018973687883, 0
1405, -0.9229584942022908, -4.289774702615292, 0
1406, -4.093391696414876, 0.8287416667462886, 0
1407, -4.289774702615292, 0.9229584942022906, 0
1408, -0.8545170807783624, 4.103977593057033, 0
1409, -0.9996563178849506, 4.183921849163636, 0
1410, 0.801118117549841, -4.089062713500602, 0
1411, 0.9492517913038727, -4.1650158229223875, 0
1412, 4.106504980567081, -0.8250320351107978, 0
1413, 0.8287416667462886, 4.093391696414876, 0
1414, 0.9229584942022906, 4.289774702615292, 0
1415, 4.132052958459279, 0.9032779147019208, 0
1416, 4.085549311388425, 0.744609900094813, 0
1417, -0.6886942655294609, 4.079760977550173, 0
1418, -4.075914280846216, -0.7468805591691944, 0
1419, -0.9893610395143556, 4.321142734531692, 0
1420, 0.9365372081087304, -4.299328226586554, 0
1421, 4.293358730858078, -0.9213943979122211, 0
1422, 4.326531578618503, 0.98674032097661, 0
1423, -5.675796522405858, -5.377233793657433, 0
1424, -5.377233793657434, -5.675796522405857, 0
1425, -4.530828981007966, -1.2960885775366264, 0
1426, -4.411159526053882, -1.4258871465715428, 0
1427, -4.304352138693661, -1.3028806634460623, 0
1428, -4.3932493665795995, -1.1548777382041815, 0
1429, -4.177808759308455, -1.1833484464704684, 0
1430, -4.164053828115624, -1.066930396788514, 0
1431, -1.3191360056166475, -4.499699987557701, 0
1432, -1.3980539914004944, -4.35786137348889, 0
1433, -1.5085627148849658, -4.401980054615842, 0
1434, -1.0690006007537272, -4.40465483531139, 0
1435, -1.1535389341973654, -4.213917801574668, 0
1436, -4.364922774350347, 1.3927264096735463, 0
1437, -4.530828981007965, 1.2960885775366255, 0
1438, -4.289701077866479, 1.2427757821631764, 0
1439, -4.377518275479675, 1.0137608755215373, 0
1440, -4.172404669018278, 1.0460542801205979, 0
1441, -4.393166756348426, 1.149241216687717, 0
1442, -5.675796522405858, 5.377233793657434, 0
1443, -5.384900481737185, 5.688153913774811, 0
1444, -5.488804739356875, 5.61460937125822, 0
1445, -1.5030647453095949, 4.408106359147435, 0
1446, -1.4150677183926517, 4.335310664255975, 0
1447, -1.2690457983090162, 4.453425385794514, 0
1448, -1.2329088797151648, 4.204250759684496, 0
1449, -1.152160074684618, 4.397804309006611, 0
1450, 1.4735151902585, -4.441032982427968, 0
1451, 1.3460878903620312, -4.337329977142402, 0
1452, 1.2107601294890635, -4.42267920162307, 0
1453, 1.2886358896635457, -4.540894948940807, 0
1454, 1.0216031013590754, -4.385443986415621, 0
1455, 1.19872940906497, -4.266274885934443, 0
1456, 4.204217684921964, -1.2245020230524304, 0
1457, 4.39896737211607, -1.145796599139281, 0
1458, 4.465032043551168, -1.2611654826437864, 0
1459, 4.293215261825061, -1.3082098755601927, 0
1460, 4.327013814969225, -1.421327403052758, 0
1461, 4.427912060177321, -1.48529038539659, 0
1462, 5.377233793657433, -5.675796522405859, 0
1463, 5.6407582250958175, -5.431134973929463, 0
1464, 0.9965172357526059, 4.1412200591516815, 0
1465, 1.119282845506687, 4.1509874817805015, 0
1466, 1.0935815078953977, 4.360440505114683, 0
1467, 1.3689256746767764, 4.3040946737666586, 0
1468, 1.2605610459205638, 4.465922298520639, 0
1469, 1.2706234311984679, 4.2423607524236475, 0
1470, 1.5085627148849656, 4.4019800546158425, 0
1471, 4.161596031283305, 1.1289329863891457, 0
1472, 4.388909928152191, 1.1574668232911036, 0
1473, 4.264408160541333, 1.2627089152601876, 0
1474, 4.46789441572234, 1.259222081129487, 0
1475, 4.4595664863917905, 1.4568825464856292, 0
1476, 4.333530013665349, 1.4164111574261835, 0
1477, 5.377233793657434, 5.675796522405858, 0
1478, 5.688153913774811, 5.384900481737185, 0
1479, 5.61460937125822, 5.488804739356875, 0
1480, -3.9709396486593764, -0.5301319187186302, 0
1481, -0.4695846051364293, 3.971051220914078, 0
1482, 0.5301319187186294, -3.9709396486593764, 0
1483, 0.6392007387230324, -4.03639386090922, 0
1484, 3.971051220914078, 0.4695846051364293, 0
1485, 4.030170997408228, 0.581760609851466, 0
1486, -4.085686215792524, -0.9782875281585395, 0
1487, -4.050002800864217, -0.8706588914773469, 0
1488, -4.345086956126411, -1.0427491423778599, 0
1489, -0.8470847838460964, -4.0285500812891035, 0
1490, -0.952558730575072, -4.091560840825957, 0
1491, -1.0623353258971024, -4.134215728212039, 0
1492, -0.8984544680681049, -4.345924136818574, 0
1493, -4.0285500812891035, 0.8470847838460959, 0
1494, -4.345924136818574, 0.8984544680681047, 0
1495, -0.8741182026739757, 4.038435597751123, 0
1496, -1.0300265378471212, 4.108170243014155, 0
1497, 0.8187930404382081, -4.022849094355867, 0
1498, 0.9773723653429196, -4.088186565860661, 0
1499, 4.0354639393846945, -0.8451289147886574, 0
1500, 4.117038814870539, -0.9435776479816005, 0
1501, 0.8470847838460959, 4.0285500812891035, 0
1502, 0.8984544680681047, 4.345924136818574, 0
1503, 4.0616804723144915, 0.9266468504964052, 0
1504, 4.039029140518054, 0.814473973274371, 0
1505, 4.01271878267235, 0.7024523929715645, 0
1506, -0.7040915991377633, 4.0047310692497415, 0
1507, -0.5820743513095845, 4.028031569861837, 0
1508, -4.008956996291024, -0.7626601838528088, 0
1509, -4.033881981397048, -0.639641706189302, 0
1510, -0.9627545087272895, 4.375852328117328, 0
1511, 4.347820864866382, -0.8976267219952837, 0
1512, 4.340550704565451, -1.032877034087965, 0
1513, 4.390907147578864, 1.0187405460812893, 0
1514, -4.354119156202618, -1.4729171000183434, 0
1515, -4.289141163984252, -1.3792010444333918, 0
1516, -4.2287848250869455, -1.2837793724930466, 0
1517, -4.452267855879317, -1.1196649121542932, 0
1518, -4.108608278541514, -1.0911507074081668, 0
1519, -1.2775308700731913, -4.555893936285206, 0
1520, -1.4355208970483806, -4.308201161149051, 0
1521, -1.3121781559075512, -4.286936682413705, 0
1522, -1.182714023775466, -4.1561179273368, 0
1523, -4.288717259016586, 1.3794923325890025, 0
1524, -4.357412589995932, 1.4702016541265397, 0
1525, -4.224176645887586, 1.281320117630168, 0
1526, -4.109522308861721, 1.0728628420400814, 0
1527, -4.205584980353129, 1.1577450126496505, 0
1528, -4.114922535432799, 0.9443236445191567, 0
1529, -4.451420012454771, 1.1146483051287865, 0
1530, -1.3126000269449194, 4.289001280571061, 0
1531, -1.227488265370204, 4.514634109216571, 0
1532, -1.1169395127484056, 4.186909701885502, 0
1533, -1.118234501488278, 4.454665296984067, 0
1534, 1.520290866611026, -4.388911552129318, 0
1535, 1.4241331127698669, -4.323295009321783, 0
1536, 1.3312942097127611, -4.259475504791522, 0
1537, 1.1729001797432665, -4.482611059196137, 0
1538, 1.2355994727005004, -4.199368247584831, 0
1539, 1.1180240109976405, -4.1846207377144795, 0
1540, 4.186398008901825, -1.102818994897449, 0
1541, 4.454498561939631, -1.1128201499804269, 0
1542, 4.544286927114775, -1.2861245211819907, 0
1543, 4.241314235770155, -1.3410131274118564, 0
1544, 4.381941737839968, -1.5265458326694747, 0
1545, 1.0195650218195946, 4.081950869027479, 0
1546, 1.0606185810890394, 4.419731796590072, 0
1547, 1.223019666670855, 4.521215761266882, 0
1548, 4.139346824725957, 1.0175272696152686, 0
1549, 4.4499925539726695, 1.1210224496175596, 0
1550, 4.212259090947524, 1.2935539983102209, 0
1551, 4.522261831770893, 1.2223094393209561, 0
1552, 4.398600650199977, 1.5115955159097096, 0
1553, 0.6497278651825644, -3.9764282731993292, 0
1554, 3.968492084199959, 0.5908056612708386, 0
1555, -4.400261107928046, -1.0138393125709335, 0
1556, -0.8612661886474171, -4.296273312381349, 0
1557, -4.291535327861737, 0.8504093952134214, 0
1558, -4.340232386969185, 0.9619956423580224, 0
1559, 4.058918520866904, -0.9640652723072268, 0
1560, 0.8612661886474169, 4.296273312381349, 0
1561, -0.5909735316670611, 3.967347362835891, 0
1562, -3.975080744350701, -0.6499644276367847, 0
1563, -0.9295451141940464, 4.325877357471582, 0
1564, 4.298037535971506, -0.8578334707181297, 0
1565, 4.395949732865565, -1.004229855406191, 0
1566, -4.115354752749558, -1.0310212458268806, 0
1567, -4.157178270198481, -1.1267643577338082, 0
1568, -1.459240872853809, -4.365060904929076, 0
1569, -1.3431527827912861, -4.237928891228752, 0
1570, -1.3733816035087427, -4.3002830678643855, 0
1571, -4.151663135838778, 1.1849626262632795, 0
1572, -4.057782143624128, 0.9644658496002583, 0
1573, -1.3437621459294, 4.239783523936423, 0
1574, -1.1428606736985811, 4.132199969778336, 0
1575, 1.1434396553963235, -4.1309779591732045, 0
1576, 4.128808585363388, -1.129594751794839, 0
1577, 4.295420394311015, -1.369159124325127, 0
1578, 4.2377885224362855, -1.2779744668622235, 0
1579, 4.369287333965989, -1.4662054795192385, 0
1580, 4.084778998490162, 1.0394045204073952, 0
1581, 0.5888758021511477, -3.996652350606122, 0
1582, 3.9911726375895555, 0.5306469362835736, 0
1583, 4.0072161652178675, 0.6400490062399382, 0
1584, -4.399672444680521, -1.0798204567218281, 0
1585, -4.34808676981718, -0.9813696572979649, 0
1586, 4.069103655362542, -0.9002759021653343, 0
1587, -0.5308994752078173, 3.989532283747682, 0
1588, -0.641040233836011, 4.005684138139097, 0
1589, -3.9947371784806722, -0.5892973459417841, 0
1590, -4.014113524055294, -0.6996706709435088, 0
1591, -0.9535919699546783, 4.249462431852168, 0
1592, 4.373077956817727, -0.9503898310091903, 0
1593, 4.396834929251453, -1.0738316697172343, 0
1594, -4.195127098529557, -0.9738128214529543, 0
1595, -1.422591428657674, -4.412929483982017, 0
1596, -4.203785374207136, 1.2212018551580333, 0
1597, -4.1529577045427555, 1.1205052349628968, 0
1598, -4.105355824411341, 1.0083047617559937, 0
1599, -4.067111717128261, 0.8998120090643642, 0
1600, -1.2837664758971132, 4.236271385105955, 0
1601, -1.3726854667597086, 4.2925702569503095, 0
1602, -1.0828106329325617, 4.137244116472752, 0
1603, -1.1769759352177729, 4.181859102919327, 0
1604, 1.1782754194080558, -4.180325230089757, 0
1605, 4.414454032098558, -1.4270468250912842, 0
1606, 4.092280480665181, 0.9791231204337738, 0
1607, 4.1315266088630365, 1.0770136608987146, 0
1608, -4.271917493509489, -0.9713051356486525, 0
1609, -1.381559131143847, -4.469066748666679, 0
1610, 4.554118736329099, -1.4254518660562157, 0
1611, 4.221804058344553, 1.058624511785209, 0
1612, 4.483640352327873, -1.3696787062710605, 0
1613, 4.484461085403196, -1.4415472870288941, 0
1614, -5.848361255435978, -5.2220688317361885, 0
1615, -5.22206883173619, -5.848361255435977, 0
1616, -4.941191956662323, -1.8020710671778577, 0
1617, -4.691877066367147, -1.6345573491521852, 0
1618, -1.706710063758453, -4.796608542907709, 0
1619, -1.5620547807871294, -4.6485903938955815, 0
1620, -4.7526204160682095, 1.668032329229431, 0
1621, -4.600379013536308, 1.507855433344512, 0
1622, -4.941191956662324, 1.8020710671778593, 0
1623, -5.848361255435978, 5.22206883173619, 0
1624, -5.222068831736189, 5.848361255435978, 0
1625, -1.5639999832023326, 4.59384718541283, 0
1626, -1.7067100637584525, 4.79660854290771, 0
1627, 1.6154470794154308, -4.699337528072883, 0
1628, 1.759169589737324, -4.875634013060858, 0
1629, 5.2220688317361885, -5.848361255435979, 0
1630, 5.815021999186482, -5.2921560956738745, 0
1631, 4.744749163132877, -1.6684091995381636, 0
1632, 4.941191956662324, -1.8020710671778597, 0
1633, 1.5997542770402415, 4.641576407127131, 0
1634, 1.7150889656611605, 4.812269082705519, 0
1635, 4.699337528072883, 1.6154470794154314, 0
1636, 4.850345733290454, 1.7459246748462567, 0
1637, 5.22206883173619, 5.848361255435978, 0
1638, 5.848361255435978, 5.222068831736189, 0
1639, -4.046822490090907, -0.2842858259830806, 0
1640, 0.2842858259830803, -4.046822490090907, 0
1641, 4.036507568439298, -0.3495127570243779, 0
1642, 0.34959413943870926, 4.034477669909666, 0
1643, -0.34951275702437756, -4.036507568439298, 0
1644, -0.2516428953798054, -4.255883084763041, 0
1645, -0.09445926165385479, -4.291718845331176, 0
1646, -0.16240325465442135, -4.22709723616196, 0
1647, -0.3213823653397171, -4.158755300325482, 0
1648, -4.036507568439298, 0.34951275702437734, 0
1649, -4.255883084763043, 0.25164289537980583, 0
1650, -4.291718845331176, 0.0944592616538574, 0
1651, -4.2270972361619625, 0.16240325465442368, 0
1652, -4.158755300325483, 0.3213823653397164, 0
1653, -0.28428582598308094, 4.046822490090907, 0
1654, -0.3170646779492647, 4.1654554966990895, 0
1655, 0.3562528730724321, 4.251311868356923, 0
1656, 4.046822490090907, 0.28428582598308094, 0
1657, 4.1654554966990895, 0.3170646779492647, 0
1658, 4.152214638390093, -0.3158247245136754, 0
1659, -5.7094470102714325, -5.5821150457297986, 0
1660, -5.625847317615152, -5.6673537650820105, 0
1661, -0.5343202220090559, -4.051716897404574, 0
1662, -5.625847317615152, 5.667353765082011, 0
1663, -5.7094470102714325, 5.582115045729799, 0
1664, -4.0517168974045745, 0.5343202220090556, 0
1665, 4.066558789988743, -0.6535591481860505, 0
1666, 5.5821150457297986, -5.709447010271433, 0
1667, 5.6673537650820105, -5.625847317615153, 0
1668, 0.5961409524812974, 4.046700336505488, 0
1669, 5.582115045729799, 5.7094470102714325, 0
1670, 5.667353765082011, 5.625847317615152, 0
1671, -4.238282527942166, -0.5177642962181446, 0
1672, 0.5177642962181458, -4.238282527942166, 0
1673, 4.247771130477635, -0.40249677598150574, 0
1674, 4.149682942674404, -0.4765362746653708, 0
1675, 0.4285670309158277, 4.145476382230243, 0
1676, -0.5555703185003156, -4.205943500265915, 0
1677, -0.5406756521982687, -4.129418487716646, 0
1678, -0.6483474093143942, -4.221452378685822, 0
1679, -0.7650216537562637, -4.242157650147403, 0
1680, -0.7215147758194508, -4.279010959707388, 0
1681, -0.7610086518114997, -4.152409406522028, 0
1682, -0.6798556696279566, -4.1464268711661845, 0
1683, -4.205943500265917, 0.5555703185003151, 0
1684, -4.129418487716647, 0.5406756521982706, 0
1685, -4.226217996657572, 0.6768562517579924, 0
1686, 4.243923524740741, -0.7532859384934669, 0
1687, 4.174286738392301, -0.7873824767822124, 0
1688, 4.296246877811999, -0.776852356583542, 0
1689, 0.5554548873876992, 4.205924204477746, 0
1690, 0.5447219704040912, 4.11983199161996, 0
1691, 0.6483474093143937, 4.221452378685823, 0
1692, 0.7650216537562634, 4.242157650147404, 0
1693, 0.7215147758194499, 4.279010959707388, 0
1694, 0.7610086518115003, 4.15240940652203, 0
1695, 0.6798556696279567, 4.146426871166185, 0
1696, 4.231891167464716, 0.7095574159983024, 0
1697, 4.269624597331847, 0.8252509301859807, 0
1698, 4.322242295094442, 0.844876610056342, 0
1699, 4.2035539231448595, 0.8690515737614083, 0
1700, 4.218329904911277, -0.6555279220538839, 0
1701, 4.142356639893397, -0.6613048365938045, 0
1702, -4.14921031153952, -0.6387049961259296, 0
1703, -5.525799478467198, -5.741219834279399, 0
1704, -1.565790849624269, -4.5121216355197795, 0
1705, -5.540283357684757, 5.761048283722915, 0
1706, -1.3674800870068147, 4.548331898031682, 0
1707, 1.4297799362339765, -4.581238442297636, 0
1708, 5.761048283722914, -5.540283357684757, 0
1709, 1.5657908496242687, 4.5121216355197795, 0
1710, 1.4209486214332114, 4.591396594022741, 0
1711, 5.761048283722915, 5.540283357684757, 0
1712, -4.01068767590556, -0.4061387854468449, 0
1713, 0.40613878544684473, -4.010687675905559, 0
1714, -4.052581631148871, 0.7171705705124091, 0
1715, -4.58010117990738, -1.4307686517455387, 0
1716, -4.4653059731073546, -1.5293516267724396, 0
1717, -1.2070115822813738, -4.425517395942757, 0
1718, -5.65105099369148, 5.475256106843191, 0
1719, -5.62422015658484, 5.419533109359951, 0
1720, -5.587364674011403, 5.466615710180177, 0
1721, -5.548893366429877, 5.585670083226759, 0
1722, 1.5703318516490812, -4.5078081315087255, 0
1723, 4.507184518693583, -1.570988354355237, 0
1724, 4.444228198475996, -1.5497109539594396, 0
1725, 5.475256106843189, -5.651050993691481, 0
1726, 5.419533109359951, -5.6242201565848395, 0
1727, 5.469451774165701, -5.591826664883374, 0
1728, 5.611575542559537, -5.52492502161305, 0
1729, 4.548940002526103, 1.3669912747830149, 0
1730, 4.510707412446427, 1.5672796600723806, 0
1731, 5.475256106843191, 5.65105099369148, 0
1732, 5.419533109359951, 5.62422015658484, 0
1733, 5.466615710180177, 5.587364674011403, 0
1734, 5.585670083226759, 5.548893366429877, 0
1735, 0.6414127269356602, -4.147216081434777, 0
1736, -0.7556876117374532, -4.037709992972301, 0
1737, -0.8904039066328225, -4.075820036464042, 0
1738, -0.9425458632285036, 4.094601685806613, 0
1739, 0.7293604519957377, -4.034442011872899, 0
1740, 0.8891879832548861, -4.077106033669814, 0
1741, 0.9200817299007715, 4.084215629115697, 0
1742, 0.7556876117374535, 4.037709992972301, 0
1743, 4.080125605354692, 0.8645487247351659, 0
1744, 4.025352756275326, 0.8780307837498368, 0
1745, -0.7840278814752141, 4.047194977046975, 0
1746, -4.054756885588283, -0.8070528091045311, 0
1747, 4.319623937903859, 1.081389575290646, 0
1748, -4.348202403586896, -1.4076352171013047, 0
1749, -4.302430898780007, -1.4398743596204902, 0
1750, -4.462377822892797, -1.2036751411156006, 0
1751, -1.3736662192707387, -4.583572194896898, 0
1752, -1.1197196118678983, -4.160583993223317, 0
1753, -4.472353077453784, 1.5224916269359956, 0
1754, -4.3918890358806, 1.0807448988173407, 0
1755, -4.463393282693998, 1.2011555556426958, 0
1756, -1.1987906810258728, 4.450437884063849, 0
1757, -1.1644692662040235, 4.4959570967064195, 0
1758, -1.060351315206314, 4.381578657864639, 0
1759, 1.4566757599904376, -4.378870846452004, 0
1760, 1.2439527350670783, -4.485571830104953, 0
1761, 1.2153158600026623, -4.532562444727248, 0
1762, 1.1160424121118702, -4.404768754826521, 0
1763, 4.4609386213975855, -1.1869095030711345, 0
1764, 1.0590676706957856, 4.131427962683001, 0
1765, 0.9992772502216379, 4.34682065591081, 0
1766, 0.9486216550264635, 4.373835658267828, 0
1767, 1.1560817712178728, 4.433995952988805, 0
1768, 1.315673615563022, 4.543731912061006, 0
1769, 4.450462375374077, 1.1912208764741183, 0
1770, 4.49789969754153, 1.1632420929947878, 0
1771, 4.388930068831667, 1.0880895978282332, 0
1772, 4.1806635918658035, -1.1658050634328159, 0
1773, 4.291616175087246, -1.2452201688772055, 0
1774, 4.108081443894935, 0.6461070697745571, 0
1775, -1.3097151153944229, -4.401584264751445, 0
1776, 4.655533525807528, -1.4561674013625843, 0
1777, -5.773473230886393, -5.1885923928064175, 0
1778, -5.188592392806419, -5.773473230886392, 0
1779, -4.817257536740011, -1.7992291740518422, 0
1780, -4.923466876956121, -1.6963410271836066, 0
1781, -4.803437801244473, -1.6093421055724513, 0
1782, -4.693860442480251, -1.740026660390182, 0
1783, -4.590761323919839, -1.6618526483714724, 0
1784, -4.694663670638106, -1.5156476431956944, 0
1785, -1.786719214029251, -4.743506200590894, 0
1786, -1.79724471857997, -4.944646102140977, 0
1787, -1.6428348350125694, -4.8708799753523655, 0
1788, -1.6576147618334856, -4.594229185514827, 0
1789, -1.5553382358402192, -4.755004473998195, 0
1790, -1.4562286656195835, -4.655468152836553, 0
1791, -4.75059080279758, 1.7760448637495254, 0
1792, -4.862345785505451, 1.6533555836367941, 0
1793, -4.752554911783725, 1.5579832588342029, 0
1794, -4.644950483872189, 1.6961510330857574, 0
1795, -4.55102482449072, 1.6126259575856596, 0
1796, -4.666941108064226, 1.4454767896204082, 0
1797, -4.994516411807198, 1.7275627956206605, 0
1798, -5.773473230886393, 5.188592392806419, 0
1799, -5.264387480694913, 5.759022006579162, 0
1800, -1.5129881105375174, 4.697304070165543, 0
1801, -1.6791642380096299, 4.657892269288443, 0
1802, -1.6322815196885216, 4.533715195528626, 0
1803, -1.7867192140292505, 4.743506200590894, 0
1804, -1.6021604238084344, 4.809656116079128, 0
1805, -1.7064076649323427, 4.915802908631101, 0
1806, 1.6562127175486778, -4.595376478035798, 0
1807, 1.5075134764217155, -4.7027393188314255, 0
1808, 1.604751364307361, -4.807412730160678, 0
1809, 1.7312044377890512, -4.7001291877854205, 0
1810, 1.6847150223822789, -4.932318028131707, 0
1811, 1.8232250845787208, -4.802362332474835, 0
1812, 5.1885923928064175, -5.773473230886394, 0
1813, 5.790485426694478, -5.196197183257978, 0
1814, 5.724643054009099, -5.327207045519385, 0
1815, 4.6885932741728364, -1.747439328958374, 0
1816, 4.8593714822031995, -1.657022234828823, 0
1817, 4.752298744285044, -1.5582598670053784, 0
1818, 4.994516411807198, -1.7275627956206612, 0
1819, 4.817257536740011, -1.7992291740518418, 0
1820, 1.7029340515383453, 4.639782683301542, 0
1821, 1.561378313758005, 4.749410743178646, 0
1822, 1.8179653893427035, 4.805627231917815, 0
1823, 1.6989974513655075, 4.92144447868412, 0
1824, 4.595376478035798, 1.6562127175486783, 0
1825, 4.702739318831426, 1.5075134764217168, 0
1826, 4.807412730160678, 1.6047513643073614, 0
1827, 4.70012918778542, 1.7312044377890519, 0
1828, 4.800624985446951, 1.8260239199013555, 0
1829, 4.929514550311059, 1.6883973961161232, 0
1830, 5.188592392806419, 5.773473230886393, 0
1831, 5.773473230886393, 5.188592392806418, 0
1832, -3.965360479511586, -0.28530665095795404, 0
1833, -4.1396129432716355, -0.33726993680330336, 0
1834, 0.28530665095795377, -3.965360479511586, 0
1835, 0.33726993680330214, -4.1396129432716355, 0
1836, 3.9605533973107185, -0.35255790126917375, 0
1837, 0.3526008175292341, 3.9594829491812287, 0
1838, 0.0338955584393093, 3.89058087231208, 0
1839, -0.3525579012691734, -3.960553397310718, 0
1840, -3.9605533973107185, 0.3525579012691732, 0
1841, -0.2853066509579544, 3.9653604795115864, 0
1842, 3.9653604795115864, 0.2853066509579544, 0
1843, -5.749362487603689, -5.6149662904985576, 0
1844, -5.689891369885879, -5.646550884986025, 0
1845, -5.661638317877606, -5.705638548615135, 0
1846, -5.595787767769024, -5.7313275245077495, 0
1847, -0.5437309788602093, -3.9764789807742194, 0
1848, -5.661638317877606, 5.705638548615136, 0
1849, -5.68822232990834, 5.644913938417453, 0
1850, -5.598768197992724, 5.728541232694806, 0
1851, -5.749362487603689, 5.614966290498558, 0
1852, -3.9764789807742202, 0.5437309788602089, 0
1853, 3.993809746743076, -0.6670623857956862, 0
1854, 4.0260864536941225, -0.5375260773084696, 0
1855, 5.6149662904985576, -5.7493624876036895, 0
1856, 5.646550884986025, -5.6898913698858795, 0
1857, 5.705638548615135, -5.661638317877607, 0
1858, 5.7285412326948055, -5.598768197992725, 0
1859, 0.6067606783874949, 3.9781587909524587, 0
1860, 5.614966290498558, 5.749362487603689, 0
1861, 5.646550884986026, 5.689891369885879, 0
1862, 5.705638548615136, 5.661638317877606, 0
1863, 5.728541232694806, 5.598768197992724, 0
1864, 0.47618809144089985, 4.01857498279448, 0
1865, -4.182981898670705, -0.5928505248935177, 0
1866, -4.105536587214719, -0.5711759805722342, 0
1867, -5.559027164029143, -5.786708578930857, 0
1868, -5.483995856312358, -5.80663579868985, 0
1869, -1.612199230352591, -4.468038251428721, 0
1870, -1.3003884935569283, 4.51941750338473, 0
1871, -1.2689678208622828, 4.567459613022549, 0
1872, -1.3890207237463439, 4.6281214120462995, 0
1873, 1.3819705563200224, -4.636230812743665, 0
1874, 1.6121992303525907, 4.468038251428721, 0
1875, 1.3772897418491863, 4.641614883481093, 0
1876, -4.00004418854743, -0.471094348277084, 0
1877, -3.945184723905392, -0.4719383673529496, 0
1878, 0.4710943482770835, -4.000044188547429, 0
1879, 0.47193836735294964, -3.9451847239053914, 0
1880, -3.9923624308183423, 0.7302465830891655, 0
1881, -4.006114603832822, 0.7900103994254057, 0
1882, -4.635631692642213, -1.3824914205837744, 0
1883, -4.421863300023896, -1.571640872907744, 0
1884, -4.404853138978975, -1.5107083618671981, 0
1885, -1.245718032704835, -4.4888413250228565, 0
1886, -1.214769241897845, -4.533367540555351, 0
1887, -5.614286085530943, 5.514992343971981, 0
1888, -5.67314075224903, 5.532570075548365, 0
1889, -5.758943317694702, 5.507769457955486, 0
1890, -5.499803590630762, 5.560594328679574, 0
1891, -5.548972271660444, 5.662686630841674, 0
1892, -5.592532177399482, 5.621648974559024, 0
1893, 1.61464199176838, -4.465717869031294, 0
1894, 1.5713095920499678, -4.422593656965774, 0
1895, 1.6343926816762568, -4.53087890705397, 0
1896, 4.534533825531295, -1.4994720843937959, 0
1897, 4.465380895612773, -1.6149967374628078, 0
1898, 4.602354101923629, -1.6476857398907134, 0
1899, 4.532534416907128, -1.6369271080280412, 0
1900, 5.572798837290575, -5.5608021481603105, 0
1901, 4.599958182369348, 1.3259813658410515, 0
1902, 4.532101106657116, 1.2952956940537022, 0
1903, 4.467279416184149, 1.6129980872386098, 0
1904, 5.514992343971981, 5.614286085530943, 0
1905, 5.532570075548365, 5.67314075224903, 0
1906, 5.507769457955486, 5.758943317694702, 0
1907, 5.560594328679574, 5.499803590630762, 0
1908, 5.662686630841674, 5.548972271660444, 0
1909, 5.621648974559024, 5.592532177399482, 0
1910, 0.5943606411683208, -4.181869705639533, 0
1911, 0.6534580511786516, -4.230059152186129, 0
1912, 0.5733311964041939, -4.1040462305092795, 0
1913, -0.7984950590773315, -4.004282389706476, 0
1914, -0.6628713176416676, -4.016389235247717, 0
1915, -0.88134936666757, -4.16102395683443, 0
1916, -0.9286417524964445, 4.041775124060064, 0
1917, 0.7700068239027819, -3.997248479273125, 0
1918, 0.8734982705463945, -4.024667482472648, 0
1919, 0.9011714546205285, 4.0333185942318055, 0
1920, 0.9692234512966044, 4.056730581167261, 0
1921, 0.7984950590773313, 4.004282389706476, 0
1922, -0.8260187587885645, 4.011401947140934, 0
1923, -4.147250660697845, -0.8057691582624541, 0
1924, 4.342445736924577, 1.0354784514828645, 0
1925, 4.278722649123184, 1.0293183138293291, 0
1926, -4.39877438716125, -1.3509014637946912, 0
1927, -1.373847248679086, -4.645574584694722, 0
1928, -1.320519392757502, -4.606753123696086, 0
1929, -1.3307601443628765, -4.55180519680186, 0
1930, -1.4189351837265698, -4.529167850866418, 0
1931, -1.0598318407151075, -4.235948659623505, 0
1932, -4.425640106815878, 1.5679643424206642, 0
1933, -4.4990751423246715, 1.160611067246975, 0
1934, -1.066783667289634, 4.4359488553449165, 0
1935, 1.4005442043026248, -4.427438550100954, 0
1936, 1.2839986753273054, -4.424231652656674, 0
1937, 1.1598604398197185, -4.432449330636415, 0
1938, 1.0360013327268263, 4.188761094735707, 0
1939, 1.0108460150932552, 4.266212502965137, 0
1940, 1.0438352212138704, 4.371592609766234, 0
1941, 1.1040236280465454, 4.4558193960965555, 0
1942, 1.203035705059787, 4.467256641638843, 0
1943, 1.2219818671076244, 4.390737796148787, 0
1944, 1.2627690544152255, 4.5595406025453205, 0
1945, 4.382078629243558, 1.2449859262682237, 0
1946, 4.236414697544865, -1.139126717998128, 0
1947, 4.31175637026699, -1.1088125507786761, 0
1948, 4.376357220839079, -1.2745840432019475, 0
1949, 4.350908143356305, -1.2015725800304446, 0
1950, 4.056201586854092, 0.6671738593890563, 0
1951, -1.365452455238282, -4.4142294690489825, 0
1952, -1.331637776295031, -4.344704993359006, 0
1953, -1.2418858288548362, -4.3427768002111895, 0
1954, 4.696180962119199, -1.4180746705678748, 0
1955, 4.7238437879638635, -1.488325818357686, 0
1956, -4.78305989528798, -1.854320969364219, 0
1957, -4.957950812793268, -1.6510463083771714, 0
1958, -5.0016579245057065, -1.7200956370764284, 0
1959, -4.881184874323234, -1.6283766675790952, 0
1960, -4.774253456951868, -1.5345532963018313, 0
1961, -4.842716500339743, -1.5639781887384678, 0
1962, -4.661499036740912, -1.7855699886352359, 0
1963, -4.624213520030838, -1.7248072050262548, 0
1964, -4.732549478881402, -1.8017867332166249, 0
1965, -4.555779617408214, -1.7046019043728335, 0
1966, -4.738312790324328, -1.4716822288331886, 0
1967, -4.66958723227924, -1.4471013515786895, 0
1968, -1.829789526388713, -4.714920289318705, 0
1969, -1.8452351394853999, -4.78869982680098, 0
1970, -1.769294422310105, -4.673063852615831, 0
1971, -1.7250393126924566, -4.996322430782024, 0
1972, -1.6020470449570354, -4.903966094620396, 0
1973, -1.578275547836573, -4.830337021117817, 0
1974, -1.702256785405349, -4.557698627728599, 0
1975, -1.7197915065752305, -4.624669447350087, 0
1976, -1.6413529056673226, -4.528813865533732, 0
1977, -1.5140730928564763, -4.793220223070159, 0
1978, -1.4876452312373294, -4.723296767304926, 0
1979, -1.4181085317353836, -4.696144830037801, 0
1980, -4.675284034000673, 1.7661698840750284, 0
1981, -4.718955516914992, 1.8237096602840883, 0
1982, -4.796251543553511, 1.8406806721908309, 0
1983, -4.899142516580758, 1.607993438573145, 0
1984, -4.825005324692376, 1.585460454300488, 0
1985, -4.936571472114848, 1.6759603527963036, 0
1986, -4.7918618863529625, 1.5155398169222434, 0
1987, -4.7232703894690395, 1.4914399284107556, 0
1988, -4.609533443580983, 1.7426378188173512, 0
1989, -4.575342406955859, 1.6798535399918844, 0
1990, -4.511136278027704, 1.6579205045637393, 0
1991, -4.486344423466147, 1.5958764552793108, 0
1992, -5.023642539538881, 1.6868659440814184, 0
1993, -5.240935486995703, 5.711727192819896, 0
1994, -5.313759233662333, 5.705078169079499, 0
1995, -5.186856118387261, 5.769589121181671, 0
1996, -1.4702353038603941, 4.7397493058725235, 0
1997, -1.5400904733879197, 4.7673567459584065, 0
1998, -1.4456769061783938, 4.672259029586376, 0
1999, -1.7334148809354104, 4.616560153589585, 0
2000, -1.8297895263887127, 4.714920289318705, 0
2001, -1.8452351394853996, 4.788699826800981, 0
2002, -1.5599900610326882, 4.8461696516335815, 0
2003, -1.6566517026060363, 4.953683294194551, 0
2004, -1.6280614749938518, 4.882178416979716, 0
2005, 1.7269232625781976, -4.621505944211463, 0
2006, 1.70148605264929, -4.558329318168464, 0
2007, 1.4672299037083198, -4.742733084664216, 0
2008, 1.5370646785412965, -4.772789280595146, 0
2009, 1.4411796592322987, -4.676209449538265, 0
2010, 1.561437316600555, -4.844916534179632, 0
2011, 1.6294208603637734, -4.879668247228775, 0
2012, 1.7806732836125283, -4.664978454344586, 0
2013, 1.7940080987193998, -4.736129979563366, 0
2014, 1.644363965720771, -4.963038237585326, 0
2015, 1.7147277411573514, -5.003702268245771, 0
2016, 1.8678057375230037, -4.774689369986652, 0
2017, 5.741807715172849, -5.174437276426467, 0
2018, 5.735820838503757, -5.252882759473508, 0
2019, 4.658511730217133, -1.7897741286740507, 0
2020, 4.729423856577096, -1.8079370422682195, 0
2021, 4.897493740258799, -1.6100260112639393, 0
2022, 4.8232497527881195, -1.5887610546500306, 0
2023, 4.934064202900331, -1.6786511935382051, 0
2024, 4.7917203651945925, -1.5156926306437377, 0
2025, 5.023642539538881, -1.686865944081419, 0
2026, 4.78305989528798, -1.8543209693642193, 0
2027, 1.6888632605339131, 4.568658546099899, 0
2028, 1.7464099982469357, 4.606659520836256, 0
2029, 1.5174085087898954, 4.7901312862788235, 0
2030, 1.4857334550457382, 4.7118293069242165, 0
2031, 1.593449423494225, 4.828140381483788, 0
2032, 1.8054573553977333, 4.731069633098773, 0
2033, 1.763825042396447, 4.674611560460666, 0
2034, 1.8647754787084605, 4.776570370666681, 0
2035, 1.8794003387884857, 4.852364304993315, 0
2036, 1.6525389641394033, 4.956814418818692, 0
2037, 1.6243691285778978, 4.8918460042213985, 0
2038, 1.7231462359587533, 5.001360583716456, 0
2039, 4.621505944211462, 1.7269232625781985, 0
2040, 4.558329318168463, 1.7014860526492903, 0
2041, 4.514678867948802, 1.6553132979260476, 0
2042, 4.742733084664216, 1.467229903708321, 0
2043, 4.772789280595147, 1.537064678541297, 0
2044, 4.844916534179632, 1.5614373166005555, 0
2045, 4.880011237285575, 1.6297178409636415, 0
2046, 4.664978454344584, 1.780673283612529, 0
2047, 4.7359639644703755, 1.7938901345303515, 0
2048, 4.773674009995182, 1.8694414645042603, 0
2049, 4.961403858188914, 1.646510726332236, 0
2050, 5.003052520038229, 1.7156356100846553, 0
2051, -4.185189232626886, -0.30447459142447525, 0
2052, -4.213153988009109, -0.36955158125193754, 0
2053, -4.1219263040090075, -0.25380356392354597, 0
2054, 0.30447459142447464, -4.185189232626886, 0
2055, 0.3695515812519372, -4.213153988009108, 0
2056, 0.25380356392354536, -4.1219263040090075, 0
2057, 0.2635751943192606, 4.160147595376983, 0
2058, -5.644289241884776, -5.615144423930023, 0
2059, -5.658202304287441, 5.5997816229155255, 0
2060, 4.046529827538135, -0.7486350875085899, 0
2061, 3.962875998943408, -0.5454324395092247, 0
2062, 4.019874691010018, -0.6047676512885156, 0
2063, 5.615144423930023, -5.644289241884777, 0
2064, 5.673325300730487, -5.5566719035608845, 0
2065, 0.6748775125269248, 4.023806187804611, 0
2066, 5.60167054186992, 5.657946501975364, 0
2067, 0.48225226605348703, 3.955410517829255, 0
2068, 0.543025226038694, 4.003377189139457, 0
2069, -4.051061986845068, -0.5858930237925427, 0
2070, -4.091458849738881, -0.6284253231150522, 0
2071, -4.110090291724833, -0.6911178326760201, 0
2072, -1.5508648304769495, -4.449938713014169, 0
2073, -1.358414487557103, 4.47707200906562, 0
2074, 1.357583305019753, -4.566750480490364, 0
2075, 1.5508648304769495, 4.449938713014169, 0
2076, 1.3281916567892746, 4.604186741551424, 0
2077, -4.566726186572033, -1.3593087812985978, 0
2078, -1.2632729863785686, -4.434619411708254, 0
2079, -5.785766001065658, 5.558338649075335, 0
2080, 4.479339479272134, -1.506541612445923, 0
2081, 4.562127213058371, -1.6968448502293623, 0
2082, 4.621553273794241, -1.73165799904059, 0
2083, 4.628940584960148, 1.4142761993107875, 0
2084, 4.690650825407644, 1.4304082412712174, 0
2085, 4.448551681312832, 1.551723216369541, 0
2086, 5.558338649075335, 5.785766001065658, 0
2087, 0.586687518636171, -4.051157543127489, 0
2088, 4.25626009136638, 0.9559658554757791, 0
2089, -1.369186024445965, -4.518433793098511, 0
2090, -1.4931251521684368, -4.5272106531652145, 0
2091, -1.4389998823617203, -4.591899312596103, 0
2092, -4.410592793541801, 1.5057767335942571, 0
2093, 1.4109663533980472, -4.505136057575487, 0
2094, 1.2491258853010279, -4.3410632198273955, 0
2095, 4.362332175902734, -1.1108681034529297, 0
2096, -4.870217951902312, -1.8702635914726722, 0
2097, -4.647728184407199, -1.6719471714535459, 0
2098, -1.7773147434772758, -4.816162463523042, 0
2099, -1.7159107633302717, -4.72364525881113, 0
2100, -4.662926382136694, 1.507895191356265, 0
2101, -5.375605779219148, 5.811248334796541, 0
2102, -1.5008300893717197, 4.627004519558508, 0
2103, -1.6704847323987198, 4.590230434529056, 0
2104, -1.74403260206378, 4.686766001307733, 0
2105, -1.7773147434772756, 4.816162463523042, 0
2106, -1.7317925547162119, 5.0007634830972485, 0
2107, 1.7203542970636447, -4.791838475652645, 0
2108, 4.763292303839183, -1.7410514842354652, 0
2109, 4.870217951902314, -1.8702635914726726, 0
2110, 1.6508652265452837, 4.613129769869549, 0
2111, 1.5953625090622092, 4.573545954911448, 0
2112, 1.655321751298209, 4.5146984443823595, 0
2113, 1.4255295614209411, 4.685961141481525, 0
2114, 1.7327861937107838, 4.741078597223654, 0
2115, 1.656450058932909, 4.836919138735395, 0
2116, 4.776141726891994, 1.7293367315621864, 0
2117, -4.24213443871965, -0.41247896696237496, 0
2118, 0.41247896696237346, -4.24213443871965, 0
2119, 4.060821602166959, -0.7991554949673758, 0
2120, 4.0369901795989245, -0.6969777904803639, 0
2121, 3.9844903097870246, -0.4616030319835725, 0
2122, 3.9634477619418536, -0.6090399835101074, 0
2123, 0.6714049934210505, 3.9704138354016956, 0
2124, 0.4181704981933478, 3.9811316079254797, 0
2125, 0.5397091609973318, 4.0616652661547255, 0
2126, 0.4786030292163691, 4.09623075838193, 0
2127, 0.5470027551307773, 3.950321506495408, 0
2128, -4.169175888904626, -0.6944126179049606, 0
2129, 1.3353020524020804, -4.52130981658962, 0
2130, 1.3089195009136179, -4.591662604817743, 0
2131, 1.506676060357293, 4.49342836048323, 0
2132, 1.4528028779882154, 4.532778608958633, 0
2133, -4.496174510639965, -1.4094954096602998, 0
2134, -4.586190962159883, -1.3064549052082386, 0
2135, 4.639415974161824, 1.361933605704626, 0
2136, 4.492332223114249, 1.508747927727301, 0
2137, 4.536847290786406, 1.4443432218384495, 0
2138, -1.5036767572094558, -4.474886804374457, 0
2139, -1.5419352460791858, -4.5797540668861005, 0
2140, -4.467782220293716, 1.4169233357029252, 0
2141, 1.248080146873558, -4.390397053936948, 0
2142, -1.8395254470818836, -4.872300092824904, 0
2143, -1.7229583454217858, -4.875185295479187, 0
2144, -1.6378786600112483, -4.750867127102584, 0
2145, -1.6581692533255883, -4.671817285789903, 0
2146, -4.631602673403919, 1.5865738308574875, 0
2147, -5.328136031629051, 5.767801951297058, 0
2148, -1.4835696789938242, 4.517367827350914, 0
2149, -1.7075389176341274, 4.553376260121152, 0
2150, -1.617010354541971, 4.585208146318983, 0
2151, -1.686591367859739, 4.728510531019735, 0
2152, -1.7889190282844476, 4.659119332948907, 0
2153, -1.7281995197346411, 4.856260628606014, 0
2154, -1.853138343778646, 4.905967411218959, 0
2155, -1.6870471238774036, 5.0235128718697455, 0
2156, 1.7730334232073908, -4.7849429096974685, 0
2157, 1.5112933863792104, 4.6131300973146825, 0
2158, 1.5204022785526623, 4.55283881277756, 0
2159, 1.7651041969501784, 4.786907440828873, 0
2160, 1.7033037941709135, 4.8663056231852995, 0
2161, 1.7946647611072197, 4.901178502070879, 0
2162, 1.764638496832494, 4.847986925675466, 0
2163, 4.002893255603153, -0.7908784780241389, 0
2164, 3.9890651218179327, -0.7309625616096738, 0
2165, 0.4091458033270163, 4.075701110050063, 0
2166, 1.3838397843735368, 4.533266732867429, 0
2167, -4.507704486303288, -1.3510204869395357, 0
2168, -4.453217922175132, -1.370651119203967, 0
2169, -1.6014685019736017, -4.573457848993318, 0
2170, -1.5075260680298146, -4.627169648023902, 0
2171, -4.41306881414701, 1.444539050459834, 0
2172, -1.8840512676154813, -4.833345984794747, 0
2173, -4.601868922512996, 1.6322464873270779, 0
2174, -5.287805898298946, 5.824807432211844, 0
2175, -5.387798156163622, 5.750270839538855, 0
2176, -5.4611440379115095, 5.796643933700462, 0
2177, -1.5108058512572513, 4.569256984141201, 0
2178, -1.5595716225307346, 4.510567655361848, 0
2179, -1.4381302571219214, 4.574311183928869, 0
2180, -1.4221503278783774, 4.493622514527768, 0
2181, -1.7343467569007738, 4.751422718629636, 0
2182, -1.60179917891013, 4.70172867700763, 0
2183, -1.5990760897686418, 4.642120054268132, 0
2184, -1.651053029955145, 4.776030796255254, 0
2185, -1.6613201078675408, 4.833818437059174, 0
2186, -1.884523704407492, 4.844952097830835, 0
2187, -1.79025840034213, 4.882145897444409, 0
2188, 1.4740054415952049, 4.6561329211691485, 0
2189, 0.37155674193756094, 4.123754123041163, 0
2190, 0.3988144025935778, 4.0269998315146776, 0
2191, -5.281778861523106, 5.911497075639808, 0
2192, -1.6107790976090364, 4.469387237456932, 0
2193, -1.4709346619685348, 4.458743468531224, 0
2194, -1.5294558786470136, 4.460364059022541, 0
2195, -1.5467685469559433, 4.655260765726853, 0
2196, -1.8288771990024848, 4.841971181301338, 0
2197, -1.7970207106541636, 4.959196509340676, 0
2198, -1.5729666080960498, 4.42050140579205, 0
2199, -5.911499237540344, -5.068981302475271, 0
2200, -4.985880255395402, -5.941481460064168, 0
2201, -6.056017724078108, -2.5402901842893817, 0
2202, -5.944953666633268, -2.388743399050547, 0
2203, -5.8044807159311445, -2.2586214738952624, 0
2204, -5.383921687212786, -2.0375441783807293, 0
2205, -5.556293371677402, -2.1157626071227122, 0
2206, -5.22566999916029, -1.9621867250896285, 0
2207, -2.5402901842893835, -6.056017724078108, 0
2208, -2.3887433990505467, -5.944953666633266, 0
2209, -2.258621473895263, -5.804480715931143, 0
2210, -2.1157626071227122, -5.556293371677401, 0
2211, -2.0375441783807298, -5.383921687212786, 0
2212, -1.9621867250896294, -5.22566999916029, 0
2213, -5.769247880206566, 2.2269027396278673, 0
2214, -5.977482710823868, 2.4205182223947226, 0
2215, -5.545383260725488, 2.1067328241618455, 0
2216, -5.3072661197172755, 2.0033516695771585, 0
2217, -6.101678266182169, 2.6366911462767195, 0
2218, -5.151184294155498, 1.9238541843247574, 0
2219, -5.9414814600641686, 4.985880255395402, 0
2220, -5.0689813024752715, 5.911499237540344, 0
2221, -2.4205182223947226, 5.977482710823868, 0
2222, -2.258621473895262, 5.804480715931144, 0
2223, -2.6366911462767195, 6.101678266182169, 0
2224, -2.115762607122713, 5.556293371677404, 0
2225, -2.0375441783807298, 5.383921687212786, 0
2226, -1.9684930429501646, 5.233432389998028, 0
2227, 2.106732824161845, -5.545383260725488, 0
2228, 1.8843992172259585, -5.078952025789285, 0
2229, 1.9994082414775185, -5.302422085728995, 0
2230, 2.271154813823673, -5.828055841107357, 0
2231, 2.4782967262954583, -6.018472102925503, 0
2232, 4.985880255395401, -5.941481460064169, 0
2233, 5.911499237540343, -5.068981302475272, 0
2234, 5.094274687536023, -1.8968144395938817, 0
2235, 5.944953666633266, -2.3887433990505476, 0
2236, 6.101678266182169, -2.6366911462767204, 0
2237, 5.383921687212787, -2.037544178380731, 0
2238, 5.556293371677401, -2.1157626071227127, 0
2239, 5.804480715931143, -2.258621473895263, 0
2240, 1.8968144395938817, 5.094274687536024, 0
2241, 1.9994082414775198, 5.302422085728995, 0
2242, 2.0705587589398085, 5.4627735272330025, 0
2243, 2.271154813823674, 5.828055841107357, 0
2244, 2.1583149314696857, 5.64234636810394, 0
2245, 2.5472674763958234, 6.058201383079713, 0
2246, 5.078952025789283, 1.884399217225959, 0
2247, 5.233432389998028, 1.9684930429501646, 0
2248, 5.4627735272330025, 2.0705587589398085, 0
2249, 5.642346368103941, 2.158314931469686, 0
2250, 5.828055841107355, 2.2711548138236735, 0
2251, 5.977482710823868, 2.4205182223947226, 0
2252, 6.101678266182169, 2.6366911462767195, 0
2253, 5.0689813024752715, 5.911499237540344, 0
2254, 5.911499237540344, 5.0689813024752715, 0
2255, -0.8240357327470058, 4.286939693393908, 0
2256, 0.7737888953698762, -4.271784494190939, 0
2257, 4.236334547654083, -0.5334948019610976, 0
2258, -4.274936265161518, -0.7346138924457075, 0
2259, -4.264404406794273, -0.6230167443664374, 0
2260, -5.833795555931553, -5.419329339127603, 0
2261, -5.833795555931552, 5.4193293391276045, 0
2262, 5.419329339127603, -5.8337955559315535, 0
2263, 5.4193293391276045, 5.833795555931552, 0
2264, -5.570766552563429, -5.528876438185957, 0
2265, -4.304240382301799, -0.8748782970114156, 0
2266, 0.8805001677338475, -4.224832972569449, 0
2267, -0.7574783788924745, 4.165889520744442, 0
2268, -5.676616259407288, -5.452269858500553, 0
2269, -5.624192335734957, -5.41951359234487, 0
2270, -1.0129528250856206, -4.325637380787308, 0
2271, 0.9943100102499506, -4.327332045257802, 0
2272, 0.9620684273816825, -4.3772630806835, 0
2273, 1.0113813403325371, -4.235181038554545, 0
2274, 1.1776201313465757, 4.225382594030002, 0
2275, 1.4197443475197395, 4.380141334293178, 0
2276, 5.806085189931604, 5.403086340402948, 0
2277, -4.066785306700395, -0.9248243796585102, 0
2278, 4.029392157607123, 0.7576368691592227, 0
2279, -4.256534359815726, -1.333026374170964, 0
2280, -4.183833544260777, -1.2434429362555686, 0
2281, -4.2486481078261935, -1.2164282844426866, 0
2282, -4.319824309056196, -1.1830113820394215, 0
2283, -4.339777258999848, 1.3114979477795512, 0
2284, -4.319642635842249, 1.4274387363947176, 0
2285, -4.241348230295049, 1.340332463260453, 0
2286, 1.3780279503013466, -4.290928057462406, 0
2287, 1.2648172249092, -4.259081459990039, 0
2288, 1.2950934250828805, -4.209656417653637, 0
2289, 4.520555563528437, -1.2231686254061893, 0
2290, 4.393866785160112, 1.444997501182793, 0
2291, 4.3437718215271, 1.4814485080256388, 0
2292, 4.385301267226409, 1.3851074768352343, 0
2293, 4.437971930295613, 1.329627295200003, 0
2294, 4.49569062081959, 1.3416725376587626, 0
2295, 4.455031528160061, 1.3921922376513536, 0
2296, -4.306040285950332, 0.7933915318084959, 0
2297, -0.8959848812710324, 4.258531949424181, 0
2298, -0.91228587815395, 4.174584437477061, 0
2299, 4.318447006910688, -0.976504011592526, 0
2300, 4.212613237212943, -0.9914186737963177, 0
2301, 4.263327462298086, -0.9683313684468157, 0
2302, 4.200547937490167, -0.8950878915550701, 0
2303, 4.253121418674173, -0.8864798052293442, 0
2304, -4.139776880413318, -0.9606473053591152, 0
2305, -4.235695069314576, -1.0390936772928678, 0
2306, 4.492482995537377, -1.3123102044801322, 0
2307, -5.911138084019309, -5.2827578909123645, 0
2308, -5.7675368813185335, -5.305721349316631, 0
2309, -5.728825835943698, -5.2494141602144095, 0
2310, -5.305721349316635, -5.767536881318535, 0
2311, -5.249414160214411, -5.728825835943699, 0
2312, -5.282757890912366, -5.911138084019307, 0
2313, -5.084509210820513, -1.8756488678833383, 0
2314, -4.925927592558749, 1.8971572037294826, 0
2315, -5.767536881318536, 5.305721349316635, 0
2316, -5.7288258359437, 5.249414160214411, 0
2317, -5.911138084019308, 5.282757890912366, 0
2318, 1.8680597485986727, -4.941777090064943, 0
2319, 5.2827578909123645, -5.91113808401931, 0
2320, 5.305721349316631, -5.767536881318534, 0
2321, 5.2494141602144095, -5.728825835943699, 0
2322, 5.906301442325675, -5.2804417385969575, 0
2323, 5.811045252972492, -5.405993782969659, 0
2324, 5.305721349316635, 5.767536881318536, 0
2325, 5.249414160214411, 5.7288258359437, 0
2326, 5.282757890912366, 5.911138084019308, 0
2327, 5.911138084019309, 5.282757890912365, 0
2328, -0.35218199314712934, -4.204752789430735, 0
2329, -0.40408947230161724, -4.2367025137519825, 0
2330, -0.44635918280458187, -4.202905011381857, 0
2331, -0.4605794800180447, -4.123887468257958, 0
2332, -0.21575169191839821, -4.065087100871584, 0
2333, -0.3738060006377651, -4.106458084248633, 0
2334, -4.204752789430736, 0.3521819931471293, 0
2335, -4.2367025137519825, 0.4040894723016177, 0
2336, -4.202905011381856, 0.44635918280458164, 0
2337, -4.123887468257954, 0.4605794800180446, 0
2338, -4.065087100871583, 0.21575169191839427, 0
2339, -4.106458084248633, 0.37380600063776387, 0
2340, -0.37395182430555385, 4.08721832103367, 0
2341, -0.24799362951389967, 4.120695170913156, 0
2342, 4.08721832103367, 0.37395182430555385, 0
2343, 4.120695170913156, 0.24799362951389967, 0
2344, 4.204800726152111, -0.3072727416536873, 0
2345, -5.099005982273492, -5.912082943940533, 0
2346, 4.106391952510391, -0.373990664138724, 0
2347, 4.049729368494348, -0.4237633935350359, 0
2348, 4.126870641753054, -0.42575605196950134, 0
2349, -5.571704609213969, -5.6242664717661945, 0
2350, -5.5534903649585745, -5.684602981981686, 0
2351, -4.242018621388549, -0.46570993150413603, 0
2352, 0.4657099315041369, -4.24201862138855, 0
2353, 0.4459881824274642, 4.196816192687834, 0
2354, -0.6695956231106134, -4.269725824443699, 0
2355, -0.718436871637991, -4.176484198577973, 0
2356, -0.6145244094157994, -4.103073236365819, 0
2357, -4.277976193695103, 0.6971127388478467, 0
2358, -4.268426057449898, 0.6439411416360763, 0
2359, 0.6127261946047947, 4.113003657669537, 0
2360, 0.6695956231106132, 4.2697258244437, 0
2361, 0.7184368716379912, 4.176484198577973, 0
2362, 4.162195805808437, 0.7415939231061867, 0
2363, 4.265606348345161, 0.6628207455770901, 0
2364, 4.285524016337383, 0.7144822449655605, 0
2365, 4.176886162327053, -0.612951289243222, 0
2366, 4.103626756986955, -0.5840910126058404, 0
2367, -4.136487761586352, 0.684471014386479, 0
2368, -1.1407846397145032, -4.396705334348156, 0
2369, -1.1127163069201869, -4.454673430029953, 0
2370, -1.1755186127309265, -4.340089246163884, 0
2371, -1.1498877894077626, -4.279554054411444, 0
2372, -1.0948171407606597, -4.278491968723112, 0
2373, -1.2324893935070431, -4.251229252558918, 0
2374, -1.2103900405271568, -4.299753527589987, 0
2375, -5.688789604840414, 5.432648505418004, 0
2376, 5.432648505418002, -5.688789604840416, 0
2377, 5.502510065779767, -5.73436753625329, 0
2378, 5.552203380799666, -5.777366810834977, 0
2379, 5.485296629373628, -5.804475098144539, 0
2380, 5.590702099702251, -5.466995164524966, 0
2381, 5.550553162642603, -5.507944584144674, 0
2382, 5.651361140721322, -5.48586916641253, 0
2383, 5.432648505418004, 5.688789604840414, 0
2384, -0.7243230599212491, -4.0966381626638455, 0
2385, -0.704414003763438, -4.048230571094001, 0
2386, -0.7762668269431933, -4.08647427707636, 0
2387, -0.981436512760122, 4.1326533977854085, 0
2388, -0.9916486860272546, 4.06681236597442, 0
2389, 0.9293204460195906, -4.114159785357212, 0
2390, 0.8595368408507255, -4.149481185636245, 0
2391, 0.9376440111146618, -4.047916717602334, 0
2392, 0.72432305992125, 4.096638162663847, 0
2393, 0.7762668269431929, 4.086474277076359, 0
2394, -0.7596303218165456, 3.9966521456452924, 0
2395, -0.7315745243393689, 4.04946584708433, 0
2396, -0.7602193689999512, 4.104186065443245, 0
2397, -4.396117551597973, -1.2241783894083123, 0
2398, -4.367117291078574, -1.2832141497852254, 0
2399, -4.320371197096307, -1.244015150473263, 0
2400, -4.4861266956070285, -1.2576420153186663, 0
2401, -4.529032997483963, -1.217712170722251, 0
2402, -4.393814433573619, 1.221821312090609, 0
2403, -4.332454717342764, 1.1860759253962005, 0
2404, -4.37927177831711, 1.2741773530512144, 0
2405, -4.266955281646475, 1.1811558858646394, 0
2406, -4.341806588363233, 1.2375963420521934, 0
2407, -4.304370426289285, 1.1215060749323806, 0
2408, -4.3549152297331455, 1.1156946790247253, 0
2409, -4.23746031784918, 1.0854019094366938, 0
2410, -4.486306607975126, 1.256297063108073, 0
2411, -4.5295013502951855, 1.217394183574485, 0
2412, 1.0741326694348046, -4.369157055999554, 0
2413, 1.145054335497339, -4.328159321808234, 0
2414, 1.061849404044793, -4.429184844822732, 0
2415, -5.1050729378150335, -5.855734421025904, 0
2416, -1.905656628572561, -5.0056562486999345, 0
2417, -5.066273277291903, 1.7587422905381889, 0
2418, -5.855734421025905, 5.1050729378150335, 0
2419, 1.8810566792143557, -4.850909835960033, 0
2420, 5.105072937815033, -5.855734421025906, 0
2421, 5.8020377835286805, -5.115944351203393, 0
2422, 5.7104819064609575, -5.401594499322122, 0
2423, 5.658730543297492, -5.36664583583584, 0
2424, 5.066273277291903, -1.7587422905381893, 0
2425, 4.850498105363313, 1.8817650885107335, 0
2426, 0.17786000060252177, 3.8908044984624452, 0
2427, -4.006766866593911, -0.3386918230157004, 0
2428, -4.073272605195515, -0.3457075217108899, 0
2429, -3.955842088835362, -0.3754896119270447, 0
2430, -4.1161496929604375, -0.4178091784224074, 0
2431, -4.065125188192358, -0.4597659345572902, 0
2432, -4.130296656204018, -0.487017973311977, 0
2433, 0.23334805593673486, 4.0264198779707066, 0
2434, 0.33869182301570017, -4.006766866593911, 0
2435, 0.3457075217108896, -4.073272605195515, 0
2436, 0.3754896119270438, -3.955842088835362, 0
2437, 0.4178091784224065, -4.116149692960438, 0
2438, 0.4597659345572882, -4.065125188192357, 0
2439, 0.48701797331197716, -4.130296656204016, 0
2440, -4.009184343380868, 0.499741968934972, 0
2441, -0.44535088760245817, -4.002381108200839, 0
2442, -0.4099856381030127, -4.054699510655244, 0
2443, -0.4183152083902008, -3.947389946846599, 0
2444, -0.48246169951531437, -3.9532290581241423, 0
2445, -0.47228465359890476, -4.058699292051377, 0
2446, -4.024960931748207, 0.6258739750071279, 0
2447, -3.9675263555149747, 0.6084080522415622, 0
2448, -4.002381108200841, 0.4453508876024581, 0
2449, -4.054699510655245, 0.4099856381030118, 0
2450, -3.9473899468466, 0.41831520839020053, 0
2451, -3.953229058124143, 0.4824616995153141, 0
2452, -4.0586992920513785, 0.47228465359890415, 0
2453, -5.473044738361985, -5.7535724212595705, 0
2454, -5.459868655926793, -5.671901865575382, 0
2455, -5.419718964405607, -5.624485086713936, 0
2456, -5.4819222175886395, -5.612521661168947, 0
2457, -1.3298803828543746, 4.6012850261432785, 0
2458, -4.064545094448547, 0.7760438448153356, 0
2459, -4.145781739530391, 0.7658193667367768, 0
2460, -5.820903893890119, 5.497261940691406, 0
2461, -5.499722749100283, 5.662633483538225, 0
2462, -5.528890444227854, 5.7104772746858, 0
2463, 1.5286163777406168, -4.464716646783405, 0
2464, 1.4964402935997274, -4.537602717618427, 0
2465, 4.594266282868621, -1.475675533698254, 0
2466, 4.594003813512243, -1.5618831202050099, 0
2467, 5.497261940691406, 5.820903893890119, 0
2468, 5.662633483538225, 5.499722749100283, 0
2469, 5.7104772746858, 5.528890444227854, 0
2470, 0.7186591055416781, -4.17828173850867, 0
2471, 0.6286735910191315, -4.09203716623575, 0
2472, 0.7023791130668057, -4.1040807968083985, 0
2473, -0.5950371449724501, -4.021103861769216, 0
2474, -0.6088096277220951, -3.964934517991574, 0
2475, -0.8206920242888802, -4.163519604054986, 0
2476, -0.8917995386996149, -4.228745618739702, 0
2477, -0.9279267109394479, -4.188503694935392, 0
2478, -4.2169471685118545, -0.830619770914403, 0
2479, -4.186156048772843, -0.8907171015499752, 0
2480, -4.193720036471026, -0.7856016419366317, 0
2481, -4.143418628574291, -0.8589073234400082, 0
2482, -4.3400736907445285, -1.349482757877168, 0
2483, 1.3924005404894844, -4.370850720068155, 0
2484, 1.3380357185585046, -4.39720837255893, 0
2485, 1.0720916444994295, 4.29587302515069, 0
2486, 1.1319430328092326, 4.271237698961428, 0
2487, 1.2076119154005436, 4.3009353960627505, 0
2488, 0.9733281229346311, 4.301962232276814, 0
2489, 1.1596612862348386, 4.367623383914755, 0
2490, 1.1310070863032458, 4.323685256120332, 0
2491, 1.2878703314059519, 4.404418918442174, 0
2492, 1.3409987395381897, 4.364437356401868, 0
2493, 1.3411564093127006, 4.464894230963308, 0
2494, 4.326614675964212, 1.2762307909745942, 0
2495, 4.279513535945246, 1.3450917057787384, 0
2496, 4.311051324715342, 1.1979795176453671, 0
2497, 4.414465776214878, -1.226712173436959, 0
2498, -4.951064433751525, -1.7460652210861103, 0
2499, -4.8801011766575755, -1.76242917653512, 0
2500, -4.8877713920935335, -1.8175022814873534, 0
2501, -4.804122282370372, -1.704738715406818, 0
2502, -4.830199991264443, -1.749271820249268, 0
2503, -4.755950956059248, -1.7441288564364292, 0
2504, -4.728569640104494, -1.6866206409114524, 0
2505, -4.7500471102361965, -1.632522461186994, 0
2506, -4.718938890072675, -1.5757040283303012, 0
2507, -1.7582625740708981, -5.066596485619447, 0
2508, -1.5395540668098904, -4.700589219125788, 0
2509, -4.719451038169426, 1.7214343949045632, 0
2510, -4.849946086797267, 1.754303194391479, 0
2511, -4.77312684856275, 1.6129955685346937, 0
2512, -4.700694913759605, 1.6087289922277441, 0
2513, -4.696672055970886, 1.5527455699112802, 0
2514, -4.9321478303589155, 1.7392624281763818, 0
2515, -5.230145271446635, 5.797494466659451, 0
2516, 1.671953255250567, -4.661521843536984, 0
2517, 1.590677430906759, -4.751453042098423, 0
2518, 1.6577966754952504, -4.764322116094268, 0
2519, 1.667205873994016, -4.827800206179798, 0
2520, 1.704310542104299, -4.743443851512332, 0
2521, 1.7534840852283398, -4.945406210724251, 0
2522, 1.8075287752042724, -5.023367175106619, 0
2523, 1.809862572412943, -4.914882561013124, 0
2524, 1.7650316287050258, -4.995114251979666, 0
2525, 1.8199962935939404, -4.9693679749292805, 0
2526, 1.875529325110411, -5.010447956591586, 0
2527, 1.8131894458538513, -4.858224091893084, 0
2528, 1.9576593161927942, -5.034640053505682, 0
2529, 5.764198080661943, -5.2951531403376695, 0
2530, 5.787547690703565, -5.24806480011237, 0
2531, 5.857353492137782, -5.226001535215935, 0
2532, 5.943447400234617, -5.197818291145653, 0
2533, 5.906625305027945, -5.230925553243398, 0
2534, 4.770020849719492, -1.6148079199661742, 0
2535, 4.876025849745157, -1.7392937482524098, 0
2536, 1.546950640109063, 4.683530473228624, 0
2537, 4.661521843536984, 1.6719532552505683, 0
2538, 4.555544823314845, 1.6093633139403667, 0
2539, 4.596129372848112, 1.5211955944238056, 0
2540, 4.751453042098423, 1.5906774309067593, 0
2541, 4.763764734111421, 1.6600128947286266, 0
2542, 4.714256386169584, 1.6797957010880087, 0
2543, 4.869392327721186, 1.6888969757036314, 0
2544, 4.813158734146598, 1.686960955529912, 0
2545, 4.936788532623246, 1.7816473704998925, 0
2546, 0.2214370067166642, 4.23510424797618, 0
2547, 0.272801461750865, 4.074188598336241, 0
2548, 5.7131027842468045, -5.5266171577493095, 0
2549, 4.191548593401417, 0.9357698516081899, 0
2550, 4.207985437004622, 0.9968747863891642, 0
2551, 4.236546695846165, 0.9084823044948601, 0
2552, -4.835450129879593, -1.907656109992408, 0
2553, -4.910669962244207, -1.925168073683332, 0
2554, -4.934004797332659, -1.865621484544377, 0
2555, -5.011153838377855, -1.8421649438166496, 0
2556, -5.001231725601564, -1.781532794069537, 0
2557, -5.360433156497922, 5.885636622046568, 0
2558, -1.7532174204607829, 5.069995651109307, 0
2559, 4.8049428604863005, -1.6917316294982228, 0
2560, 4.835450129879594, -1.907656109992409, 0
2561, 4.910669962244207, -1.9251680736833332, 0
2562, 4.934004797332661, -1.865621484544379, 0
2563, 5.005070505288808, -1.9278158441625783, 0
2564, 4.957070536546493, -1.9550034377057204, 0
2565, 4.805245327927014, 1.7734105147942756, 0
2566, 3.94958519333502, -0.41211538037667816, 0
2567, -4.5228920026302, -1.4802795525575962, 0
2568, 4.57691132206012, 1.4109853554608818, 0
2569, -1.909073382757668, -4.919436803280391, 0
2570, -1.684555593780747, -4.842157999992856, 0
2571, -1.7812565185936025, -4.874333461666005, 0
2572, -1.6794852673840357, -4.936518544123855, 0
2573, -1.598122227381057, -4.783135830061164, 0
2574, -1.6166091475678275, -4.633318267939082, 0
2575, -4.579106869967454, 1.5618446637022296, 0
2576, -4.536203908846976, 1.5137552859763816, 0
2577, -4.560322489201818, 1.4241235993482013, 0
2578, -4.4974915508106585, 1.4685200912702214, 0
2579, -1.9160106799211751, 5.000366349545405, 0
2580, -1.9230777520210451, 4.911808568621454, 0
2581, -1.884400299635308, 4.953282910595135, 0
2582, -1.9546881323069123, 4.958892007571723, 0
2583, 1.8263906808767918, 4.858298398190804, 0
2584, 1.7546525817887888, 4.948233447734452, 0
2585, 1.8548587948068291, 4.99290245610013, 0
2586, 1.789495094853594, 5.0048021185890486, 0
2587, 1.814026963227726, 4.954085223355561, 0
2588, 1.8805637358084597, 4.924979328938949, 0
2589, 1.8335104945795953, 5.061106384543871, 0
2590, 1.941398303232045, 4.986827137479035, 0
2591, 1.8293282251244376, 5.146082605521067, 0
2592, 1.7607556883460387, 5.072625387207055, 0
2593, 1.8027245986833471, 5.102182226732247, 0
2594, -1.4890764105567462, -4.5788108029065056, 0
2595, -5.490108611465468, 5.755267965903983, 0
2596, -5.4271430501369595, 5.85530130842314, 0
2597, -5.503458222747026, 5.830398806034364, 0
2598, -1.5563331049320988, 4.720803614536188, 0
2599, -5.19002093086618, 5.938473189076363, 0
2600, -5.30435877886625, 5.956245547203889, 0
2601, -1.7582873408195019, 4.923773873702241, 0
2602, -5.833072965892001, -5.040141010543091, 0
2603, -4.959033917278479, -5.861373396788265, 0
2604, -6.137952109075714, -2.491834092834951, 0
2605, -6.043585922611914, -2.6628454162960056, 0
2606, -5.975819974995698, -2.5926190624399803, 0
2607, -5.992305547540907, -2.306024242614679, 0
2608, -5.873412673194494, -2.4459315665191212, 0
2609, -5.694800813582427, -2.2472218581501098, 0
2610, -5.805231256343231, -2.1637057042865333, 0
2611, -5.747813707775617, -2.323415122982954, 0
2612, -5.485243192751948, -2.02370657985231, 0
2613, -5.355656575386025, -2.1132161624765162, 0
2614, -5.329719851321015, -1.9484103774664348, 0
2615, -5.417673432936604, -1.9640160979687715, 0
2616, -5.5215264773435, -2.185481354725435, 0
2617, -5.576582055912892, -2.038070766759726, 0
2618, -5.267140682065035, -1.8889346068488169, 0
2619, -5.201338929566324, -2.044366113818111, 0
2620, -2.4337985767101964, -6.081074959880017, 0
2621, -2.5926190624399816, -5.975819974995698, 0
2622, -2.3060242426146798, -5.992305547540907, 0
2623, -2.4459315665191212, -5.873412673194492, 0
2624, -2.163705704286534, -5.80523125634323, 0
2625, -2.2472218581501124, -5.694800813582427, 0
2626, -2.3234151229829547, -5.747813707775615, 0
2627, -2.0380707667597266, -5.576582055912891, 0
2628, -2.185481354725435, -5.5215264773434996, 0
2629, -2.1132161624765167, -5.355656575386024, 0
2630, -1.9640160979687724, -5.4176734329366045, 0
2631, -1.8667095195679506, -5.185431984655265, 0
2632, -1.9977980030404634, -5.133244198416955, 0
2633, -1.8889346068488178, -5.267140682065035, 0
2634, -5.683562551365684, 2.2626180062096184, 0
2635, -5.855417909993343, 2.341355600464537, 0
2636, -5.868897440197155, 2.211766251917867, 0
2637, -5.9839026437561795, 2.3145515477394842, 0
2638, -5.880139596463831, 2.4405542241593965, 0
2639, -6.083514156281333, 2.432064794393962, 0
2640, -5.577684680883905, 2.0356441185959784, 0
2641, -5.447389648729723, 2.1254160613545454, 0
2642, -5.522594924090916, 2.183338777122886, 0
2643, -5.2768041176459715, 2.079993585606193, 0
2644, -5.407125943239931, 1.9848407466971811, 0
2645, -5.3409334056111755, 1.9274611420851453, 0
2646, -6.0152897212336445, 2.6755849004669687, 0
2647, -5.195394728847049, 1.8500859847079514, 0
2648, -5.061671995788535, 1.9648063561655305, 0
2649, -5.861373396788266, 4.959033917278479, 0
2650, -4.966673176423813, 5.88416854495075, 0
2651, -5.129990949783008, 5.842265443766815, 0
2652, -5.040141010543092, 5.833072965892001, 0
2653, -2.3607166441872405, 6.047827425172893, 0
2654, -2.511935506963446, 5.934281651601739, 0
2655, -2.247221858150111, 5.694800813582427, 0
2656, -2.1637057042865333, 5.805231256343232, 0
2657, -2.271771681378006, 5.920081946190887, 0
2658, -2.365625806466716, 5.830040850285125, 0
2659, -2.323415122982954, 5.747813707775616, 0
2660, -2.675584900466969, 6.0152897212336445, 0
2661, -2.5096347320828323, 6.107853015534278, 0
2662, -2.185481354725436, 5.521526477343501, 0
2663, -2.038070766759727, 5.576582055912892, 0
2664, -2.1132161624765167, 5.355656575386025, 0
2665, -1.9640160979687722, 5.4176734329366045, 0
2666, -2.0460037845832484, 5.200646213147971, 0
2667, -1.8719303580059494, 5.18230305460143, 0
2668, -1.8899699124343405, 5.266554557995482, 0
2669, 2.035644118595978, -5.577684680883905, 0
2670, 2.1928003393382838, -5.621447387803282, 0
2671, 2.1833387771228865, -5.5225949240909165, 0
2672, 1.8102435380680362, -5.126046926125418, 0
2673, 1.9267917890593296, -5.3412916920286815, 0
2674, 2.085361792567335, -5.366060780981459, 0
2675, 2.0789475765554473, -5.277219863122094, 0
2676, 2.1992337674055777, -5.877516047747575, 0
2677, 2.344749601392045, -5.95414513706272, 0
2678, 2.3722260243596125, -5.823139626474324, 0
2679, 2.4238809517020306, -6.0950277121967185, 0
2680, 2.6390382065705458, -6.096465112350366, 0
2681, 2.5848965770795598, -5.989847912569483, 0
2682, 4.959033917278478, -5.861373396788267, 0
2683, 5.884168544950749, -4.9666731764238135, 0
2684, 5.135597167275748, -1.9925723889449674, 0
2685, 5.187749013967622, -1.8628433942510572, 0
2686, 5.992305547540907, -2.306024242614681, 0
2687, 5.873412673194492, -2.445931566519122, 0
2688, 6.062182150025851, -2.4472275976826343, 0
2689, 6.0152897212336445, -2.6755849004669696, 0
2690, 5.355656575386025, -2.113216162476518, 0
2691, 5.485243192751949, -2.0237065798523104, 0
2692, 5.4176734329366045, -1.9640160979687733, 0
2693, 5.5215264773434996, -2.1854813547254355, 0
2694, 5.576582055912891, -2.038070766759727, 0
2695, 5.805231256343231, -2.163705704286534, 0
2696, 5.694800813582427, -2.2472218581501138, 0
2697, 5.747813707775615, -2.3234151229829547, 0
2698, 1.9925723889449674, 5.135597167275747, 0
2699, 1.9267917890593307, 5.3412916920286815, 0
2700, 2.078947576555448, 5.2772198631220935, 0
2701, 1.9995360118132388, 5.496835067235025, 0
2702, 2.1466660672489284, 5.438788174821826, 0
2703, 2.199233767405578, 5.877516047747575, 0
2704, 2.3194748650647012, 5.751259765078027, 0
2705, 2.3974125655089256, 5.934108752236259, 0
2706, 2.22635211045561, 5.601114213658872, 0
2707, 2.593056218905205, 5.9750258778471865, 0
2708, 2.4923563815790253, 6.1370689712543935, 0
2709, 5.126046926125417, 1.810243538068037, 0
2710, 5.057949630853072, 1.9725692343996772, 0
2711, 5.331512884504205, 1.945060621159992, 0
2712, 5.2855843921843935, 2.057902553562062, 0
2713, 5.200646213147971, 2.0460037845832484, 0
2714, 5.496835067235025, 1.999536011813239, 0
2715, 5.438788174821826, 2.1466660672489284, 0
2716, 5.6917080244935825, 2.2514589045733318, 0
2717, 5.601114213658873, 2.2263521104556103, 0
2718, 5.877516047747574, 2.1992337674055786, 0
2719, 5.823139626474324, 2.372226024359613, 0
2720, 5.9839026437561795, 2.3145515477394842, 0
2721, 6.083514156281333, 2.432064794393962, 0
2722, 5.934281651601739, 2.511935506963446, 0
2723, 6.0152897212336445, 2.675584900466969, 0
2724, 4.966673176423813, 5.88416854495075, 0
2725, 5.040141010543092, 5.8330729658920015, 0
2726, 5.88416854495075, 4.966673176423813, 0
2727, 5.844232852528179, 5.130802369366084, 0
2728, 5.833072965892001, 5.040141010543092, 0
2729, 4.199473033018618, -0.4951813494002385, 0
2730, -4.304931191082649, -0.774434897012904, 0
2731, -5.87672051783354, -5.44449068493701, 0
2732, -5.809270379722766, -5.489670028940789, 0
2733, -5.773370423045059, -5.549475194109818, 0
2734, -5.7138978389155355, -5.511916529594491, 0
2735, -5.6657423583137625, -5.544103662650424, 0
2736, -5.883528518597343, -5.359318287849034, 0
2737, -5.87672051783354, 5.444490684937012, 0
2738, -5.883528518597342, 5.359318287849034, 0
2739, 5.44449068493701, -5.876720517833541, 0
2740, 5.359318287849034, -5.883528518597344, 0
2741, 5.444490684937012, 5.87672051783354, 0
2742, 5.359318287849034, 5.883528518597342, 0
2743, 0.8343225999376414, -4.245150480034043, 0
2744, -0.7859518971019515, 4.217675297906318, 0
2745, -0.8338134294763329, 4.16901519962784, 0
2746, -0.7081573936045076, 4.226728541091677, 0
2747, -0.8074140223148831, 4.124797246432291, 0
2748, -1.059888969966425, -4.35173147774117, 0
2749, 0.9093587095130014, -4.351381221033028, 0
2750, 0.878459313535845, -4.302125808816699, 0
2751, 1.034071222183328, -4.152500022779961, 0
2752, 1.1295291631657556, 4.20302307046036, 0
2753, 1.458325077946012, 4.414765091728899, 0
2754, 5.8605481370881085, 5.435010912644462, 0
2755, 5.811430046113296, 5.488244324298493, 0
2756, 5.871396854846318, 5.354084265129058, 0
2757, 5.7584466147931765, 5.487356391611781, 0
2758, 5.7690490933669345, 5.298991202521517, 0
2759, 5.699730783367421, 5.313432679546127, 0
2760, 5.726552831385029, 5.248287049557849, 0
2761, -4.31420014878954, -1.109592265057784, 0
2762, -4.260662213459859, -1.090250752477791, 0
2763, -4.39873767372054, 1.3377521685144618, 0
2764, -4.420123695294331, 1.3887937729732356, 0
2765, -4.477902885642983, 1.3453388729742022, 0
2766, -4.51663560856028, 1.387322599578912, 0
2767, -4.283039902223858, 1.3002353541160925, 0
2768, 1.2963910155827043, -4.307617239441881, 0
2769, 4.399781711285518, 1.294070996333651, 0
2770, 4.507498351972033, 1.4001337729186887, 0
2771, -0.9536924126007089, 4.200574870767612, 0
2772, -0.9012367110351767, 4.1246886639571905, 0
2773, 4.2650673179231475, -1.0476812307461472, 0
2774, 4.2005924960348695, -0.8380227602568767, 0
2775, -4.290921978014538, -1.0250319692316134, 0
2776, -5.956310702937704, -5.3043899803927, 0
2777, -5.938682779134189, -5.191452889085653, 0
2778, -5.734855920454614, -5.358397474849304, 0
2779, -5.8004786258810705, -5.362634752430143, 0
2780, -5.693056521068991, -5.309742380383018, 0
2781, -5.791738997316341, -5.248233053258519, 0
2782, -5.358397474849307, -5.734855920454614, 0
2783, -5.305741318867151, -5.69866737637264, 0
2784, -5.248233053258522, -5.79173899731634, 0
2785, -5.30267834133323, -5.8406869297490775, 0
2786, -5.377871017374249, -5.8126919077982855, 0
2787, -5.349544276242102, -5.891980415451349, 0
2788, -5.304389980392701, -5.956310702937702, 0
2789, -5.207175094831731, -5.949926686488468, 0
2790, -5.128983648595843, -1.8056193718050557, 0
2791, -5.0634284414455255, -1.8024825728392175, 0
2792, -5.060209688230561, -1.9678559538568452, 0
2793, -4.992214958679742, -1.9227780734954005, 0
2794, -4.900842110283352, 1.9432106319001767, 0
2795, -4.982637687203328, 1.9507114322171586, 0
2796, -5.734855920454615, 5.358397474849307, 0
2797, -5.80047862588107, 5.3626347524301465, 0
2798, -5.698667376372641, 5.305741318867151, 0
2799, -5.791738997316341, 5.248233053258522, 0
2800, -5.956310702937703, 5.304389980392701, 0
2801, -5.949926686488469, 5.207175094831731, 0
2802, 1.9266918650485616, -4.90983994713345, 0
2803, 1.953733599416807, -4.969372037437778, 0
2804, 5.3043899803927, -5.956310702937705, 0
2805, 5.191452889085653, -5.93868277913419, 0
2806, 5.358397474849304, -5.734855920454615, 0
2807, 5.362634752430143, -5.800478625881071, 0
2808, 5.309742380383018, -5.693056521068992, 0
2809, 5.248233053258519, -5.791738997316342, 0
2810, 5.879989844940992, -5.357446863408477, 0
2811, 5.953178270554729, -5.302889933257468, 0
2812, 5.86334073800941, -5.4366478528856454, 0
2813, 5.8030978152057315, -5.479486797039837, 0
2814, 5.759285884681658, -5.437572812801442, 0
2815, 5.358397474849307, 5.734855920454615, 0
2816, 5.3626347524301465, 5.80047862588107, 0
2817, 5.305741318867151, 5.698667376372641, 0
2818, 5.248233053258522, 5.791738997316341, 0
2819, 5.304389980392701, 5.956310702937703, 0
2820, 5.207175094831731, 5.949926686488469, 0
2821, 5.956310702937704, 5.304389980392701, 0
2822, 5.938682779134189, 5.191452889085654, 0
2823, 5.070127736380269, -5.894410471208946, 0
2824, -0.2609322252914219, -4.131410203635014, 0
2825, -0.03389555843930975, -3.8905808723120794, 0
2826, -0.29541139036262776, -4.0748013687191325, 0
2827, -4.1760455125479465, 0.11126638328639409, 0
2828, 0.11006888372390258, -3.8903572461617144, 0
2829, -4.670008413508752, -0.25403332588711547, 0
2830, -4.131410203635014, 0.26093222529142024, 0
2831, -3.8905808723120794, 0.033895558439309414, 0
2832, -4.074801368719132, 0.29541139036262554, 0
2833, 3.890804498462445, -0.17786000060252216, 0
2834, -3.8903572461617144, -0.11006888372390297, 0
2835, -0.3621615153734781, 4.138445688003902, 0
2836, -0.3105423251190701, 4.103412675151319, 0
2837, -0.3897464990065723, 4.00277338536992, 0
2838, -0.41026800345828546, 3.946367632664016, 0
2839, -0.3477403217049865, 3.9555547885359874, 0
2840, -0.33171465443431625, 4.012105270952228, 0
2841, -4.018510352242402, 0.5743023351537758, 0
2842, 4.138445688003902, 0.3621615153734781, 0
2843, 4.103412675151319, 0.3105423251190701, 0
2844, 4.00277338536992, 0.3897464990065723, 0
2845, 3.946367632664016, 0.41026800345828546, 0
2846, 3.9555547885359874, 0.3477403217049865, 0
2847, 4.012105270952228, 0.33171465443431625, 0
2848, -5.070134541979903, -6.018036986658495, 0
2849, -5.045984181405482, -5.959897018132066, 0
2850, 3.89058087231208, -0.033895558439309526, 0
2851, 4.039295339259586, -0.4809330799369906, 0
2852, 4.126369104078224, 0.8065478397053436, 0
2853, 4.122222583227635, 0.7011702826365545, 0
2854, 4.166249497961362, 0.6605160012126728, 0
2855, 4.1532176848472036, 0.5885096415336338, 0
2856, 4.091607781926349, 0.5867132517848763, 0
2857, 4.0655702832822795, 0.5261711436599175, 0
2858, 4.1369336965592, 0.47276276601030837, 0
2859, 4.14346656593778, 0.5308625854234462, 0
2860, 4.178529374357614, 0.4423135377147956, 0
2861, 4.123053172107603, -0.5287713634796896, 0
2862, -4.179349797647101, 0.6570598806803124, 0
2863, -4.10372606156631, 0.6140101954429491, 0
2864, 5.529057994489316, -5.67956751347751, 0
2865, 0.9006931699148324, -4.178623199965436, 0
2866, 0.8477755909212742, -4.102401340717821, 0
2867, 0.7929466461132666, -4.155415540554378, 0
2868, 0.7548627010215818, -4.11704585407246, 0
2869, 0.6653902294279652, 4.083447345057572, 0
2870, 1.1988296781892747, -4.320581439240214, 0
2871, 1.1260189972135746, -4.25742955617465, 0
2872, 1.1664249855183733, -4.228553965013986, 0
2873, 1.0725522122096947, -4.226457267876952, 0
2874, -5.1102127679144544, -5.787875978371013, 0
2875, -5.1621940280693766, -5.830200155687721, 0
2876, -5.175704828306889, -5.89343709251532, 0
2877, -5.108323442486311, -5.9679859753376405, 0
2878, -5.154680799521391, -5.9421603625358435, 0
2879, -5.036806404711736, -5.8240050721485845, 0
2880, -1.9639978200251882, -4.975849653296013, 0
2881, -1.9687522201815362, -5.057155190267459, 0
2882, -5.0083790455518, 1.7938199683022666, 0
2883, -4.982087514515365, 1.8574043887744454, 0
2884, -5.084323834724983, 1.8538488124281238, 0
2885, -5.057552380008412, 1.8096636524581537, 0
2886, -5.787875978371014, 5.1102127679144544, 0
2887, -5.830200155687722, 5.1621940280693766, 0
2888, -5.893437092515321, 5.175704828306889, 0
2889, -5.967985975337641, 5.108323442486311, 0
2890, -5.942160362535844, 5.154680799521391, 0
2891, -5.824005072148585, 5.036806404711736, 0
2892, 5.162194028069376, -5.830200155687723, 0
2893, 5.109224092267222, -5.788362584076788, 0
2894, 5.154825471997776, -5.890374546935827, 0
2895, 5.0793623401403805, -5.945710822615841, 0
2896, 5.036806404711736, -5.824005072148586, 0
2897, 5.762115856731789, -5.3728824034765985, 0
2898, 5.0083790455518, -1.7938199683022673, 0
2899, 5.069813318850081, -1.8298998163064288, 0
2900, 5.010291813894776, -1.860905981259633, 0
2901, 5.128812200781231, -1.8462605044054492, 0
2902, 5.17070304767433, -1.8104016805819145, 0
2903, 4.870348369720892, 1.813822530196566, 0
2904, -4.08120398494463, -0.11672996557047706, 0
2905, -3.9398788372501374, -0.32821097387454995, 0
2906, -4.161493501782861, -0.38733169201871986, 0
2907, -4.064793561914732, -0.39954960576061427, 0
2908, -4.0930739455950125, -0.5217880304200231, 0
2909, 0.11672996557047538, -4.08120398494463, 0
2910, 0.32821097387454934, -3.9398788372501374, 0
2911, 0.387331692018718, -4.16149350178286, 0
2912, 0.39954960576061455, -4.0647935619147315, 0
2913, 0.5229895630641649, -4.093546592612019, 0
2914, -0.39054882333165997, -4.000114652481773, 0
2915, -0.49974196893497214, -4.009184343380867, 0
2916, -4.000114652481773, 0.39054882333165997, 0
2917, -4.105596626395133, 0.7292053900936771, 0
2918, -4.158940006052044, 0.830046649875666, 0
2919, -4.127039827515599, 0.8833751387790337, 0
2920, -4.201895923055324, 0.9299362102779775, 0
2921, -4.242585408094322, 0.8855173890220607, 0
2922, -4.206296817360668, 0.7656126282526916, 0
2923, -5.789129044036699, 5.4519731498227415, 0
2924, 1.502839361995471, -4.620113185102156, 0
2925, 4.674005814633146, -1.5974049802491235, 0
2926, 5.4519731498227415, 5.789129044036699, 0
2927, 0.6710024981795699, -4.185210975713319, 0
2928, 0.6847522592878441, -4.057205013034604, 0
2929, 1.2208190594857218, 4.251963389509793, 0
2930, 1.231677116091344, 4.185923249788376, 0
2931, 1.1760820530942466, 4.16651839744739, 0
2932, 1.2577867295645264, 4.291731261449999, 0
2933, 1.3012429606764642, 4.495530218171592, 0
2934, 1.3719302047061182, 4.414617369647093, 0
2935, 1.3959550572421304, 4.478194073646893, 0
2936, 4.325959672566314, 1.3660294063052965, 0
2937, 4.252618159412116, 1.205043265096657, 0
2938, 4.30873218168925, 1.1391988616534519, 0
2939, 4.361224494006422, 1.1993319980317803, 0
2940, -4.833014958153481, -1.6568306467622773, 0
2941, -1.788820961807482, -5.009159025202925, 0
2942, -1.8465336803915864, -4.983888420823669, 0
2943, -1.8493616599301275, -5.0782161276303475, 0
2944, -1.6021001977514417, -4.699554449504843, 0
2945, -4.804859401876995, 1.786153827675634, 0
2946, -4.792600304195503, 1.7209633476340311, 0
2947, -4.841940631428139, 1.7020845087013778, 0
2948, -4.656392428605475, 1.6419632949230187, 0
2949, -4.699833410836738, 1.6722471849053002, 0
2950, 1.7504041643322688, -5.064142995867537, 0
2951, 1.9787887051198443, -5.152288565846448, 0
2952, 2.0122238021195407, -5.038934934504746, 0
2953, 1.9806561593476923, -5.0912315257702385, 0
2954, 2.034728667663296, -5.1234424337325315, 0
2955, 2.041277229082071, -5.204805704373437, 0
2956, 4.879212189956135, -1.8011977178828353, 0
2957, 4.935760246631377, -1.7383686731482084, 0
2958, 4.546217425902053, 1.4984059001157533, 0
2959, 4.954680296638466, 1.7333430285912435, 0
2960, 0.2648988995970391, 4.210214423641669, 0
2961, 0.2639017129144124, 4.264170852252561, 0
2962, 0.023381063653770517, 4.362699827867564, 0
2963, 0.328139727693049, 4.087095298056576, 0
2964, -5.335374547380368, 5.841784050320974, 0
2965, 4.821207489323324, -1.7443225333472956, 0
2966, 5.050476584824731, -1.9881540433482878, 0
2967, 4.002455818598441, -0.3938788674336044, 0
2968, -4.46084120821879, -1.4657876188398284, 0
2969, -4.604827814486659, -1.5171476103777986, 0
2970, -4.649361101508411, -1.493360750509195, 0
2971, -4.645819176599068, -1.5777306776328253, 0
2972, -4.567510450157472, -1.5865562700537148, 0
2973, -4.492472886930009, -1.6007179130829647, 0
2974, -4.530883517745758, -1.6485420423914319, 0
2975, -1.7389179229412555, -4.93257097108618, 0
2976, -1.9797049860217388, 5.054527978364786, 0
2977, 1.9356870248419615, 4.904940248445975, 0
2978, 1.9849730722148171, 4.965133367941794, 0
2979, 1.9850889389198623, 5.051946327992634, 0
2980, 1.9011642083179172, 5.0331060619513375, 0
2981, 1.826935526694114, 5.209269160071029, 0
2982, 1.8888601545320212, 5.266206783091249, 0
2983, 1.7751940947470297, 5.148306179344913, 0
2984, -5.244122277018263, 5.952953158635223, 0
2985, -5.862968827577288, -4.959568588479512, 0
2986, -5.844247167105574, -5.130808273135878, 0
2987, -4.9434448454629125, -5.814856425051742, 0
2988, -4.866640980565115, -5.936889213889466, 0
2989, -6.18419871668312, -2.4644837948160294, 0
2990, -6.105999035701231, -2.4160825281443516, 0
2991, -5.983630595190196, -2.689838436823504, 0
2992, -5.997168703693629, -2.639827342572218, 0
2993, -5.929152890840477, -2.618309643988878, 0
2994, -6.02968616524719, -2.2680902211024425, 0
2995, -5.945712229746929, -2.240695801353229, 0
2996, -5.8335150230603166, -2.477824798466321, 0
2997, -5.9227866535970914, -2.5195876975515255, 0
2998, -5.65981014284748, -2.2951582327378164, 0
2999, -5.831712679819497, -2.1171967983694713, 0
3000, -5.715724728130809, -2.3601059975211194, 0
3001, -5.748219766973078, -2.2665936091512218, 0
3002, -5.7433582581914875, -2.1966604395574643, 0
3003, -5.650063923021039, -2.1556609317994213, 0
3004, -5.617276195648147, -2.2280408217017054, 0
3005, -5.689201944531323, -2.1932477393790304, 0
3006, -5.844045144629635, -2.3504002404125903, 0
3007, -5.509625687223598, -1.9728659032689229, 0
3008, -5.444506139517021, -2.1032885782478057, 0
3009, -5.3565143052686, -1.89835280355754, 0
3010, -5.432493474336584, -2.01532957877836, 0
3011, -5.368425661157425, -1.985920398946809, 0
3012, -5.292477137380178, -2.036855666481017, 0
3013, -5.525361076111982, -2.0661898084490162, 0
3014, -5.275973970214187, -1.942300540413556, 0
3015, -5.175593624836004, -1.8854715834766078, 0
3016, -5.1821930974623145, -2.0896293249680777, 0
3017, -2.4858031036890367, -6.148149906127972, 0
3018, -2.3992887909698757, -6.129625544575517, 0
3019, -2.6183096439888796, -5.929152890840478, 0
3020, -2.6769159441363404, -6.012333284441827, 0
3021, -2.2680902211024434, -6.02968616524719, 0
3022, -2.240695801353231, -5.945712229746929, 0
3023, -2.351769681158375, -6.058351755423397, 0
3024, -2.477824798466321, -5.833515023060316, 0
3025, -2.519587697551526, -5.922786653597092, 0
3026, -2.1171967983694726, -5.831712679819496, 0
3027, -2.295158232737818, -5.65981014284748, 0
3028, -2.3601059975211207, -5.715724728130808, 0
3029, -2.3504002404125908, -5.844045144629633, 0
3030, -2.2665936091512235, -5.748219766973077, 0
3031, -2.1966604395574656, -5.7433582581914875, 0
3032, -2.155660931799424, -5.650063923021038, 0
3033, -2.228040821701708, -5.617276195648149, 0
3034, -2.1932477393790326, -5.689201944531322, 0
3035, -2.0543980113383786, -5.480206525522158, 0
3036, -2.0433664273573284, -5.284081228518567, 0
3037, -1.8186642955721888, -5.214226238124095, 0
3038, -2.0473984687988653, -5.110910296759029, 0
3039, -2.0470958253221627, -5.2001842921285215, 0
3040, -1.909320136452344, -5.217718733469096, 0
3041, -1.928039532223805, -5.148752532366519, 0
3042, -1.8746718998160963, -5.129132249352813, 0
3043, -1.7997233728304833, -5.134640040214485, 0
3044, -1.9111012471824464, -5.079274458106654, 0
3045, -1.9295258948744207, -5.340885532944085, 0
3046, -5.653095617891715, 2.3043569699068254, 0
3047, -5.749533183085793, 2.321449056951079, 0
3048, -5.606922687022568, 2.216767548426303, 0
3049, -5.801468336383649, 2.3929520927411043, 0
3050, -5.90048912778669, 2.1658281658504017, 0
3051, -5.812164260414064, 2.151529378707135, 0
3052, -5.944706883749669, 2.2419147504735535, 0
3053, -6.056560759006367, 2.3532922463332206, 0
3054, -6.024567944430648, 2.2732842149546766, 0
3055, -5.837621479834363, 2.474542194655436, 0
3056, -5.923754833610381, 2.518943182608395, 0
3057, -6.131078732429375, 2.398255864141258, 0
3058, -6.148739078125799, 2.4854546666780064, 0
3059, -5.655051125677002, 2.1136809726490515, 0
3060, -5.426561020429372, 2.176873344012582, 0
3061, -5.499979264353339, 2.134918735575735, 0
3062, -5.258959764371229, 2.124889696573357, 0
3063, -5.357611154970116, 2.1079833186757257, 0
3064, -5.20673070136543, 2.0077676383689003, 0
3065, -5.432344688138688, 1.9350496097545564, 0
3066, -5.48465656720595, 2.0362567716867503, 0
3067, -5.472068196997654, 1.9786403960504586, 0
3068, -5.354366849731588, 1.9788337821737354, 0
3069, -5.358022455557587, 2.04335746899564, 0
3070, -5.96678039547639, 2.6974247149129886, 0
3071, -5.220263236840984, 1.808591141360045, 0
3072, -5.268599890876068, 1.887953801614724, 0
3073, -5.038381263768062, 2.013378465508329, 0
3074, -5.125112468677525, 2.01585743522902, 0
3075, -5.814856425051743, 4.9434448454629125, 0
3076, -5.936889213889467, 4.866640980565115, 0
3077, -4.948265687925802, 5.829241565825072, 0
3078, -5.177641849469304, 5.820964542282349, 0
3079, -5.127675959390901, 5.781869020347523, 0
3080, -5.021393814430647, 5.884482981767395, 0
3081, -4.993431112467381, 5.9891569349729, 0
3082, -5.082578445345215, 5.861983090082488, 0
3083, -2.3269791545921157, 6.08751290069978, 0
3084, -2.415028870849338, 6.107481388507667, 0
3085, -2.2934505872389397, 6.0046957710403985, 0
3086, -2.542601092511209, 5.888216300690073, 0
3087, -2.4470859688996454, 5.871968544158952, 0
3088, -2.5951632319288187, 5.971198476980375, 0
3089, -2.2951582327378177, 5.65981014284748, 0
3090, -2.1171967983694717, 5.831712679819498, 0
3091, -2.1939108831728302, 5.881176602858845, 0
3092, -2.2235332510023325, 5.959867292505817, 0
3093, -2.406489760564478, 5.787313277105087, 0
3094, -2.3601059975211203, 5.715724728130809, 0
3095, -2.266593609151222, 5.748219766973077, 0
3096, -2.1966604395574634, 5.7433582581914875, 0
3097, -2.1556609317994244, 5.6500639230210385, 0
3098, -2.228040821701708, 5.617276195648148, 0
3099, -2.193247739379032, 5.689201944531323, 0
3100, -2.3153097909320564, 5.803922358126933, 0
3101, -2.2875126918234856, 5.859742763511982, 0
3102, -2.6974247149129886, 5.96678039547639, 0
3103, -2.4751101144168155, 6.166230677265473, 0
3104, -2.5661161263812486, 6.180653958985197, 0
3105, -2.054398011338381, 5.480206525522159, 0
3106, -1.9662402731526214, 5.325552564051479, 0
3107, -2.090712610347802, 5.181734879861884, 0
3108, -2.0775912348160226, 5.279026717873399, 0
3109, -1.821689665210443, 5.212413086827131, 0
3110, -1.8478881477349844, 5.290378572397112, 0
3111, -1.915341789415346, 5.217065019389693, 0
3112, -1.9670786863438614, 5.143540220075691, 0
3113, 2.0290663526304913, -5.468831950805845, 0
3114, 2.2454768698551613, -5.589524152973814, 0
3115, 2.104436775024577, -5.634706569930042, 0
3116, 2.262166806952794, -5.68389189968973, 0
3117, 2.1572275285997033, -5.5749731691923206, 0
3118, 1.7689846152941098, -5.152249704902163, 0
3119, 1.844583181261838, -5.198692644936076, 0
3120, 1.8293276885690788, -5.074166594379815, 0
3121, 2.1403219381298113, -5.34553198582826, 0
3122, 2.1330444516140608, -5.445145192445356, 0
3123, 2.1241748862711165, -5.259243871998433, 0
3124, 2.0499956260972336, -5.32396217050515, 0
3125, 2.0113563852415974, -5.392326687985172, 0
3126, 2.1578780576077627, -5.905956428612753, 0
3127, 2.240360826693855, -5.94598850496414, 0
3128, 2.1750656639505364, -5.765351741395894, 0
3129, 2.2903953147208718, -6.00770647144688, 0
3130, 2.410354855009182, -5.783271913282613, 0
3131, 2.4474376669254383, -5.871528578563454, 0
3132, 2.3932192457614665, -6.138164570894642, 0
3133, 2.48419633431702, -6.150866791794511, 0
3134, 2.6768286900920826, -6.01252708805069, 0
3135, 2.6136739917089207, -5.937573578968979, 0
3136, 4.943444845462912, -5.814856425051744, 0
3137, 4.874908792334771, -5.893952195441471, 0
3138, 5.829241565825071, -4.948265687925803, 0
3139, 5.112315144874201, -2.044278498007395, 0
3140, 5.200653141664018, -2.0459874046796194, 0
3141, 5.267418617262607, -1.8884436734826464, 0
3142, 6.029686165247189, -2.2680902211024443, 0
3143, 5.9457122297469285, -2.240695801353232, 0
3144, 6.058351755423398, -2.351769681158375, 0
3145, 5.833515023060316, -2.477824798466322, 0
3146, 5.922786653597092, -2.519587697551527, 0
3147, 6.118752844687492, -2.4070171127997333, 0
3148, 6.140520126769175, -2.4975396114307764, 0
3149, 6.151269172513195, -2.4470765084042783, 0
3150, 5.96678039547639, -2.6974247149129895, 0
3151, 5.509625687223598, -1.9728659032689233, 0
3152, 5.4445061395170224, -2.103288578247809, 0
3153, 5.432493474336585, -2.0153295787783616, 0
3154, 5.525361076111982, -2.066189808449017, 0
3155, 5.655067469130662, -2.100061731664961, 0
3156, 5.831712679819496, -2.1171967983694726, 0
3157, 5.65981014284748, -2.295158232737819, 0
3158, 5.61760178431822, -2.1898635288426433, 0
3159, 5.6212311382316384, -2.249515826588782, 0
3160, 5.715724728130808, -2.360105997521121, 0
3161, 5.844045144629633, -2.350400240412591, 0
3162, 5.748219766973077, -2.266593609151224, 0
3163, 5.743358258191487, -2.196660439557465, 0
3164, 5.680911134185636, -2.185285530735953, 0
3165, 2.044278498007395, 5.1123151448742, 0
3166, 2.003169166423399, 5.396714338832116, 0
3167, 2.1241748862711174, 5.259243871998433, 0
3168, 2.1080309874963414, 5.357593349641481, 0
3169, 2.0164752057035167, 5.2181702333718425, 0
3170, 2.0512367928797235, 5.1707216419628965, 0
3171, 2.078388652371537, 5.570176483745523, 0
3172, 2.1578780576077627, 5.905956428612753, 0
3173, 2.149882037857244, 5.813102229815741, 0
3174, 2.2403608266938573, 5.94598850496414, 0
3175, 2.357614875954234, 5.717903404716166, 0
3176, 2.3824619240594145, 5.812436913945809, 0
3177, 2.266803955507305, 5.68050706010569, 0
3178, 2.4505231086136527, 5.867668766764213, 0
3179, 2.3704098810391416, 6.036425251553015, 0
3180, 2.1695564297130576, 5.528273274532048, 0
3181, 2.618580769683652, 5.928660389509181, 0
3182, 2.676953433920919, 6.012250014312533, 0
3183, 2.4648157218421383, 6.183637461411968, 0
3184, 2.4161600256258478, 6.105890007263115, 0
3185, 5.152249704902162, 1.7689846152941109, 0
3186, 5.1986926449360755, 1.844583181261839, 0
3187, 5.033398958963626, 1.803436917306955, 0
3188, 5.036112818443492, 2.0181092388582744, 0
3189, 4.982818877947996, 1.950356783060457, 0
3190, 5.124498132696563, 2.0172217893510447, 0
3191, 5.357583425279439, 1.8963554665688973, 0
3192, 5.4146041373998965, 1.97007602343291, 0
3193, 5.264572734823629, 2.110767551578445, 0
3194, 5.358315696855332, 2.106097103519047, 0
3195, 5.181734879861884, 2.090712610347802, 0
3196, 5.247568835850992, 2.020162065331626, 0
3197, 5.305206210168251, 2.0001211650114152, 0
3198, 5.570176483745523, 2.0783886523715376, 0
3199, 5.658005143236886, 2.297631038649986, 0
3200, 5.528273274532048, 2.1695564297130576, 0
3201, 5.653912803337623, 2.2118368916755866, 0
3202, 5.743163493059181, 2.1645384811421238, 0
3203, 5.905956428612752, 2.1578780576077636, 0
3204, 5.945988504964139, 2.2403608266938564, 0
3205, 5.783271913282613, 2.410354855009183, 0
3206, 5.750211105740806, 2.320673913105529, 0
3207, 5.871528578563455, 2.447437666925439, 0
3208, 6.024567944430648, 2.2732842149546766, 0
3209, 6.056560759006367, 2.3532922463332206, 0
3210, 6.131078732429375, 2.398255864141258, 0
3211, 6.148739078125799, 2.4854546666780064, 0
3212, 5.888216300690073, 2.542601092511209, 0
3213, 5.971198476980375, 2.5951632319288187, 0
3214, 5.96678039547639, 2.6974247149129886, 0
3215, 4.948265687925802, 5.829241565825072, 0
3216, 5.1140806518869, 5.802560603838688, 0
3217, 5.021393814430647, 5.884482981767395, 0
3218, 4.993431112467381, 5.9891569349729, 0
3219, 5.829241565825072, 4.948265687925802, 0
3220, 5.823370292233454, 5.1774726836965925, 0
3221, 5.782861700507785, 5.127872900669868, 0
3222, 5.884482981767395, 5.021393814430647, 0
3223, 5.9891569349729, 4.993431112467381, 0
3224, 5.861974833950895, 5.082600896491708, 0
3225, -5.789094840173917, -5.4431897182278925, 0
3226, -0.6823266589308068, 4.155376795890378, 0
3227, -0.6644076539616561, 4.265539643433609, 0
3228, 0.9882641379583761, -4.135733994411033, 0
3229, 0.9957456823070968, -4.18643633277826, 0
3230, 1.0396283948936182, -4.090451175072935, 0
3231, 1.0856275823869488, -4.125844197598568, 0
3232, 5.842308596673444, 5.291142447868135, 0
3233, 5.810790252695537, 5.342776201271669, 0
3234, 5.751057790001042, 5.368454806645642, 0
3235, 5.742906273017631, 5.428641733106319, 0
3236, 5.9163141775411905, 5.376656954650712, 0
3237, 5.793329005042512, 5.244676147523078, 0
3238, -4.363851217028564, -1.1145585010998342, 0
3239, 4.207301875813611, -1.0489534838699321, 0
3240, 4.263380755554133, -1.0973643873662677, 0
3241, -5.9524375196966615, -5.245409702298377, 0
3242, -5.841228522083491, -5.300805323688871, 0
3243, -5.430248720508812, -5.7976651574783284, 0
3244, -5.419823274313164, -5.860123943280329, 0
3245, -5.230016702139032, -5.901401483068894, 0
3246, -5.227111701882766, -5.995766015562301, 0
3247, -5.0596771561292915, -1.740945108269325, 0
3248, -5.037499781148851, -2.015216770552861, 0
3249, -5.143540849581396, -1.9825621064534602, 0
3250, -5.033647492432023, -1.8899807716337187, 0
3251, -4.970382188060401, -1.9746994258862012, 0
3252, -5.839652728092865, 5.302107399311886, 0
3253, -5.901401483068895, 5.230016702139032, 0
3254, -5.995766015562302, 5.227111701882766, 0
3255, 5.245409702298377, -5.952437519696662, 0
3256, 5.300805323688871, -5.841228522083492, 0
3257, 5.863553650321057, -5.308833121834465, 0
3258, 5.302107399311886, 5.839652728092865, 0
3259, 5.230016702139032, 5.901401483068895, 0
3260, 5.148638927553622, 5.8927341937978035, 0
3261, 5.227111701882766, 5.995766015562302, 0
3262, 5.124169157129884, 5.980733019260122, 0
3263, 5.9524375196966615, 5.245409702298378, 0
3264, -0.19873282422718516, -4.18818856057702, 0
3265, -0.1778600006025221, -3.8908044984624444, 0
3266, -4.18818856057702, 0.1987328242271852, 0
3267, -3.890804498462445, 0.17786000060252183, 0
3268, -0.4106114348907984, 4.050375580782066, 0
3269, 4.050375580782066, 0.4106114348907984, 0
3270, -4.070659506175085, 0.6618748695382342, 0
3271, -5.044360224996436, -5.897056128049582, 0
3272, 4.178422810383239, 0.821176575789011, 0
3273, -2.016356856852542, -5.036953100248117, 0
3274, -5.031783806877603, 1.9037665048660213, 0
3275, -5.1403768524241835, 1.8672450136563972, 0
3276, -5.897056128049583, 5.044360224996436, 0
3277, -5.912082943940534, 5.099005982273492, 0
3278, -5.959897018132067, 5.045984181405482, 0
3279, -6.018036986658496, 5.070134541979903, 0
3280, 5.018697150444614, -5.885931155706363, 0
3281, 5.120973407883091, -1.7795480469064267, 0
3282, -4.069668253625203, -0.23281091882907023, 0
3283, -4.24825735360719, 0.01414508035287032, 0
3284, 0.25403332588711497, -4.670008413508752, 0
3285, -4.158926920549352, -0.1432326379688748, 0
3286, -4.116945977364506, -0.1906607192601978, 0
3287, -4.174909871064074, -0.1996736852858632, 0
3288, -4.278645206251415, -0.13981441345750956, 0
3289, -4.242195766846301, -0.19646363716956505, 0
3290, -4.218781029532571, -0.1413472218972793, 0
3291, -4.186031630618514, -0.05269224738738504, 0
3292, -4.302362129895037, -0.1951252625030886, 0
3293, -5.736006730807, -0.25403332588711547, 0
3294, -4.492342027292377, -0.25403332588711547, 0
3295, -5.025341185941501, -0.25403332588711547, 0
3296, -4.258876645490136, -0.24987321252151576, 0
3297, 0.23281091882907054, -4.069668253625203, 0
3298, -0.014145080352865103, -4.248257353607194, 0
3299, 0.29224589997871914, 4.007198383676526, 0
3300, 0.14323263796887314, -4.158926920549352, 0
3301, 0.19066071926019657, -4.116945977364505, 0
3302, 0.19967368528586224, -4.174909871064073, 0
3303, 0.13981441345751056, -4.278645206251414, 0
3304, 0.19646363716956444, -4.242195766846299, 0
3305, 0.14134722189727864, -4.21878102953257, 0
3306, 0.052692247387390645, -4.1860316306185155, 0
3307, 0.19512526250308945, -4.302362129895035, 0
3308, 0.25403332588711497, -5.736006730807, 0
3309, 0.25403332588711497, -4.492342027292377, 0
3310, 0.25403332588711497, -5.025341185941501, 0
3311, 0.24987321252151462, -4.258876645490136, 0
3312, 0.17384877609148247, 4.009149742661698, 0
3313, 0.06640748386388054, 4.095510282142745, 0
3314, 0.004462917170646405, 3.972330247290586, 0
3315, -4.165932089213317, 0.9826063205599956, 0
3316, -4.2449217401647825, 0.9979281368020325, 0
3317, 1.4524704960996213, -4.626684489240028, 0
3318, 1.5601338188496778, -4.65831734243784, 0
3319, 1.5589432935075933, -4.710283971305299, 0
3320, 1.6166217410165795, -4.639743459588278, 0
3321, 1.5812089991599352, -4.578079987474821, 0
3322, 4.623956037254403, -1.6022758114378335, 0
3323, 4.671755194091608, -1.6703911596917138, 0
3324, 4.694705513681049, -1.540937618230401, 0
3325, -1.8528772759935457, -4.927475777577395, 0
3326, 1.9663922978241561, -5.230473821984354, 0
3327, 2.028863619330112, -5.257268617585779, 0
3328, 2.0839820128259663, -5.22859564711919, 0
3329, 0.13425037379258234, 4.31728235710695, 0
3330, 0.3138314491479186, 4.1395070820739965, 0
3331, 5.094960004974805, -1.9533136348937636, 0
3332, 5.1597328625146845, -1.926927908071413, 0
3333, -4.5724166725126905, -1.4796969735173788, 0
3334, -4.610319939165937, -1.614575092228292, 0
3335, -4.525515367707593, -1.541682679671817, 0
3336, -1.9801617865692611, 5.003318495034171, 0
3337, 1.9524208030309875, 5.09702899378751, 0
3338, 1.8864571325379569, 5.31454441614468, 0
3339, 1.910033143196387, 5.181036285798748, 0
3340, 1.9437053204905017, 5.285623593392185, 0
3341, -5.88707490178563, -5.014345528514577, 0
3342, -5.994935730730543, -4.934185718007086, 0
3343, -5.968199214067245, -5.010856981715515, 0
3344, -5.825608516772419, -4.991538834889312, 0
3345, -5.893879352062332, -4.87488649091218, 0
3346, -5.861974703432953, -5.082601251413065, 0
3347, -5.823370408349846, -5.177472423939954, 0
3348, -5.782869285043057, -5.127866685649521, 0
3349, -4.892248482437347, -5.87394088629272, 0
3350, -4.926818990840567, -5.924686990761212, 0
3351, -4.928951162739635, -6.029436642843117, 0
3352, -4.943937208845074, -5.976735076768117, 0
3353, -4.999319025425812, -6.020964744927896, 0
3354, -4.8338254254782225, -5.886857027837067, 0
3355, -4.749575330256954, -5.977893501527435, 0
3356, -4.803012840728485, -5.942844431979517, 0
3357, -4.842371728667672, -6.020478939705833, 0
3358, -4.746278716301701, -5.914606079859743, 0
3359, -4.670807696105307, -5.950266902522169, 0
3360, -6.145416629941787, -2.388064477688893, 0
3361, -6.07257913907558, -2.4747944194800247, 0
3362, -5.995582328923572, -2.490166584594246, 0
3363, -6.024438851216994, -2.4085245175472356, 0
3364, -5.882471316387361, -2.1920282151027184, 0
3365, -5.881129521364395, -2.5473187432697233, 0
3366, -5.622019423776455, -2.0914314642693235, 0
3367, -5.695590257102447, -2.097545512135615, 0
3368, -5.662490078261008, -2.0501437229232753, 0
3369, -5.752279323389264, -2.0836240050258366, 0
3370, -5.735873424821891, -2.1391994697264467, 0
3371, -5.580101664513711, -2.2610249182771, 0
3372, -5.584294711382261, -2.1732541730358728, 0
3373, -5.795741760003252, -2.3984288969901946, 0
3374, -5.847072611928471, -2.401749195445331, 0
3375, -5.8023672666413315, -2.313949744335855, 0
3376, -5.913588299018849, -2.3128868971836267, 0
3377, -5.857738324374816, -2.288360327659598, 0
3378, -5.397567739689698, -2.0857560774690618, 0
3379, -5.498085616294076, -2.130263978825397, 0
3380, -5.447381580097957, -2.1642756867598774, 0
3381, -5.338001340762537, -2.063506747721575, 0
3382, -5.269346318636113, -2.0987572901104814, 0
3383, -5.244589840528535, -2.012479949226155, 0
3384, -5.2204715608400685, -1.910878611944039, 0
3385, -5.132587323402287, -1.8570451935062562, 0
3386, -5.187855994854298, -1.82478470366786, 0
3387, -2.460505774141412, -6.190925150196422, 0
3388, -2.492008037522253, -6.089641558545352, 0
3389, -2.558529281521818, -6.189628024824661, 0
3390, -2.5508295729907324, -6.122629052558742, 0
3391, -2.6223510960155663, -6.077173315542057, 0
3392, -2.6982710476940572, -5.964900570321402, 0
3393, -2.1920282151027193, -5.882471316387361, 0
3394, -2.3653768412104244, -6.000061673540559, 0
3395, -2.547318743269724, -5.881129521364394, 0
3396, -2.3139497443358557, -5.80236726664133, 0
3397, -2.376294845445999, -5.784884519530612, 0
3398, -2.406030106475524, -5.833146989731314, 0
3399, -2.387809308474687, -5.887569535783488, 0
3400, -2.313351269207717, -5.913727290762522, 0
3401, -2.28836693881999, -5.857911398823225, 0
3402, -2.0754203567112985, -5.647641374528545, 0
3403, -2.1711985454460234, -5.588079419609917, 0
3404, -2.219849369605542, -5.563583770767793, 0
3405, -2.095408883701682, -5.423410446564217, 0
3406, -2.123739097912766, -5.487071353864019, 0
3407, -2.161362572139597, -5.432194078152271, 0
3408, -2.0679422898445017, -5.532071886100289, 0
3409, -2.0052724744108916, -5.520736495516632, 0
3410, -1.9992242571737988, -5.463368568952, 0
3411, -2.0624927269492335, -5.335286581867268, 0
3412, -1.9957430287505795, -5.331762248725558, 0
3413, -1.9557107396529834, -5.286071259635743, 0
3414, -2.1034487485581597, -5.267481657307755, 0
3415, -2.091442255374446, -5.181426248175781, 0
3416, -2.012977075654288, -5.24069899889959, 0
3417, -1.996504766182909, -5.185819258885976, 0
3418, -1.8863795584171583, -5.362923256811099, 0
3419, -5.716819404672225, 2.3588543329283063, 0
3420, -5.556803582539471, 2.2201210903265785, 0
3421, -5.581022197821609, 2.159026961873336, 0
3422, -5.854395819111625, 2.394290126944706, 0
3423, -5.924088847210725, 2.369158669998849, 0
3424, -5.926631989180979, 2.419948948529833, 0
3425, -5.911393085149314, 2.3018091183543885, 0
3426, -5.850760262428319, 2.2753753984451937, 0
3427, -5.8210756438556155, 2.232520939258907, 0
3428, -5.80618402307788, 2.3116766025797757, 0
3429, -5.836309089867015, 2.10912419597905, 0
3430, -5.738509446356394, 2.1131596280180647, 0
3431, -6.09326633448462, 2.322088034859387, 0
3432, -6.001633096712252, 2.3688035489060186, 0
3433, -5.881744306569031, 2.5469094823412135, 0
3434, -5.96987669324791, 2.595890883835588, 0
3435, -6.191330180305936, 2.460266238859259, 0
3436, -6.189614417525069, 2.558535921008321, 0
3437, -5.635476476911883, 2.055718132436338, 0
3438, -5.600883683741502, 2.0996871758210824, 0
3439, -5.309504499485928, 2.1162275947276843, 0
3440, -5.257990294431928, 2.0281412134446373, 0
3441, -5.212256293252876, 2.0685362872265673, 0
3442, -5.531312254462791, 2.057456270888021, 0
3443, -5.4217408879592615, 2.0469652858165235, 0
3444, -5.211016119749057, 1.9095802303344227, 0
3445, -5.260827572023775, 1.9547349214653638, 0
3446, -5.162445389292824, 1.9767410811424333, 0
3447, -5.873940886292721, 4.892248482437347, 0
3448, -5.924686990761213, 4.926818990840567, 0
3449, -6.029436642843118, 4.928951162739635, 0
3450, -5.976735076768118, 4.943937208845074, 0
3451, -6.0209647449278965, 4.999319025425812, 0
3452, -5.886857027837068, 4.8338254254782225, 0
3453, -5.977893501527436, 4.7495753302569526, 0
3454, -5.942844431979518, 4.803012840728484, 0
3455, -6.020478939705835, 4.842371728667672, 0
3456, -5.914606079859744, 4.746278716301699, 0
3457, -5.95026690252217, 4.670807696105306, 0
3458, -5.077634813707921, 5.796745931077931, 0
3459, -2.426117417146503, 6.042834379699996, 0
3460, -2.462431300277412, 6.082337583712207, 0
3461, -2.525254099836262, 6.022536474806653, 0
3462, -2.4702501550262292, 6.006137480616282, 0
3463, -2.355144681625932, 5.982498906976718, 0
3464, -2.346375450833557, 5.907321424094875, 0
3465, -2.478546121868296, 5.832612665194133, 0
3466, -2.6199040827526967, 5.926256583965142, 0
3467, -2.2113644350581967, 5.830255617192282, 0
3468, -2.0914314642693235, 5.622019423776457, 0
3469, -2.0975455121356195, 5.6955902571024515, 0
3470, -2.050143722923276, 5.662490078261015, 0
3471, -2.0836240050258357, 5.752279323389266, 0
3472, -2.1391994697264463, 5.735873424821899, 0
3473, -2.2610249182771014, 5.580101664513711, 0
3474, -2.1732541730358745, 5.584294711382263, 0
3475, -2.067942289844503, 5.53207188610029, 0
3476, -2.0052724744108925, 5.520736495516632, 0
3477, -1.9992242571738008, 5.463368568951999, 0
3478, -2.124475349251907, 5.486477561794763, 0
3479, -2.0947901084708995, 5.423518757847291, 0
3480, -2.1603714865079566, 5.431074702842338, 0
3481, -1.987632906847794, 5.372156354665255, 0
3482, -1.9414067900872376, 5.278857636642625, 0
3483, -1.9049389641887675, 5.3282030865272425, 0
3484, -2.1229555168581835, 5.259728521071773, 0
3485, -2.023431434780557, 5.255298045993977, 0
3486, -2.061651017604738, 5.333033138947235, 0
3487, -1.9949897661415474, 5.18805828090718, 0
3488, -2.0316190117742488, 5.134084572018264, 0
3489, -1.8962853531577644, 5.08809661980091, 0
3490, 1.9799445963789528, -5.506230842638106, 0
3491, 1.969072029965487, -5.4419491204633506, 0
3492, 1.956195136234067, -5.388149512722438, 0
3493, 2.0532237120462615, -5.5219972730218405, 0
3494, 2.0852443139232926, -5.475376697144965, 0
3495, 2.0631445408195415, -5.420694925952686, 0
3496, 2.0838899353130245, -5.589487250426439, 0
3497, 2.3040776977008806, -5.653299469807669, 0
3498, 2.321402278192667, -5.749574094692435, 0
3499, 1.8879479891212336, -5.268688983872702, 0
3500, 1.8719683548740866, -5.141308631989525, 0
3501, 1.9281144594383888, -5.120181595119166, 0
3502, 1.9203328884564275, -5.184670689480397, 0
3503, 2.176779751377816, -5.47179928935148, 0
3504, 2.1320177289732096, -5.499320830586007, 0
3505, 2.2593910013311485, -5.887970851099352, 0
3506, 2.294009427451223, -5.931455762674078, 0
3507, 2.3448740508370167, -5.885787101236595, 0
3508, 2.401913039789335, -5.920070074950364, 0
3509, 2.3223251759677286, -5.838647539515542, 0
3510, 2.4075620425403637, -5.994532175300443, 0
3511, 2.4745261559848464, -5.9425518863393645, 0
3512, 2.543854388395799, -5.933195619749361, 0
3513, 2.5273500413664154, -5.988345131555839, 0
3514, 2.548674378860067, -6.078064090500275, 0
3515, 2.1358648421449606, -5.821083395751328, 0
3516, 2.210215558345656, -5.816463885038395, 0
3517, 2.246176728940089, -5.7540909483273595, 0
3518, 2.4787672076864613, -5.83233609226363, 0
3519, 2.459390449274166, -6.192811052553119, 0
3520, 2.5585844914535487, -6.189514874796975, 0
3521, 2.6982151264147802, -5.96502477941484, 0
3522, 4.931491260499341, -5.915156163920513, 0
3523, 4.859699099063098, -6.020635744297887, 0
3524, 4.92864265403548, -5.990388929510066, 0
3525, 4.908338712786432, -5.855371547862486, 0
3526, 5.181739489922668, -2.0907017115707967, 0
3527, 5.277187807625739, -2.079028227677923, 0
3528, 5.237041357831543, -1.8462110956613094, 0
3529, 5.323009469219409, -1.9650729111102216, 0
3530, 5.882471316387363, -2.192028215102719, 0
3531, 6.00006167354056, -2.3653768412104257, 0
3532, 5.881129521364394, -2.547318743269725, 0
3533, 5.969826783462429, -2.5959183595486577, 0
3534, 5.3975677396897, -2.085756077469064, 0
3535, 5.404057762152956, -2.1438402653012965, 0
3536, 5.46349511175348, -2.162677683039785, 0
3537, 5.499402058493692, -2.1184665530482243, 0
3538, 5.631278159269672, -2.0495010394881383, 0
3539, 5.570534751210068, -2.16639244505316, 0
3540, 5.80236726664133, -2.3139497443358557, 0
3541, 5.784884519530612, -2.376294845445999, 0
3542, 5.833146989731314, -2.4060301064755247, 0
3543, 5.887569535783488, -2.3878093084746874, 0
3544, 5.913727290762522, -2.3133512692077174, 0
3545, 5.857911398823225, -2.28836693881999, 0
3546, 1.9784213443384893, 5.350480295939401, 0
3547, 2.0195230655537313, 5.4474340684944815, 0
3548, 1.9460365354446894, 5.4267799130960865, 0
3549, 2.115962423435961, 5.3092746261098585, 0
3550, 2.1455791199373855, 5.3895160665707955, 0
3551, 2.0526059232770137, 5.332200384462459, 0
3552, 2.03132367406661, 5.265032659712075, 0
3553, 2.0746540045183695, 5.221482771831064, 0
3554, 2.053371933873092, 5.518013367464047, 0
3555, 2.1129552748378706, 5.506257993235149, 0
3556, 2.018581118846952, 5.566778963913973, 0
3557, 2.2109026505407794, 5.817462999134669, 0
3558, 2.1865351221901412, 5.729326204221924, 0
3559, 2.2593910013311485, 5.887970851099352, 0
3560, 2.33400149231447, 5.8715076304877085, 0
3561, 2.2928489263554286, 6.0052886545412445, 0
3562, 2.4166226478077752, 5.776718274962678, 0
3563, 2.3251502977760246, 5.808430258013999, 0
3564, 2.2660071995395166, 5.630911185354029, 0
3565, 2.213966422010674, 5.657426741391898, 0
3566, 2.4807360115308166, 5.829873166991744, 0
3567, 2.4946448332965643, 5.957386268167597, 0
3568, 2.3329447111080257, 6.080495604808546, 0
3569, 2.1795406775728816, 5.478049059004092, 0
3570, 2.2157180509196426, 5.550842933861585, 0
3571, 2.698295094776432, 5.9648471583404845, 0
3572, 2.3881180784494327, 6.145341220946674, 0
3573, 2.476386826992009, 6.06740070508179, 0
3574, 2.5057201390386132, 6.0157465956303735, 0
3575, 2.4356211792401243, 6.010094779045193, 0
3576, 5.141308631989523, 1.871968354874088, 0
3577, 5.19575040310499, 1.9122328781641076, 0
3578, 5.269728326849488, 1.903433294732095, 0
3579, 5.169109926299563, 1.9708255831325803, 0
3580, 5.120680698943737, 1.9311073284497913, 0
3581, 5.061201614687296, 1.744682671957055, 0
3582, 5.07789679996532, 1.8316966731468964, 0
3583, 4.915390677983996, 1.9185066850213954, 0
3584, 4.929147849459979, 1.850555182018086, 0
3585, 4.978638075397725, 1.82116527566312, 0
3586, 4.9834739279956395, 1.8856721830426832, 0
3587, 5.0316592179505495, 1.9185057641564143, 0
3588, 5.437031428997005, 1.9257962485413842, 0
3589, 5.4438907069872196, 2.0178237177446956, 0
3590, 5.401805588855172, 2.0626413267251813, 0
3591, 5.344292538147422, 2.0456167334136297, 0
3592, 5.340638685970882, 2.1534223890055406, 0
3593, 5.518013367464047, 2.0533719338730925, 0
3594, 5.566778963913973, 2.018581118846952, 0
3595, 5.506257993235149, 2.112955274837871, 0
3596, 5.550842933861586, 2.2157180509196426, 0
3597, 5.478049059004092, 2.1795406775728816, 0
3598, 5.816266255429115, 2.14432510963156, 0
3599, 5.901194794861534, 2.3100351387074523, 0
3600, 5.717246758074429, 2.3583656925839476, 0
3601, 5.832336092263631, 2.4787672076864617, 0
3602, 6.09326633448462, 2.322088034859387, 0
3603, 6.032770184062461, 2.4054301661453104, 0
3604, 6.191330180305935, 2.4602662388592584, 0
3605, 6.189614417525071, 2.558535921008319, 0
3606, 5.926256583965142, 2.6199040827526967, 0
3607, 6.055411415953285, 2.5329338030127255, 0
3608, 6.021557619460574, 2.4731832740994077, 0
3609, 5.993818356781026, 2.5283657475397705, 0
3610, 5.968974683444493, 2.472413987463856, 0
3611, 5.166970248281166, 5.828065090098841, 0
3612, 5.093655744720629, 5.857909550169236, 0
3613, 5.796737124021632, 5.077579611882834, 0
3614, -0.6076721084754385, 4.111014120457391, 0
3615, -0.7170234301704779, 4.284348939304881, 0
3616, -5.104861628596506, -1.7619967253402542, 0
3617, -5.190588664340679, -1.996491677759159, 0
3618, -5.143884848923417, -2.0401683093271012, 0
3619, -5.109578247641443, -1.9315607571163682, 0
3620, 5.115602233142294, 5.930949262330788, 0
3621, 5.174094615002884, 5.988023777667068, 0
3622, -0.11126638328638559, -4.17604551254794, 0
3623, -0.10436055895777635, -4.234099797285255, 0
3624, 4.170466804959582, 0.028046850972131415, 0
3625, -4.234099797285258, 0.10436055895778146, 0
3626, -5.135617792026952, 1.7951732426434357, 0
3627, 3.8903572461617144, 0.11006888372390308, 0
3628, 0.1831673948873408, 4.108042514968615, 0
3629, 0.249842221684128, 3.890916311537628, 0
3630, -0.19089362538432175, 4.046791899017422, 0
3631, -4.299102762525997, 0.9972712525468412, 0
3632, -4.247596343292182, 0.9486261290260293, 0
3633, 1.5299101543798248, -4.576510347522034, 0
3634, 4.637595074975381, -1.5189116462256151, 0
3635, 0.19364076165827024, 4.292953160858012, 0
3636, 1.8761927046699844, 5.21784071230027, 0
3637, 1.8793085324868273, 5.141329605934315, 0
3638, 1.9674346984452302, 5.187620057542419, 0
3639, -5.930456591644632, -4.954698154457102, 0
3640, -6.035764454309433, -4.991420718932118, 0
3641, -6.064466510805901, -4.927765905060498, 0
3642, -6.051697852612134, -5.049735684523589, 0
3643, -5.98715545499339, -5.099838933068544, 0
3644, -6.016093611740339, -4.783597573964737, 0
3645, -6.089588464499024, -4.849879302555597, 0
3646, -6.117714714564437, -4.967291598691736, 0
3647, -5.85546558733957, -4.908847263658267, 0
3648, -5.796736287912359, -5.077574371226221, 0
3649, -4.888870938767004, -5.988661412420621, 0
3650, -4.8802430037047895, -6.077328988960274, 0
3651, -4.867837497459252, -6.1490953072874746, 0
3652, -4.80297993710703, -6.087759411915517, 0
3653, -4.676149511936703, -5.894887260830063, 0
3654, -4.671212034036548, -6.075216623561778, 0
3655, -4.586838751623743, -5.959506178405861, 0
3656, -6.001562405917136, -2.544452346537337, 0
3657, -5.93912960099558, -2.455255997150123, 0
3658, -5.993856764444864, -2.3618248935213786, 0
3659, -6.06545108540175, -2.3483034939101453, 0
3660, -5.831564582269633, -2.211374785616303, 0
3661, -5.896473592781819, -2.364376308600545, 0
3662, -5.891520165496985, -2.2456925994634434, 0
3663, -5.397925115404615, -2.145202236480816, 0
3664, -5.236007884082976, -1.8463424661497843, 0
3665, -2.536696098738346, -6.234374054368885, 0
3666, -2.5099715586070226, -6.190270579412545, 0
3667, -2.638782921075522, -6.222259846167598, 0
3668, -2.590363415316763, -6.031519290635353, 0
3669, -2.2113747856163037, -5.831564582269632, 0
3670, -2.340067787286665, -5.955849204032819, 0
3671, -2.245644441372905, -5.8915572259678175, 0
3672, -2.0849700484192017, -5.59727660246188, 0
3673, -2.1133581220282016, -5.721142982360534, 0
3674, -2.03410124860561, -5.676811370155204, 0
3675, -5.759374841960315, 2.0684045109847085, 0
3676, -5.696552606288139, 2.076972686473347, 0
3677, -5.697213729746497, 2.1828071965398737, 0
3678, -5.756003482463136, 2.1694569634334013, 0
3679, -5.925413887383884, 2.6203679935719326, 0
3680, -6.054908734671807, 2.53354791475142, 0
3681, -6.234364430632248, 2.536700794502489, 0
3682, -6.190460250625942, 2.5100911412865594, 0
3683, -6.222260965588423, 2.6387824762020555, 0
3684, -5.162204281242746, 2.05291654573175, 0
3685, -5.406652483171664, 2.0953165024180125, 0
3686, -5.988661412420622, 4.888870938767004, 0
3687, -6.077328988960275, 4.8802430037047895, 0
3688, -6.1490953072874746, 4.867837497459252, 0
3689, -6.087759411915518, 4.802979937107031, 0
3690, -5.894887260830064, 4.676149511936703, 0
3691, -6.075216623561779, 4.671212034036546, 0
3692, -5.959506178405861, 4.586838751623743, 0
3693, -2.5717227785647747, 6.075131783162801, 0
3694, -2.559601371233924, 6.127397778548487, 0
3695, -2.622602208033653, 6.0433855363937985, 0
3696, -2.543854362706806, 5.974597126651166, 0
3697, -2.3925692986760145, 5.877790281549653, 0
3698, -1.9265701599088711, 5.378159484899812, 0
3699, -2.0156636725852253, 5.307380330463239, 0
3700, -2.019986957674048, 5.084958636678458, 0
3701, -1.9291816885238695, 5.049410389344604, 0
3702, 2.3588247692096735, -5.716845260408217, 0
3703, 1.9436747834381027, -5.285566543871402, 0
3704, 2.430803254344047, -6.0423309013958635, 0
3705, 2.3525695628042484, -6.058857115569902, 0
3706, 2.5464979942664825, -5.882362437357009, 0
3707, 2.486464694459644, -6.087921787500234, 0
3708, 2.510520896161398, -6.191112008558252, 0
3709, 2.536735127885509, -6.2342940660598325, 0
3710, 2.638779262237353, -6.222269052784645, 0
3711, 2.5396571073073657, -6.135031890614211, 0
3712, 2.600478712619474, -6.144431647943775, 0
3713, 4.873334216775001, -5.95801796737559, 0
3714, 4.785456998092289, -5.923805930815628, 0
3715, 4.918828492667772, -6.061716063619591, 0
3716, 4.850948457515234, -6.096325492857097, 0
3717, 4.960697602969009, -6.097731353830273, 0
3718, 5.004274154561617, -6.020955301186732, 0
3719, 5.259222051740888, -2.124229785694425, 0
3720, 5.331663739615721, -2.0611395175336984, 0
3721, 5.370591185455051, -1.9869144440115354, 0
3722, 5.351636174968737, -1.9074661584518158, 0
3723, 5.262852001358721, -2.007073621846143, 0
3724, 5.312723683897905, -2.014422636023165, 0
3725, 5.2662091136836064, -1.9477999833658326, 0
3726, 5.21694214479064, -1.9171055923277724, 0
3727, 5.203163493268667, -1.9808344144274574, 0
3728, 5.831564582269634, -2.211374785616304, 0
3729, 5.9253819319778716, -2.620385585263786, 0
3730, 5.955849204032819, -2.340067787286666, 0
3731, 5.891557225967817, -2.245644441372905, 0
3732, 2.1128000844569375, 5.746972290448887, 0
3733, 2.251976520953927, 5.746526577711532, 0
3734, 2.392272529416701, 5.869898679586076, 0
3735, 2.3099026792226924, 5.937314572151543, 0
3736, 2.451499212804146, 5.922896686018201, 0
3737, 2.508983141041473, 5.895217550163551, 0
3738, 2.5490503444008783, 5.937196285766596, 0
3739, 5.250509084222235, 1.8543348341869532, 0
3740, 5.362633634725171, 1.9921956298057832, 0
3741, 5.8139711003757535, 2.2085012667625357, 0
3742, 5.8830222929742835, 2.25598787082031, 0
3743, 5.939667879996444, 2.365049420197668, 0
3744, 5.9937737562667435, 2.3678215356190613, 0
3745, 5.920614581655041, 2.418662836379997, 0
3746, 5.881775116170549, 2.3746676318683484, 0
3747, 5.847528065468694, 2.322757134498832, 0
3748, 6.190460250625942, 2.5100911412865576, 0
3749, 6.23436443063225, 2.536700794502487, 0
3750, 6.222260965588421, 2.638782476202056, 0
3751, 6.091637560212902, 2.488677330259071, 0
3752, 6.1216598089970375, 2.550206742800972, 0
3753, 6.149768451979695, 2.6022515152829513, 0
3754, 6.07709218535392, 2.585460234140393, 0
3755, -0.6352242144919662, 4.061792082809543, 0
3756, -0.5309985078809858, 4.089226380557754, 0
3757, -0.6274520617188936, 4.162724503066748, 0
3758, 0.10223317806845185, -4.025676973737899, 0
3759, -0.1984518343465027, -4.125422548154092, 0
3760, -0.14179908844248285, -3.9356849786535344, 0
3761, -0.28649041400470365, -4.004833815208852, 0
3762, -0.17335575845780837, -3.9838391421863046, 0
3763, -0.03642558117973797, -4.0044513915856035, 0
3764, 0.031968321099606914, -4.101397990150454, 0
3765, 0.08669066002904274, -4.134827088897784, 0
3766, -4.025676973737899, -0.10223317806845221, 0
3767, -4.125422548154092, 0.1984518343465009, 0
3768, -3.9356849786535397, 0.14179908844248226, 0
3769, -4.0048338152088485, 0.28649041400470254, 0
3770, -3.983839142186319, 0.17335575845780066, 0
3771, -4.004451391585612, 0.036425581179733074, 0
3772, -4.101397990150452, -0.031968321099610494, 0
3773, -4.134827088897784, -0.08669066002904285, 0
3774, 4.151201108954115, -0.25288472329532935, 0
3775, 4.107016183394294, -0.20804987804572395, 0
3776, 4.165992857082066, 0.1426392307463487, 0
3777, 4.046791899017422, 0.19089362538432175, 0
3778, -4.317267669524074, -0.052212622556356364, 0
3779, 0.052212622556360916, -4.317267669524074, 0
3780, 0.23654128782381895, 4.1137713138966, 0
3781, 0.19830475861598623, 4.172777367575435, 0
3782, 0.13335185495613724, 4.230434960215594, 0
3783, 0.24391461210883997, 3.9589504325408225, 0
3784, -0.23758221750541514, 4.069729086882653, 0
3785, -0.23760325602670243, 4.0055000953330175, 0
3786, -0.11141219913076661, 4.167212031621358, 0
3787, -5.9596110519005325, -5.059196702007792, 0
3788, -6.024202008985032, -5.140654088435644, 0
3789, -5.931196987476433, -5.12886182520306, 0
3790, -6.1490953072874746, -4.86783749745925, 0
3791, -6.0977511030885925, -4.766941025271028, 0
3792, -4.751678101321982, -6.136666475703442, 0
3793, -4.689206176279801, -6.135062468061793, 0
3794, -4.647690493826174, -6.1828433383588335, 0
3795, -4.738089383081541, -6.07105190871059, 0
3796, -4.544349867272228, -6.103874868357518, 0
3797, -4.701293748686015, -6.019227915958433, 0
3798, -4.586114264113075, -6.156322297542934, 0
3799, -4.632269841917981, -6.119553678137724, 0
3800, -4.629725317995837, -6.016851032333927, 0
3801, -4.531587483578997, -6.200371669475873, 0
3802, -4.554476265423849, -6.028418392236669, 0
3803, -4.420419446380433, -6.136576552895736, 0
3804, -4.466935597521322, -6.184275587552103, 0
3805, -4.413766434020971, -6.230230681246635, 0
3806, -4.482899485075915, -6.122176768578502, 0
3807, -4.323745493741228, -6.176772390813949, 0
3808, -4.429369240090938, -6.032660339876761, 0
3809, -4.359232805421669, -6.219538032371871, 0
3810, -4.288696122954519, -6.2478985203873165, 0
3811, -4.441677159602035, -6.086063868038909, 0
3812, -4.3528569135789805, -6.0784142159189125, 0
3813, -4.492455140679703, -6.046240990625057, 0
3814, -4.475008769333752, -5.973968134651699, 0
3815, -4.571510738636882, -5.894519628426375, 0
3816, -4.626198081691636, -5.931028564996419, 0
3817, -2.619779676546358, -6.270077100439796, 0
3818, -2.5896512848356097, -6.228090088083782, 0
3819, -2.621081830021907, -6.1507908280195425, 0
3820, -2.734203505064668, -6.115921501304989, 0
3821, -2.689485301624928, -6.171775564474609, 0
3822, -2.6727375895577605, -6.1125386092142735, 0
3823, -2.7062490216538415, -6.063746189797069, 0
3824, -2.7873103726364556, -6.053891527896923, 0
3825, -2.809575682063173, -6.222094715103653, 0
3826, -2.7567199225328047, -6.179777030883204, 0
3827, -2.8377020671342397, -6.132796343228057, 0
3828, -2.7379578165744873, -6.257379203071212, 0
3829, -2.7843591037696998, -6.134133462986797, 0
3830, -2.693192628992487, -6.226201759650318, 0
3831, -2.074521145770625, -5.7565231902826355, 0
3832, -5.640789674928942, 2.1698009179991202, 0
3833, -5.719274742378463, 2.2276534879028302, 0
3834, -6.091338030923478, 2.489043256860072, 0
3835, -6.024400024935375, 2.4714130718838536, 0
3836, -6.121379723190726, 2.5507958224886766, 0
3837, -5.966033604739956, 2.478145298019354, 0
3838, -6.076827693591512, 2.585784189725984, 0
3839, -6.1500618227083415, 2.6025816006061695, 0
3840, -6.27007789021115, 2.619779362680194, 0
3841, -6.228086620527642, 2.589648393437858, 0
3842, -6.2497578592480645, 2.7244004897295975, 0
3843, -6.136666475703442, 4.751678101321982, 0
3844, -6.135062468061794, 4.6892061762798, 0
3845, -6.182843338358834, 4.647690493826174, 0
3846, -6.071051908710588, 4.73808938308154, 0
3847, -6.103874868357522, 4.544349867272231, 0
3848, -6.019227915958433, 4.701293748686012, 0
3849, -6.156322297542936, 4.5861142641130765, 0
3850, -6.119553678137726, 4.632269841917981, 0
3851, -6.016851032333928, 4.629725317995834, 0
3852, -6.200371669475873, 4.531587483578997, 0
3853, -6.028418392236669, 4.554476265423843, 0
3854, -6.136576552895733, 4.420419446380428, 0
3855, -6.1842755875521025, 4.466935597521319, 0
3856, -6.230230681246637, 4.413766434020971, 0
3857, -6.122176768578498, 4.4828994850759125, 0
3858, -6.176772390813954, 4.323745493741233, 0
3859, -6.03266033987676, 4.429369240090935, 0
3860, -6.219538032371875, 4.359232805421672, 0
3861, -6.247898520387315, 4.2886961229545175, 0
3862, -6.086063868038908, 4.441677159602032, 0
3863, -6.07841421591891, 4.352856913578988, 0
3864, -6.046240990625056, 4.492455140679699, 0
3865, -5.973968134651701, 4.475008769333749, 0
3866, -5.894519628426375, 4.571510738636882, 0
3867, -5.931028564996419, 4.626198081691636, 0
3868, -2.5768151265635977, 6.019481198720618, 0
3869, 2.355819874075524, -6.00596639086616, 0
3870, 2.495099621250423, -5.8940276421136355, 0
3871, 2.5896272362770274, -6.228061191337532, 0
3872, 2.6197770950810457, -6.270083596098103, 0
3873, 2.7244007000178794, -6.249757197027361, 0
3874, 4.729106130982952, -6.0438883467095605, 0
3875, 5.051102478771423, -6.0554819316811495, 0
3876, 5.091943217198493, -6.007472901675631, 0
3877, 5.136909530027683, -5.966150910399081, 0
3878, 5.0312984535246885, -5.972835119114214, 0
3879, 2.087105268632696, 5.6735814146341195, 0
3880, 2.1396899259819295, 5.696457032653307, 0
3881, 2.3551953940313943, 5.977688512779928, 0
3882, 5.75238576771586, 2.2286885263325495, 0
3883, 6.228086620527642, 2.5896483934378582, 0
3884, 6.270077890211149, 2.6197793626801946, 0
3885, 6.2497578592480645, 2.7244004897295975, 0
3886, -0.5143203837959316, 4.039395850437442, 0
3887, -0.4587527997902176, 4.1325287233692025, 0
3888, -0.5566015355188157, 4.144931883262717, 0
3889, 0.059233603224449025, -3.987671153332778, 0
3890, 0.21811886157934948, -4.008418270311118, 0
3891, 0.15912034544862821, -4.033243743781391, 0
3892, 0.12288321198123639, -3.9589859889765724, 0
3893, -0.02806366351365558, -4.160951915823378, 0
3894, -3.9876711533327787, -0.059233603224448365, 0
3895, -4.008418270311117, -0.2181188615793504, 0
3896, -4.03324374378139, -0.1591203454486291, 0
3897, -3.9589859889765724, -0.12288321198123502, 0
3898, -4.16095191582337, 0.02806366351366299, 0
3899, 3.9968027288652337, -0.307940449831693, 0
3900, 4.0699139312968535, -0.27786025600564884, 0
3901, 4.099663440232429, -0.3215576412896493, 0
3902, 4.163596256080365, 0.20402398972718883, 0
3903, 4.108154879939913, 0.1711202680725529, 0
3904, 4.10054593529423, 0.08270050719142859, 0
3905, 4.069729086882653, 0.23758221750541514, 0
3906, 4.0055000953330175, 0.23760325602670243, 0
3907, 0.052071040813162675, 4.274704233925786, 0
3908, 0.18468422721824856, 3.9502764014190976, 0
3909, 0.09216616471880634, 3.9636825321716564, 0
3910, 0.29833847876621183, 3.9427328361095433, 0
3911, -0.1866241690860972, 4.164275584765044, 0
3912, -6.063068111381539, -4.805398401427812, 0
3913, -6.016616810639336, -4.863239962199398, 0
3914, -5.9566365536282255, -4.883695703136091, 0
3915, -5.935874825416322, -4.803656046465145, 0
3916, -6.0287627332039735, -4.6372188359460935, 0
3917, -6.157012889187152, -4.757297845668215, 0
3918, -4.599226496857416, -6.068989504197241, 0
3919, -4.145261777297511, -6.1494503828595795, 0
3920, -4.468369032724875, -5.917836226878352, 0
3921, -4.530338564776345, -5.962212013185556, 0
3922, -2.741498417743519, -6.015376714656701, 0
3923, -2.861707675144857, -6.055136185494962, 0
3924, -2.798620258764533, -6.2901827895056215, 0
3925, -2.9026276573572076, -6.271992254366897, 0
3926, -2.847481355693096, -6.263119172209835, 0
3927, -2.8867864706434827, -6.194641429285361, 0
3928, -2.708049264793573, -6.30124964720196, 0
3929, -6.259540212812769, 2.6740343826604525, 0
3930, -6.068989504197244, 4.59922649685741, 0
3931, -6.149450382859584, 4.145261777297505, 0
3932, -5.917836226878353, 4.468369032724875, 0
3933, -5.9622120131855585, 4.5303385647763434, 0
3934, 2.6740361813229963, -6.259542075942747, 0
3935, 4.776444683482522, -6.101667311943595, 0
3936, 2.0357499590273145, 5.676101235800371, 0
3937, 2.106021407341953, 5.619917007722909, 0
3938, 2.152313017949686, 5.584164449192293, 0
3939, 5.775997961927189, 2.27526515071217, 0
3940, 6.259540212812769, 2.674034382660452, 0
3941, 0.18205110480550873, -3.890245433086532, 0
3942, 0.21812553065858675, -3.943825661838632, 0
3943, 0.17443787908392355, -3.9761174557419032, 0
3944, -0.060271894583277516, -4.068451235312772, 0
3945, 0.003889282056539139, -4.200620046121728, 0
3946, 0.01985253788215722, -4.149218852939333, 0
3947, -3.8902454330865317, -0.18205110480550918, 0
3948, -3.943825661838631, -0.2181255306585872, 0
3949, -3.976117455741903, -0.17443787908392322, 0
3950, -4.06845123531276, 0.06027189458326836, 0
3951, -4.200620046121721, -0.003889282056531041, 0
3952, -4.149218852939329, -0.01985253788215187, 0
3953, 3.995466261111264, -0.20080205258777933, 0
3954, 0.10447171866527745, 4.2741620991263805, 0
3955, -0.14660764034405868, 4.104001929639457, 0
3956, -0.13691901751021998, 4.050756227615883, 0
3957, -0.03763828978977728, 4.083957526878022, 0
3958, -0.08860421597294321, 4.11310904870283, 0
3959, -0.0200251447982053, 4.173878687476512, 0
3960, -0.15307371830792638, 4.269619250620959, 0
3961, -5.983487600251898, -4.823634686994553, 0
3962, -5.884947062046887, -4.8216253639325695, 0
3963, -5.954664035203882, -4.708362130440893, 0
3964, -6.044074098562168, -4.712281666023185, 0
3965, -6.118700779508839, -4.689235870626501, 0
3966, -4.232527450324519, -6.176021011874099, 0
3967, -2.838894698888288, -6.182250669276843, 0
3968, -2.948280312843792, -6.111579884841079, 0
3969, -6.17602101187409, 4.232527450324521, 0
3970, 4.7953987082356955, -6.037856377132676, 0
3971, 4.814031610601784, -5.978773628358781, 0
3972, 4.746682794566604, -5.9788734723542944, 0
3973, 4.722606278330314, -5.920736062432528, 0
3974, 4.675609246890912, -5.892784587535392, 0
3975, 4.628590409293302, -5.994453088114888, 0
3976, 4.671774539109765, -5.952717841320286, 0
3977, 4.684038724526427, -6.008617070408678, 0
3978, 4.62850996170702, -6.110382893544623, 0
3979, 4.64331417602844, -6.0524282360587325, 0
3980, 4.522144179467888, -6.052344152127796, 0
3981, 4.58271846942035, -6.067817537869787, 0
3982, 4.5291609902504675, -6.151178164889923, 0
3983, 4.575169402600762, -6.121852518509762, 0
3984, 4.757624952157643, -6.158197185745334, 0
3985, 4.696144269066568, -6.125981591458343, 0
3986, -0.02203500521490073, -4.106995064762877, 0
3987, -0.07912844982802558, -4.12539573970426, 0
3988, -0.13879066983807786, -4.12306014524896, 0
3989, -4.10699506476287, 0.022035005214897544, 0
3990, -4.1253957397042536, 0.07912844982803377, 0
3991, -4.12306014524897, 0.1387906698380812, 0
3992, 4.017397148644605, -0.2541060162266997, 0
3993, -0.1942933492693813, 4.224732611224041, 0
3994, -0.13925723063970163, 4.215562080337277, 0
3995, -0.2091063891591619, 4.279704920519203, 0
3996, -0.0547362206713469, 4.265959094700396, 0
3997, -0.16063107840190502, 4.388325435875737, 0
3998, -0.2540333258871158, 5.736006730807, 0
3999, -0.2540333258871158, 5.025341185941501, 0
4000, -0.2540333258871158, 4.670008413508752, 0
4001, -0.2540333258871158, 4.492342027292377, 0
4002, -0.2540333258871158, 4.403508834184189, 0
4003, -0.17148205819799658, 4.328040954481628, 0
4004, -0.08804116395524683, 4.344140715974225, 0
4005, -5.967683055470561, -4.760428408413932, 0
4006, -5.9085237970095115, -4.7502137580758985, 0
4007, -6.000608231157874, -4.682054835974425, 0
4008, -5.956385862928158, -4.6230279335492135, 0
4009, -5.9188498915375405, -4.6649550223255165, 0
4010, -5.920212971909002, -4.577570883431488, 0
4011, -6.020845554949524, -4.523031234169285, 0
4012, -5.979750080909926, -4.5673146387074235, 0
4013, -6.171460041315239, -4.644811813459002, 0
4014, -6.1014825910585335, -4.615245843541016, 0
4015, -4.277955171175958, -6.198406779828403, 0
4016, -4.227463114170896, -6.237863793280825, 0
4017, -4.16077804836268, -6.275007901070501, 0
4018, -2.8958431989298394, -6.137052524468771, 0
4019, -2.915883588150077, -6.066655712314349, 0
4020, -2.9974492190494235, -6.2122755968259975, 0
4021, -6.1984067798283995, 4.277955171175958, 0
4022, -6.2378637932808205, 4.227463114170889, 0
4023, -6.275007901070507, 4.160778048362681, 0
4024, 4.688923674513845, -6.075418395418369, 0
4025, -0.1628087836240766, -4.074874340249341, 0
4026, -4.074874340249344, 0.16280878362407047, 0
4027, -0.21886693719722372, 4.359092237630095, 0
4028, -0.10301964177515872, 4.291575293776705, 0
4029, -0.027394839901567464, 4.323791045972921, 0
4030, -0.05377343779175853, 4.482158652947829, 0
4031, -6.050649440721823, -4.578333055741247, 0
4032, -6.134237576919792, -4.4976027529336475, 0
4033, -6.107476725463259, -4.553533293249683, 0
4034, -6.1744569486276015, -4.551213693760715, 0
4035, -6.192643649137784, -4.495677957202226, 0
4036, -6.159685437094618, -4.3826931588943685, 0
4037, -6.235792305326381, -4.539788969250483, 0
4038, -6.262209711295949, -4.4205440516771235, 0
4039, -6.14833171336156, -4.4404514015923935, 0
4040, -6.0640085752802655, -4.449969969307814, 0
4041, -6.217683506611439, -4.372627054104066, 0
4042, -6.166279099067784, -4.248566639322046, 0
4043, -6.2873863205771485, -4.296351430018545, 0
4044, -6.20675140551131, -4.438967883431234, 0
4045, -4.069343324867794, -6.2225698100439555, 0
4046, -4.1684359433666085, -6.210324044508816, 0
4047, -4.12149906819573, -6.237562443076481, 0
4048, -2.9387988142882495, -6.224287000863097, 0
4049, -2.958063166911753, -6.169155242584032, 0
4050, -3.0447878574439953, -6.124800711094377, 0
4051, -6.2225698100439635, 4.0693433248678055, 0
4052, -6.2103240445088215, 4.168435943366599, 0
4053, -6.237562443076494, 4.1214990681957335, 0
4054, -0.09251321066130462, 4.41851409879989, 0
4055, -0.03600683763980796, 4.387615321389535, 0
4056, -6.150304799160418, -4.597287407557536, 0
4057, -6.075511234339852, -4.506046015735831, 0
4058, -5.990727871297293, -4.455957832487796, 0
4059, -5.963849417873008, -4.508325458254335, 0
4060, -6.001489072860371, -4.3726084532419645, 0
4061, -6.02450716548016, -4.417949685634424, 0
4062, -6.081686416512254, -4.360408522108818, 0
4063, -6.166451716297701, -4.3158004572412745, 0
4064, -6.231240234319809, -4.225938169218458, 0
4065, -6.148274383258592, -4.092320762384702, 0
4066, -6.272604952806027, -4.160352366759476, 0
4067, -6.174784839140014, -4.168426186314039, 0
4068, -0.1532994656698657, 4.4991265788250185, 0
4069, -5.9402670346155055, -4.360411324137691, 0
4070, -6.102308868889983, -4.41100439821587, 0
4071, -6.0311761908952635, -4.298067203194511, 0
4072, -6.102036814803638, -4.282348706588163, 0
4073, -6.050485547165859, -4.217533003441003, 0
4074, -6.2365783167934445, -4.078567103340959, 0
4075, -6.224648563281586, -4.175943639857978, 0
4076, -6.227862567246107, -4.311942956950913, 0
4077, -0.1440566281566164, 4.442871853906655, 0
4078, -5.986788741892751, -4.2522135229277955, 0
4079, -5.982471277945334, -4.130047898937795, 0
4080, -6.116499795606163, -4.202761685772471, 0
4081, -6.2742811672761345, -4.1107864412300925, 0
4082, -6.197474120202011, -4.117852614850835, 0
4083, -6.065841158980941, -4.113242538800941, 0
4084, -6.0739990132673665, -4.16771939608413, 0
4085, -6.072336805333453, -4.018497703840474, 0
4086, -6.124566008066678, -4.143249323657768, 0
4087, -6.0453659788999135, -4.064243687123602, 0
4088, -6.176358107509297, -2.8390190927834418, 0
4089, -6.223119764197457, -3.1505450830911093, 0
4090, -6.223119764197457, 3.15054508309111, 0
4091, -6.196088071589107, 2.9288948128834966, 0
4092, -4.608741308019569, 6.052366980201626, 0
4093, -4.806335568065482, 5.998626818262034, 0
4094, -3.039127225538474, 6.212247171164388, 0
4095, -2.8288226202819806, 6.170886185742146, 0
4096, 2.9288948128834944, -6.196088071589107, 0
4097, 3.1505450830911093, -6.223119764197458, 0
4098, 5.998626818262033, -4.806335568065483, 0
4099, 6.052366980201626, -4.608741308019568, 0
4100, 6.170886185742146, -2.828822620281983, 0
4101, 6.223119764197457, -3.1505450830911124, 0
4102, 2.8288226202819815, 6.170886185742146, 0
4103, 3.0391272255384756, 6.212247171164388, 0
4104, 6.19589052970446, 2.931630719837078, 0
4105, 6.223119764197457, 3.15054508309111, 0
4106, 4.806335568065482, 5.998626818262034, 0
4107, 4.608741308019567, 6.052366980201627, 0
4108, 5.998626818262034, 4.806335568065482, 0
4109, 6.052366980201626, 4.608741308019569, 0
4110, -0.29069617487139676, 4.24707913395674, 0
4111, 4.24707913395674, 0.29069617487139676, 0
4112, -0.49350326456195287, 4.240758575287175, 0
4113, 4.240758575287175, 0.49350326456195287, 0
4114, -0.5759054510434525, 4.246814007678624, 0
4115, 4.246814007678624, 0.5759054510434525, 0
4116, -5.422751764550785, 5.631459866067653, 0
4117, -1.449418517972015, 4.383370879087204, 0
4118, -1.4852213727812336, 4.339195895222997, 0
4119, 1.3368715646752838, 4.246003221696837, 0
4120, 1.315142778286564, 4.295882131444254, 0
4121, 5.631459866067653, 5.422751764550785, 0
4122, -1.0030758668581026, -4.12413790309928, 0
4123, -1.0231432195136574, -4.072749252923659, 0
4124, -1.3336651053596285, 4.378909699066982, 0
4125, -1.3592130022919724, 4.424669531392187, 0
4126, 4.211238587829342, 1.110510403887486, 0
4127, 4.552101785629464, -1.3555836252928664, 0
4128, 4.625591957554903, -1.3834846863166086, 0
4129, 4.60381005232485, -1.3228851198241072, 0
4130, -0.17369879842512964, -4.307002916189414, 0
4131, -0.13953371814272772, -4.2710813103146235, 0
4132, -0.2002463229816368, -4.262498918109764, 0
4133, -0.2540333258871161, -5.629871225540837, 0
4134, -0.031639401861772734, -4.364864474346093, 0
4135, -0.2540333258871159, -4.972273433308419, 0
4136, -0.25403332588711586, -4.64347453719221, 0
4137, -0.11919748672018592, -4.376513532694509, 0
4138, -0.07921232541181662, -4.3421729677013055, 0
4139, -0.12860044416416377, -4.3277643480661725, 0
4140, -0.062087266514767904, -4.470890441274351, 0
4141, -0.04753922743720976, -4.5802382015806185, 0
4142, -0.25403332588711586, -4.479075089134105, 0
4143, -0.1788713924090875, -4.43797522711958, 0
4144, -0.07002525386123554, -4.411225964636071, 0
4145, -0.25403332588711586, -4.396875365105053, 0
4146, -0.11868313399051086, -4.448059881036813, 0
4147, -0.16663902922828713, -4.549621964934343, 0
4148, -0.11208855905008511, -4.513276750144149, 0
4149, -0.1650143495111761, -4.492950483232097, 0
4150, -0.05831160752123998, -4.52602975652901, 0
4151, 0.25403332588711497, -4.403508834184189, 0
4152, 0.01699300624185853, -4.493174354215146, 0
4153, -0.003222086194165825, -4.427464998252943, 0
4154, 0.0776478369545136, -4.438550051959092, 0
4155, 0.029475660815183536, -4.374871717805873, 0
4156, -0.20957421780725408, -4.355775503090527, 0
4157, -0.22768942144444926, -4.43797522711958, 0
4158, 0.030000005757026826, -4.570262976945619, 0
4159, 0.064627881631968, -4.48508040844733, 0
4160, 0.07987355828979938, -4.3868062009102236, 0
4161, -0.16930146991196826, -4.38756687396039, 0
4162, -0.008643785084351027, -4.537141628603161, 0
4163, 0.0181022364664689, -4.7841303399358655, 0
4164, 0.13175439103028658, -4.643185285994535, 0
4165, 0.0042034440653523665, -4.676092501737495, 0
4166, 0.0928612990327667, -4.590001748299687, 0
4167, 0.04572345720939909, -4.630154452923191, 0
4168, -0.009761458130793828, -4.621738194200266, 0
4169, -0.11217562200912128, -4.677021915745289, 0
4170, -0.054101535082397026, -4.662101314585819, 0
4171, -0.06259921466941673, -4.749505096693254, 0
4172, 0.0744408903680186, -4.538699166495832, 0
4173, 0.14177706891780179, -4.350422437156963, 0
4174, 0.20344960282648583, -4.365241460837191, 0
4175, -0.0075307962828157216, -4.732515023037715, 0
4176, 0.07990191219469825, -4.721267028034658, 0
4177, -0.25403332588711586, -4.807873985250314, 0
4178, -0.08839166966201126, -4.920978387066464, 0
4179, 0.14026029814582358, -4.481156819943095, 0
4180, 0.19064840080324844, -4.538558099187835, 0
4181, 0.10376864507595218, -4.315546279714138, 0
4182, 0.15863782009983013, -4.415994044487171, 0
4183, 0.19951170531017687, -4.462694342481716, 0
4184, 0.25403332588711497, -4.5811752204005645, 0
4185, 0.15344830239294202, -4.586507523203677, 0
4186, 0.1974472681677758, -4.635839162606573, 0
4187, 0.17374246117713069, -4.721261474671224, 0
4188, 0.25403332588711497, -4.847674799725127, 0
4189, 0.25403332588711497, -4.758841606616939, 0
4190, 0.08403113265538607, -4.667751205065247, 0
4191, -0.16258317865153718, -4.764695239687703, 0
4192, -0.0530543366032549, -4.838617260037492, 0
4193, 0.1300840558416093, -4.535931503119295, 0
4194, -0.11625174174546518, -4.733005871772983, 0
4195, -0.03278664054923002, -4.791379108632161, 0
4196, -4.307002916189416, 0.17369879842513075, 0
4197, -4.271081310314625, 0.1395337181427302, 0
4198, -4.262498918109767, 0.20024632298163808, 0
4199, -5.629871225540839, 0.25403332588711586, 0
4200, -4.364864474346089, 0.03163940186177584, 0
4201, -4.97227343330842, 0.2540333258871158, 0
4202, -4.64347453719221, 0.2540333258871158, 0
4203, -4.376513532694507, 0.1191974867201863, 0
4204, -4.342172967701304, 0.07921232541181894, 0
4205, -4.3277643480661725, 0.12860044416416513, 0
4206, -4.47089044127435, 0.062087266514766926, 0
4207, -4.580238201580619, 0.04753922743720598, 0
4208, -4.479075089134106, 0.2540333258871158, 0
4209, -4.43797522711958, 0.17887139240908675, 0
4210, -4.4112259646360705, 0.07002525386123608, 0
4211, -4.396875365105053, 0.2540333258871158, 0
4212, -4.448059881036813, 0.11868313399051028, 0
4213, -4.549621964934343, 0.16663902922828647, 0
4214, -4.513276750144149, 0.11208855905008366, 0
4215, -4.492950483232096, 0.16501434951117475, 0
4216, -4.52602975652901, 0.058311607521237464, 0
4217, -4.403508834184189, -0.2540333258871154, 0
4218, -4.493174354215143, -0.016993006241861966, 0
4219, -4.427464998252939, 0.0032220861941638507, 0
4220, -4.43855005195909, -0.07764783695451058, 0
4221, -4.374871717805868, -0.029475660815176642, 0
4222, -4.355775503090527, 0.20957421780725516, 0
4223, -4.43797522711958, 0.227689421444449, 0
4224, -4.570262976945618, -0.030000005757031545, 0
4225, -4.485080408447329, -0.06462788163197156, 0
4226, -4.386806200910219, -0.0798735582897931, 0
4227, -4.38756687396039, 0.16930146991196865, 0
4228, -4.53714162860316, 0.008643785084347221, 0
4229, -4.784130339935868, -0.018102236466477933, 0
4230, -4.643185285994529, -0.13175439103029096, 0
4231, -4.676092501737497, -0.004203444065358934, 0
4232, -4.5900017482996835, -0.09286129903277109, 0
4233, -4.630154452923191, -0.04572345720940503, 0
4234, -4.621738194200267, 0.009761458130789047, 0
4235, -4.6770219157452955, 0.11217562200911996, 0
4236, -4.662101314585822, 0.05410153508239363, 0
4237, -4.74950509669326, 0.06259921466941122, 0
4238, -4.53869916649583, -0.07444089036802133, 0
4239, -4.350422437156964, -0.14177706891779923, 0
4240, -4.365241460837194, -0.20344960282648314, 0
4241, -4.732515023037718, 0.00753079628280974, 0
4242, -4.72126702803466, -0.07990191219469889, 0
4243, -4.807873985250315, 0.2540333258871158, 0
4244, -4.920978387066477, 0.08839166966200004, 0
4245, -4.481156819943083, -0.14026029814582489, 0
4246, -4.538558099187829, -0.1906484008032486, 0
4247, -4.315546279714139, -0.10376864507594878, 0
4248, -4.415994044487165, -0.15863782009982702, 0
4249, -4.462694342481706, -0.19951170531018078, 0
4250, -4.5811752204005645, -0.25403332588711547, 0
4251, -4.5865075232036725, -0.1534483023929455, 0
4252, -4.635839162606568, -0.19744726816777985, 0
4253, -4.721261474671218, -0.17374246117713485, 0
4254, -4.847674799725127, -0.25403332588711547, 0
4255, -4.758841606616939, -0.25403332588711547, 0
4256, -4.667751205065248, -0.0840311326553925, 0
4257, -4.764695239687712, 0.162583178651532, 0
4258, -4.8386172600375, 0.05305433660324585, 0
4259, -4.535931503119287, -0.1300840558416147, 0
4260, -4.73300587177299, 0.11625174174546068, 0
4261, -4.791379108632166, 0.0327866405492222, 0
4262, 0.8261390601685766, 4.158781277135983, 0
4263, 0.9139333161205327, 4.195168217721634, 0
4264, 0.975335487989991, 4.198978880307879, 0
4265, 0.8787574315022927, 4.241114670347747, 0
4266, 4.265391187307195, 1.092878787906778, 0
4267, -1.1188467698285234, 4.318448058108816, 0
4268, -1.109937558043996, 4.368858588614499, 0
4269, -1.1803636109326279, 4.339294130324855, 0
4270, -1.2366769395492574, 4.38705710054603, 0
4271, -1.2869060200436, 4.403637130237062, 0
4272, -1.2794752598793748, 4.341774231037123, 0
4273, -1.2524358679534295, 4.2880195938393175, 0
4274, -1.1306767957065016, 4.252493521778471, 0
4275, -1.0570683318252332, 4.233681032768562, 0
4276, -1.05404722517954, 4.317071809421238, 0
4277, -1.0526014078457953, 4.180834451362512, 0
4278, -1.0045266093660041, 4.236303026217201, 0
4279, -1.0853444667584682, 4.276455542377322, 0
4280, -1.0373469255411072, -4.184498072629215, 0
4281, -0.9879278527740214, -4.25404470446783, 0
4282, 4.350035622802368, -1.329102002209007, 0
4283, 5.624231404206253, -5.587197599798071, 0
4284, 1.6525436914644422, 4.709679544919182, 0
4285, 1.6771448935183513, 4.765041655796186, 0
4286, 1.6192055941878487, 4.75764101995616, 0
4287, 1.704838738839863, 4.694268072444924, 0
4288, -4.136730485525712, -0.745861095600285, 0
4289, 6.003827722828001, -5.032445184817132, 0
4290, 6.204505801368866, -2.6458386263816345, 0
4291, 5.658353061362079, 2.076955682934985, 0
4292, 5.677894056782917, 2.0315875880364542, 0
4293, 5.723061500006485, 2.099149850706901, 0
4294, 5.693835714552834, 2.1439187665582784, 0
4295, 5.614800558909914, 2.110641333645619, 0
4296, 5.616207882468048, 2.0420552799808953, 0
4297, 5.775206375563949, 2.1103023015232756, 0
4298, -1.0046990433338094, -4.3908781782477195, 0
4299, -0.9493486972856406, -4.3736669603948455, 0
4300, -0.9615721786565798, -4.3237248425674775, 0
4301, 0.9458956655414688, -4.230577279724916, 0
4302, 1.4343973020453618, 4.315346118941414, 0
4303, 1.472289967719184, 4.357969698420013, 0
4304, 4.137145169826131, -0.8820502001668815, 0
4305, 4.174980984405684, -0.9472110900534835, 0
4306, 4.42737716010135, -1.3151261861956185, 0
4307, -4.873683446145293, 1.8400020709401177, 0
4308, -4.889681186507053, 1.7894340340940105, 0
4309, -4.835366520244945, 1.885872227170126, 0
4310, -1.172875505184658, -4.482176880049611, 0
4311, -1.2839886696154308, -4.212692086753302, 0
4312, -1.2287784919948732, -4.192590974721016, 0
4313, -3.980610054461712, 0.6692989670542167, 0
4314, 1.463984890974509, -4.494301432888078, 0
4315, -4.249493242389701, -0.7842635998693536, 0
4316, 4.28045370032277, 1.400495071408501, 0
4317, 1.7005922786553176, -4.875932716828327, 0
4318, 5.989624006358454, -5.224440396990767, 0
4319, 5.950165287596573, -5.253799508208309, 0
4320, 5.986440574442536, -5.12570186667014, 0
4321, 6.0334671722429585, -5.144322772568137, 0
4322, 6.020260662651183, -5.0837582134134465, 0
4323, 5.920339831504721, -5.13516871284796, 0
4324, 5.863874967830043, -5.109026554482825, 0
4325, 5.8708171113734275, -5.168082865998619, 0
4326, 5.828258446533946, -5.038370530563858, 0
4327, 5.822868012486317, -5.159900746861312, 0
4328, -4.610249968508357, 1.4516860111947187, 0
4329, -4.6311705506486085, 1.3807901313522, 0
4330, -5.1269439884582955, 5.989577519662644, 0
4331, -5.15135668890105, 6.05123113905326, 0
4332, -5.177108873416326, 5.987015523972615, 0
4333, -5.128929923844511, 5.9275493145036755, 0
4334, -5.06010636884256, 6.015137998021638, 0
4335, -5.079071328796444, 5.964562655598951, 0
4336, -5.0103448671108115, 6.044296087482335, 0
4337, -4.918851412689036, 6.04219770959724, 0
4338, -6.189068212307469, -2.558802434003429, 0
4339, -6.233979120940339, -2.536888800835504, 0
4340, -6.222303154466889, -2.6387657097526604, 0
4341, -6.1214467907046055, -2.5574247114066218, 0
4342, -6.07427829189488, -2.604050653065467, 0
4343, -6.1463299185908475, -2.6297690443218387, 0
4344, -6.227945738833086, -2.589532179077526, 0
4345, -6.270107660761175, -2.619767531447921, 0
4346, -6.249754392500187, -2.7244015905959023, 0
4347, -6.2595499251156985, -2.674043764720733, 0
4348, -6.176451851826027, -2.7006814890895514, 0
4349, -6.194554500052545, -2.7698625899379397, 0
4350, -6.269094619620905, -2.8264476746165674, 0
4351, -6.083149888984544, -2.777522075854486, 0
4352, -6.247341365490508, -2.777714683079007, 0
4353, -6.140146598346098, -2.7925189952263816, 0
4354, -6.089462606873411, -2.8693384051556547, 0
4355, -6.023780204648144, -2.7445874694731476, 0
4356, -6.031764088031538, -2.800174082545145, 0
4357, -6.108307292345402, -2.687773924354455, 0
4358, -6.134259534954296, -2.737096858621916, 0
4359, -6.072790249264895, -2.726218128320085, 0
4360, -6.048965891722533, 2.7632428740490984, 0
4361, -4.875487385116206, 5.895842059335673, 0
4362, -5.173608974988402, 5.881881539154647, 0
4363, -2.7632428740490984, 6.048965891722532, 0
4364, 5.895842059335672, -4.875487385116207, 0
4365, 6.048965891722533, -2.7632428740490993, 0
4366, 2.6098987598157675, 6.160357603753798, 0
4367, 6.1118991125172615, 2.774780578925135, 0
4368, 4.875487385116206, 5.895842059335673, 0
4369, 5.895842059335673, 4.875487385116206, 0
4370, 5.882684845389474, 5.174789612967598, 0
4371, 5.926520916780492, 5.12989971624193, 0
4372, 5.9916874964581845, 5.081519214085309, 0
4373, 6.0155101667389115, 5.13721241959045, 0
4374, 5.9573511816634195, 5.038425215366397, 0
4375, 6.039186975028479, 5.036074267814984, 0
4376, -5.138349819525298, -6.018382639730682, 0
4377, -5.092208549003617, 1.9132494103110256, 0
4378, -6.0183826397306825, 5.138349819525298, 0
4379, -4.184184939663757, 0.7140358431527629, 0
4380, 4.189609955503845, 1.2297696418403743, 0
4381, -4.866220143834218, -1.7041052391382578, 0
4382, -5.882687808646028, -5.174798355009288, 0
4383, -2.526608956374658, -5.989919627905287, 0
4384, -2.47153952488648, -6.026675741272823, 0
4385, -2.4237398004572994, -5.992300500775742, 0
4386, -2.474487609844644, -5.961437206070563, 0
4387, -2.4010630792795227, -6.039827029143569, 0
4388, -2.4370475581068725, -5.924938935023565, 0
4389, -2.4538939406665325, 5.929784616840068, 0
4390, -2.540107540953469, 6.227382472075996, 0
4391, -2.637706752266062, 6.224967775201653, 0
4392, -2.6190112196469753, 6.27201074387098, 0
4393, -2.7244911596566648, 6.249472329773875, 0
4394, -2.626298403838205, 6.163412814700477, 0
4395, -2.7261891127238718, 6.1484869198694225, 0
4396, -2.6738110801470167, 6.139669306149513, 0
4397, -2.674631158658468, 6.26012615977488, 0
4398, 2.0524444202085768, -5.668910579233767, 0
4399, 2.1091171908515647, -5.7230280105094655, 0
4400, 2.1095983139962113, -5.775572588102127, 0
4401, 2.175364780973793, -5.692343622868497, 0
4402, 2.2165020598786906, -5.664868454520595, 0
4403, 2.151749686882325, -5.648943860251536, 0
4404, 2.621732407309973, -6.038197707957041, 0
4405, 2.772889898719409, -6.10625166486066, 0
4406, 5.9393670770845475, -2.455096809590331, 0
4407, 6.004299001707289, -2.506167456138193, 0
4408, 6.000340522298302, -2.4443873257955495, 0
4409, 5.9686628366151835, -2.5439756726290517, 0
4410, 6.073308544977977, -2.5160471327573277, 0
4411, 6.123726685607164, -2.5678487991976366, 0
4412, 6.155346024954534, -2.615927596210739, 0
4413, 6.197772163307835, -2.5535890327797466, 0
4414, 5.925833072123678, -2.5701783563634444, 0
4415, 6.228012485635893, -2.59775223346333, 0
4416, 5.738364208251139, -2.1134711557035093, 0
4417, 5.759272297457904, -2.0686244632584936, 0
4418, 5.701611156301621, -2.0763576809543935, 0
4419, 5.692113023104271, -2.1353582406202536, 0
4420, 2.0646463773826347, 5.401401992249658, 0
4421, 2.6140829361980877, 6.040792520734262, 0
4422, 2.6802217911610895, 6.102962801989441, 0
4423, 2.593817980027074, 6.099939103291131, 0
4424, 2.5521864608251086, 6.14336885760226, 0
4425, 2.5646586162610907, 6.207521132407794, 0
4426, 2.6376613118887438, 6.23226732828011, 0
4427, 2.6800851523862064, 6.174574464097939, 0
4428, 2.753615205985051, 6.1389088018523434, 0
4429, 2.7240557004223676, 6.251352138240338, 0
4430, 2.7491811451725234, 6.055062942236267, 0
4431, 2.676222846226245, 6.262794747304232, 0
4432, 2.734978880713839, 6.194116640506689, 0
4433, 2.699313621555475, 6.056859655643903, 0
4434, 2.817324702056128, 6.093499447921543, 0
4435, 2.8043763337580083, 6.036831789233119, 0
4436, 2.8691373604790527, 6.051847272239674, 0
4437, 2.9511681121667297, 6.104825963531974, 0
4438, 2.919742062010809, 6.063488769153249, 0
4439, 2.882668945394288, 6.124287325846638, 0
4440, 2.9418197516371647, 6.202202770881127, 0
4441, 2.8863251205202505, 6.182922061470164, 0
4442, 2.885003308971826, 6.276230524609965, 0
4443, 5.0446049583829655, 6.037493027395497, 0
4444, 5.055863571479663, 5.974316288295981, 0
4445, 5.092284703761312, 6.020183667906769, 0
4446, 5.014414999314725, 5.93869062263192, 0
4447, 4.947202627159278, 6.056834304295464, 0
4448, 4.967291598691737, 6.117714714564437, 0
4449, 4.86000239481387, 6.068307405854535, 0
4450, 4.905695674945667, 5.978854720136543, 0
4451, 4.954292395409901, 5.943173089440767, 0
4452, 4.906623287010751, 6.085529979930248, 0
4453, 4.861024969454673, 6.126521098958891, 0
4454, 4.767062396416377, 6.084381301618804, 0
4455, 4.946866032570799, 6.006977019978483, 0
4456, 4.8606969200898105, 6.012265552695487, 0
4457, 4.847079821419965, 5.95138439505292, 0
4458, 4.768134885103919, 5.92448945542104, 0
4459, 4.809296665916788, 6.051853171440303, 0
4460, 4.704838891519051, 6.0040144119559935, 0
4461, 4.770416983516313, 5.870459709923849, 0
4462, 4.754375337333061, 5.97848981829541, 0
4463, 4.692631840923975, 5.929346554056101, 0
4464, 4.631381058737395, 5.9776918801772005, 0
4465, 4.669836441873713, 5.87031723925957, 0
4466, 4.6555872473653634, 6.0258001051853025, 0
4467, 4.673946549666705, 6.112759117160995, 0
4468, 4.543979744744159, 5.9919633103667245, 0
4469, 4.642334262583192, 5.928595673252005, 0
4470, 4.591182308697402, 6.006274028140041, 0
4471, 6.056834304295464, 4.947202627159278, 0
4472, 6.117714714564437, 4.967291598691737, 0
4473, 5.978854720136543, 4.905695674945667, 0
4474, 6.068307405854535, 4.86000239481387, 0
4475, 6.006977019978483, 4.946866032570799, 0
4476, 5.943212441670906, 4.954353501753498, 0
4477, 5.952551187780354, 4.848814099915039, 0
4478, 5.922988056862891, 4.770519619211175, 0
4479, 6.085529979930248, 4.906623287010751, 0
4480, 6.012265552695487, 4.8606969200898105, 0
4481, 6.084381301618803, 4.767062396416378, 0
4482, 6.126521098958891, 4.8610249694546726, 0
4483, 5.869424327258733, 4.770126819524319, 0
4484, 5.936903340014737, 4.686945206637417, 0
4485, 6.051853171440302, 4.809296665916789, 0
4486, 5.9062104394327966, 4.724780451557416, 0
4487, 5.87031723925957, 4.669836441873713, 0
4488, 5.966845913090072, 4.6068140033466305, 0
4489, 5.984752853725299, 4.737857898357838, 0
4490, 5.92903621184447, 4.6383455898614185, 0
4491, 5.918073994468391, 4.577066374821651, 0
4492, 6.0117886967232, 4.510943793377995, 0
4493, 5.968560207709247, 4.549148224689028, 0
4494, 6.008251496130301, 4.667901421063862, 0
4495, 6.090734571986459, 4.683380319207113, 0
4496, 6.041542209144287, 4.718008775682695, 0
4497, 6.13785020445561, 4.611980118244095, 0
4498, 6.134099053558274, 4.728754830065569, 0
4499, 6.094197040002464, 4.634419681244817, 0
4500, 6.0980599184594535, 4.5324651724859635, 0
4501, 6.187210899379669, 4.64879499036307, 0
4502, 6.096139968181887, 4.5831391943508155, 0
4503, 6.170397649866586, 4.545979709885676, 0
4504, 6.235792305326381, 4.539788969250484, 0
4505, -4.9564116716690245, -6.0847426721794395, 0
4506, -6.08474267217944, 4.9564116716690245, 0
4507, -1.839408270928461, 5.029225680103652, 0
4508, -1.7835700461695572, 5.022671408567222, 0
4509, -1.8422939120353834, 4.979636198172155, 0
4510, -1.82168830888011, 5.103256344007013, 0
4511, -1.802764689549231, 5.157834950561489, 0
4512, -1.8660712098851318, 5.130536860415891, 0
4513, 6.037706079097752, -2.60998732777543, 0
4514, 6.07088302836177, -2.5688444846775536, 0
4515, 5.5709713118413084, -2.2231475718731297, 0
4516, 4.263212952001102, -0.10244049410183606, 0
4517, 0.12892059612249446, 4.063268734301631, 0
4518, 0.07116436399234972, 4.028009306849075, 0
4519, 0.12067008761569846, 4.008580453918279, 0
4520, 0.01788896968497032, 4.058173020983594, 0
4521, -0.1100688837239032, 3.8903572461617144, 0
4522, -0.15774035680196752, 3.964824028492343, 0
4523, 0.04565028295723209, 3.9409860641773937, 0
4524, -0.038086662642296945, 3.890469059236897, 0
4525, 4.8220526909624075, -5.884518247012712, 0
4526, 6.026598769370065, 2.6170873414844174, 0
4527, -4.251734374132099, -0.07563482550048346, 0
4528, 0.07563482550048561, -4.2517343741321, 0
4529, -4.78219843109302, -6.029203042589178, 0
4530, -4.369915186643327, -5.987970541630947, 0
4531, -4.379831332566304, -6.036671280614622, 0
4532, -4.307283101411575, -6.022988206069989, 0
4533, -4.270414002895476, -6.099753119217682, 0
4534, -4.252556865484938, -5.988662808603577, 0
4535, -4.2022085871908565, -6.0537363808920865, 0
4536, -4.320217667044153, -6.122241054535664, 0
4537, -4.25700303881326, -6.046075714463812, 0
4538, -4.209220184463899, -6.1168988445473005, 0
4539, -4.136695992138349, -6.021932246257137, 0
4540, -4.14639599827099, -6.085327430391645, 0
4541, -4.039398183208065, -6.115506336770258, 0
4542, -4.0799916301730965, -6.060343272464046, 0
4543, -4.097442678845319, -6.116533040654171, 0
4544, -4.0675478211536715, -6.165352510727556, 0
4545, -3.9522231476723158, -6.197608270592854, 0
4546, -4.00591553743091, -6.167286558570711, 0
4547, -3.935478022054874, -6.105257770128542, 0
4548, -4.007738283140052, -6.04969091625169, 0
4549, -3.9885151745136227, -6.099460576575617, 0
4550, -4.112648665014045, -6.1879153199104495, 0
4551, -5.9915190552324535, 2.5362489905264667, 0
4552, -6.022443175282801, 2.581218130274688, 0
4553, -6.300622967198585, 2.708248267122008, 0
4554, -6.1607900483057, 2.7057487691598485, 0
4555, -6.170140037496629, 2.6526350837101256, 0
4556, -6.271942502224117, 2.8154511744990116, 0
4557, -6.029203042589178, 4.78219843109302, 0
4558, -5.987970541630946, 4.369915186643327, 0
4559, -6.036671280614619, 4.379831332566304, 0
4560, -6.022988206069991, 4.307283101411576, 0
4561, -6.099753119217684, 4.270414002895489, 0
4562, -5.9886628086035785, 4.252556865484939, 0
4563, -6.053736380892097, 4.202208587190854, 0
4564, -6.122241054535667, 4.320217667044167, 0
4565, -6.046075714463815, 4.257003038813259, 0
4566, -6.116898844547296, 4.2092201844639225, 0
4567, -6.02193224625714, 4.136695992138348, 0
4568, -6.08532743039165, 4.146395998270983, 0
4569, -6.115506336770264, 4.039398183208048, 0
4570, -6.060343272464052, 4.079991630173091, 0
4571, -6.116533040654176, 4.097442678845307, 0
4572, -6.165352510727562, 4.067547821153659, 0
4573, -6.197608270592912, 3.9522231476722247, 0
4574, -6.167286558570744, 4.005915537430855, 0
4575, -6.105257770128567, 3.9354780220547814, 0
4576, -6.049690916251691, 4.007738283140049, 0
4577, -6.099460576575636, 3.988515174513565, 0
4578, -6.18791531991046, 4.112648665014036, 0
4579, 2.708248415252838, -6.300622500718466, 0
4580, 2.8154511609597153, -6.2719425571354295, 0
4581, 6.300622967198585, 2.708248267122008, 0
4582, 6.271942502224117, 2.815451174499011, 0
4583, -0.05434488153603831, -4.209903970117039, 0
4584, -4.2099039701170335, 0.05434488153604488, 0
4585, 4.158639245614857, 0.08496860253004487, 0
4586, 4.317892190294035, 0.0883695023351265, 0
4587, 4.23789203952294, 0.10416718351295669, 0
4588, 4.238101272416382, 0.1818901551190765, 0
4589, 4.261848938435661, 0.01502499320543993, 0
4590, 4.287099803486627, 0.14289648196625646, 0
4591, 5.736006730807, 0.2540333258871154, 0
4592, 4.292886674665446, 0.20045016445610273, 0
4593, 4.557312310444582, -0.10863594604359067, 0
4594, 4.271815019483544, 0.06549366499674417, 0
4595, 4.0622300758806515, 0.13053504426356768, 0
4596, 4.022522650265752, -0.024145474912360715, 0
4597, 0.07508430093214671, 4.3308822691775735, 0
4598, 0.25403332588711586, 5.629871225540839, 0
4599, 0.01693882441142032, 4.430579729544964, 0
4600, 0.2540333258871158, 4.97227343330842, 0
4601, 0.1313268042466097, 4.591827944831399, 0
4602, 0.17156363173336525, 4.448461268073291, 0
4603, 0.09572623170946826, 4.533977345196522, 0
4604, 0.0906122953789806, 4.414032535360685, 0
4605, 0.2540333258871158, 4.64347453719221, 0
4606, 0.0403679314118843, 4.494613005607883, 0
4607, 0.2540333258871158, 4.479075089134106, 0
4608, 0.10587777952091554, 3.8906926853872625, 0
4609, 0.13509007855371208, 3.9339632358543226, 0
4610, -2.903409140930092, -6.335308264296137, 0
4611, 0.0038501347642908787, -4.034525077766418, 0
4612, 0.05504244863979571, -4.0523480548699595, 0
4613, -0.0105247225505984, -3.9613734921755865, 0
4614, 0.03808666264229642, -3.8904690592368967, 0
4615, 0.0732118247915621, -3.933728727853172, 0
4616, -0.10587777952091593, -3.890692685387262, 0
4617, -0.08612847051328024, -4.011946902722534, 0
4618, -4.03452507776642, -0.003850134764300666, 0
4619, -4.052348054869962, -0.05504244863980174, 0
4620, -3.96137349217559, 0.01052472255060221, 0
4621, -3.8904690592368967, -0.03808666264229678, 0
4622, -3.9337287278531727, -0.07321182479156085, 0
4623, -3.890692685387262, 0.10587777952091562, 0
4624, -4.011946902722527, 0.0861284705132779, 0
4625, 0.010897838575096665, 4.121136152147821, 0
4626, 0.07059019641153069, 4.177504917105405, 0
4627, 0.1336559240726081, 4.153757357663585, 0
4628, 4.582500231650299, -5.941112049608289, 0
4629, 4.520351976065153, -5.979380619377422, 0
4630, 4.473687779766547, -5.9423793535798906, 0
4631, 4.423344741854976, -6.030221847638237, 0
4632, 4.478199658479665, -6.016919784162747, 0
4633, 4.571304484755989, -6.009657621040003, 0
4634, 4.539788969250483, -6.235792305326382, 0
4635, -0.06846563552706825, 4.20820095686752, 0
4636, 0.001592195667066143, 4.234610295915888, 0
4637, -3.0007437412188014, -6.087461237346473, 0
4638, -3.0609501038116855, -6.068801571262447, 0
4639, -3.157049921831353, -6.155236010856829, 0
4640, -3.1082983310037036, -6.11279893720643, 0
4641, -3.16377543186021, -6.085049357179413, 0
4642, -0.074546759634237, 4.660682780174282, 0
4643, -0.2540333258871158, 4.5811752204005645, 0
4644, -6.296415026265379, -4.02704485943369, 0
4645, -6.186762438197764, -3.9602045379521327, 0
4646, -6.266179147125867, -3.953283740195876, 0
4647, -6.2307911011441535, -4.0113383806066265, 0
4648, -6.186748997759753, -4.048993084722724, 0
4649, -6.128854169853782, -4.036329369319437, 0
4650, -6.213661814814936, -3.809760091691236, 0
4651, -6.3159901164651675, -3.8882746931213097, 0
4652, -6.2205337243451915, -3.888615804307775, 0
4653, -6.289779600103633, -3.816495250178586, 0
4654, -6.113935441978, -3.882089109443458, 0
4655, -6.268315120914916, -3.9033328540462686, 0
4656, -6.2619755620954916, -3.697231834952468, 0
4657, -6.33432415090321, -3.747668771399449, 0
4658, -6.16593254304802, -3.9066182342048474, 0
4659, -6.1134976552872375, -3.9578421713476963, 0
4660, -6.163181398629933, -3.8450735716478843, 0
4661, -6.100597637883658, -3.813077818055515, 0
4662, -6.06085777877479, -3.966414390819968, 0
4663, -6.063299975751478, -3.753868483391805, 0
4664, -6.153754717257258, -3.6943893199109286, 0
4665, -6.098370479164036, -3.70868253764738, 0
4666, -6.050999875621238, -3.623906658579232, 0
4667, -6.256295197151028, -3.761428809680868, 0
4668, -6.19206163414843, -3.7477371597249096, 0
4669, -6.1524156004738755, -3.7889266352327873, 0
4670, -6.322474126404375, -3.687558679588622, 0
4671, -6.272995142900114, -3.5721274356556014, 0
4672, -6.346268704920034, -3.6101910140088016, 0
4673, -6.283218231925888, -3.6360654357804494, 0
4674, -6.2092093223143365, -3.6446345665500584, 0
4675, -6.134651854066968, -3.599562878710058, 0
4676, -6.332075410482024, -3.5479548211365426, 0
4677, -6.243226566976345, -3.415084758983859, 0
4678, -6.362148167309592, -3.478986402184394, 0
4679, -6.274112434236138, -3.4905728821560222, 0
4680, -6.209029113686247, -3.697581865303154, 0
4681, -6.158651128810576, -3.6440655696358086, 0
4682, -6.131780729010289, -3.5052732599058056, 0
4683, -6.201359060204971, -3.5734182211239904, 0
4684, -6.1543985809058785, -3.551773067211928, 0
4685, -6.203092643058784, -3.4993372641588962, 0
4686, -6.3231764396703465, -3.408905210655246, 0
4687, -6.101590681013038, -3.651260487477935, 0
4688, -6.314795624969246, -3.4594422981578115, 0
4689, -6.273547463151247, -3.287092768395708, 0
4690, -6.368294641446999, -3.3528040810317594, 0
4691, -6.3026895975662605, -3.3462358145537867, 0
4692, -6.339215249799626, -3.2914869027056244, 0
4693, -6.31228201589665, -3.2011079055894993, 0
4694, -0.20789819525282216, 4.447925430738283, 0
4695, -6.00224471353801, -4.007642182325081, 0
4696, -6.129559262516549, -3.1595103501239543, 0
4697, -6.129559262516549, 3.159510350123955, 0
4698, -6.290784579539211, 2.911559654169645, 0
4699, -6.10288365648626, 2.95158482325834, 0
4700, -4.588230693913989, 5.96540763003505, 0
4701, -4.782945517637431, 5.915164867718193, 0
4702, -4.768988581424254, 5.865362789541789, 0
4703, -4.691308631470315, 5.953885480430706, 0
4704, -4.837442611360481, 5.944900645965272, 0
4705, -4.870527111981915, 5.9999247754157095, 0
4706, -4.83680009847593, 6.079950195955479, 0
4707, -4.824470273559108, 5.88277280502521, 0
4708, -4.727756936432727, 5.912349639643917, 0
4709, -4.751333851827497, 5.969798605631618, 0
4710, -4.6994016808955745, 6.044523882565489, 0
4711, -4.867837497459251, 6.1490953072874746, 0
4712, -4.756888695436233, 6.105722731111297, 0
4713, -4.8046302712884135, 6.116977671917654, 0
4714, -4.784101056284565, 6.053323927171833, 0
4715, -4.679237787519614, 6.121064374667384, 0
4716, -4.763435692141547, 6.179235103322145, 0
4717, -4.7446948666789135, 6.020593088294844, 0
4718, -4.724309096841938, 6.145006615594032, 0
4719, -4.656290269317577, 6.074092817845913, 0
4720, -4.602182030747824, 6.129618072635852, 0
4721, -4.456393650938131, 6.078335378998246, 0
4722, -4.535931861719798, 6.085088852143751, 0
4723, -4.550526887355758, 6.020199152208237, 0
4724, -4.489446018917231, 6.160817675704181, 0
4725, -4.49365318884777, 6.111268242172748, 0
4726, -4.545170289286128, 6.142891813225725, 0
4727, -3.053360871958047, 6.118686921050441, 0
4728, -2.8548689510168437, 6.079207372932801, 0
4729, -2.917416170366059, 6.258792277552932, 0
4730, 2.9115596541696434, -6.29078457953921, 0
4731, 2.9515848232583397, -6.102883656486261, 0
4732, 3.1595103501239543, -6.12955926251655, 0
4733, 5.970216474102433, -4.695504749367571, 0
4734, 5.915164867718192, -4.782945517637433, 0
4735, 5.865362789541788, -4.768988581424256, 0
4736, 5.882772805025209, -4.824470273559109, 0
4737, 5.944900645965271, -4.837442611360482, 0
4738, 5.979350316313362, -4.932518140695117, 0
4739, 6.0002870986134, -4.871152894328434, 0
4740, 6.056435391279754, -4.924564001290357, 0
4741, 6.07995768563522, -4.83668222427161, 0
4742, 5.967966262506446, -4.755138327624777, 0
4743, 6.069502857187818, -4.72911046250944, 0
4744, 5.917415079314179, -4.723311939380228, 0
4745, 5.9206965741396225, -4.6655086859955075, 0
4746, 5.98037902673416, -4.6228538578911476, 0
4747, 5.999750087419492, -4.531004280690699, 0
4748, 6.009559207340813, -4.581040487816878, 0
4749, 5.947632480151217, -4.568912485355745, 0
4750, 6.02267311878502, -4.974867526470039, 0
4751, 6.097990910069063, -4.9607832498605005, 0
4752, 6.04951331170152, -4.875622390513271, 0
4753, 6.130526451784242, -4.862233719630705, 0
4754, 6.052908245987123, -4.7850172116225735, 0
4755, 6.116532344415633, -4.773486301804689, 0
4756, 6.179235103322144, -4.763435692141549, 0
4757, 6.130520437349934, -4.711552899018909, 0
4758, 6.1605741600399, -4.642058922746702, 0
4759, 6.084264180626527, -4.665604707473264, 0
4760, 6.023400373441352, -4.665907995160345, 0
4761, 6.133271476225275, -4.538357555751221, 0
4762, 6.1664872807532, -4.585057272078423, 0
4763, 6.208075640576786, -4.533371302730759, 0
4764, 6.1082661896876065, -4.591305356980131, 0
4765, 6.066267819681227, -4.539092645274199, 0
4766, 6.098009343797303, -4.378272786350534, 0
4767, 6.043228647107482, -4.4510029389692845, 0
4768, 6.079207372932801, -2.854868951016845, 0
4769, 6.258792277552933, -2.9174161703660597, 0
4770, 6.267612172768412, -2.816518889067496, 0
4771, 6.129559262516549, -3.1595103501239565, 0
4772, 3.0533608719580485, 6.1186869210504415, 0
4773, 6.102462593219638, 2.9516751600224778, 0
4774, 6.290397618280149, 2.911630491362981, 0
4775, 6.129559262516549, 3.159510350123955, 0
4776, -0.008034189683347522, -4.308790036237443, 0
4777, 0.22588238884653186, -4.714425010062845, 0
4778, 0.18430402086876452, -4.8032582031710325, 0
4779, 0.23331505020565904, -4.8032582031710325, 0
4780, 0.2050631708793621, -4.758905774941062, 0
4781, 0.12682501063294785, -4.768983213574581, 0
4782, 0.08928208834944426, -4.897276054236279, 0
4783, 0.12463877408001861, -4.8379830442327805, 0
4784, 0.07599542040866672, -4.801907245427608, 0
4785, 0.25403332588711497, -4.936507992833314, 0
4786, 0.17646192576639988, -4.858405398446432, 0
4787, -0.25403332588711586, -4.725674261221262, 0
4788, -0.16169411970577352, -4.622849532259965, 0
4789, -0.09937044311949428, -4.615598412096795, 0
4790, -0.25403332588711586, -4.561274813163157, 0
4791, -0.11649340491181079, -4.565775485276106, 0
4792, -0.20585573248088504, -4.589050933123653, 0
4793, -0.18473647396930298, -4.693630747579206, 0
4794, -0.21503941374213117, -4.520174951148632, 0
4795, -0.21752024892399716, -4.766774123235788, 0
4796, -0.20453998106311141, -4.648042597141274, 0
4797, -0.1713311713404579, -4.864599983868198, 0
4798, -0.10618887437514017, -4.7992412830577305, 0
4799, -0.1102826369316739, -4.860303730247203, 0
4800, -4.308790036237439, 0.008034189683351456, 0
4801, -4.714425010062845, -0.22588238884653528, 0
4802, -4.8032582031710325, -0.1843040208687592, 0
4803, -4.8032582031710325, -0.23331505020565543, 0
4804, -4.758905774941062, -0.205063170879361, 0
4805, -4.76898321357457, -0.12682501063295432, 0
4806, -4.8972760542361975, -0.08928208834945632, 0
4807, -4.837983044232736, -0.12463877408002666, 0
4808, -4.801907245427581, -0.07599542040867444, 0
4809, -4.936507992833314, -0.25403332588711547, 0
4810, -4.858405398446402, -0.17646192576637415, 0
4811, -4.725674261221263, 0.2540333258871158, 0
4812, -4.622849532259969, 0.16169411970577524, 0
4813, -4.615598412096799, 0.09937044311949286, 0
4814, -4.561274813163158, 0.2540333258871158, 0
4815, -4.565775485276108, 0.11649340491180893, 0
4816, -4.589050933123654, 0.2058557324808844, 0
4817, -4.693630747579213, 0.18473647396930526, 0
4818, -4.520174951148633, 0.21503941374213106, 0
4819, -4.766774123235789, 0.21752024892399419, 0
4820, -4.648042597141281, 0.20453998106311178, 0
4821, -4.864599983868214, 0.17133117134045867, 0
4822, -4.7992412830577384, 0.10618887437513314, 0
4823, -4.8603037302472165, 0.11028263693166893, 0
4824, 0.8861959645063725, 4.137984507546006, 0
4825, 0.9414837914552795, 4.13526549306923, 0
4826, 5.940173984142567, -5.006516465732495, 0
4827, 6.249090530077745, -2.724612400207052, 0
4828, 5.881452475813137, -5.022203386747368, 0
4829, -4.592276279700497, 1.325080649071951, 0
4830, -4.545286980865598, 1.3450588736667548, 0
4831, -4.581483467723199, 1.379137485536882, 0
4832, -4.957479098763364, 6.08797755154251, 0
4833, -6.300620525186843, -2.7082490425832, 0
4834, -6.3216948486749835, -2.80318390807847, 0
4835, -6.299593983088082, -2.9099470032704735, 0
4836, -6.090224884340656, -2.954300691880081, 0
4837, -6.039877549731042, -2.965102430364808, 0
4838, -6.06162705844821, -2.912072707250415, 0
4839, -6.152825047909766, -2.9112544833642096, 0
4840, -6.130971281869923, -3.05149200939962, 0
4841, -6.226072016844519, -2.8951660677210547, 0
4842, -6.089192273458106, -3.011870502360189, 0
4843, -6.156506548470497, -2.983649728333766, 0
4844, -6.231313624192837, -3.0505332561453544, 0
4845, -6.180956771547323, -3.031579358409799, 0
4846, -6.178953162081352, -3.099243881042967, 0
4847, -6.248837827428714, -2.9721700318432065, 0
4848, -6.1986074976445735, -2.945217547609023, 0
4849, -6.317039914035005, -2.975990633612279, 0
4850, -6.386470550941998, -3.002956035333071, 0
4851, -6.078884731485153, 2.7014509557216484, 0
4852, -5.998825957020455, 2.7813993285239236, 0
4853, -6.080580373845169, 2.854478875766446, 0
4854, -4.928727908760247, 5.949743525519771, 0
4855, -4.943633557696255, 5.998090458563358, 0
4856, -2.781399328523924, 5.998825957020455, 0
4857, 5.998825957020455, -2.7813993285239245, 0
4858, 6.145277778468444, -2.7291055378889837, 0
4859, 6.078884731485153, -2.7014509557216493, 0
4860, 6.032862809978804, 2.7690740517784205, 0
4861, 6.076675854219351, 2.712442369162252, 0
4862, 6.163955966146331, 2.7042463563502595, 0
4863, 6.118038572024646, 2.684092774343415, 0
4864, 6.170474351574954, 2.651355482552641, 0
4865, 6.191630174453459, 2.779147989915958, 0
4866, 6.242094243836238, 2.774495745727347, 0
4867, 6.205678830450104, 2.855056353546212, 0
4868, 6.258336303119689, 2.8679222285534096, 0
4869, 6.1370645475022965, 2.8851983589852166, 0
4870, 6.071274238238273, 2.893197493667851, 0
4871, 6.023567795010165, 2.8706763857349933, 0
4872, 6.073057053947668, 2.827632144270801, 0
4873, 6.149168286041543, 2.824363152215786, 0
4874, 4.860043336177575, 5.845396994333183, 0
4875, 5.845396994333183, 4.860043336177575, 0
4876, 4.153545971081844, 1.1854790833154198, 0
4877, -2.815445494314732, 6.271965539344733, 0
4878, -2.692054596991556, 6.198419966912357, 0
4879, -2.768770972664208, 6.199709864190604, 0
4880, -2.787346117163576, 6.114598492942925, 0
4881, -2.7018420887082923, 6.0778666250760045, 0
4882, 2.770196754990286, -6.029762410293895, 0
4883, 2.7144913466565983, -6.070015805783678, 0
4884, 2.704952892134798, -6.1632411686214885, 0
4885, 2.6876779677249916, -6.114373015818165, 0
4886, 2.6501016970358884, -6.168355997344626, 0
4887, 2.8565603568501587, -6.073253901775743, 0
4888, 2.8210819694752787, -6.036211036562417, 0
4889, 2.9955317285525105, 6.1582220898680795, 0
4890, 2.9819802053280107, 6.289505636451595, 0
4891, 2.903229004444099, 6.336292293139456, 0
4892, 2.8103160185386717, 6.292769151753, 0
4893, 2.7598431240028543, 6.287353555914875, 0
4894, 2.8365675595028272, 6.234408666486839, 0
4895, 2.7786910430215643, 6.2321190157841535, 0
4896, 4.75469958685787, 6.147605833485691, 0
4897, 4.645458922684435, 6.1740189348335175, 0
4898, 4.556780359270348, 6.134417225676242, 0
4899, 4.615197982363824, 6.122692999242749, 0
4900, 4.5937739053615125, 6.170667099640605, 0
4901, 4.5319482845397046, 6.201929899283937, 0
4902, 4.404652977968126, 6.116785840027865, 0
4903, 4.478586666231836, 6.143979650818783, 0
4904, 4.416624191765647, 6.198340088927045, 0
4905, 4.470956185751894, 6.050623950978971, 0
4906, 4.470194161437027, 6.1969075239691405, 0
4907, 4.420544051677124, 6.262209711295949, 0
4908, 4.512185930389236, 6.09424370540004, 0
4909, 4.453137036775975, 6.099070099833924, 0
4910, 4.7100463507046975, 6.064254075529667, 0
4911, 4.478300173174975, 5.963663042188013, 0
4912, 4.578165245483615, 5.937010403446644, 0
4913, 6.046949652243568, 4.553671916632448, 0
4914, 6.091327162095688, 4.375778949209309, 0
4915, 6.150576328384474, 4.451720795507368, 0
4916, 6.141005995430616, 4.502946831161961, 0
4917, 4.263870109051226, -0.18674908764344111, 0
4918, 4.182754278967674, -0.1775993075193783, 0
4919, 4.26427944081796, -0.2392634531802259, 0
4920, 4.254059419641291, -0.290339074804961, 0
4921, 4.350666838450398, -0.042684313209511576, 0
4922, 4.227519439777989, -0.1448755709200921, 0
4923, 4.1765880453945465, -0.06580651109412974, 0
4924, 5.629871225540839, -0.2540333258871165, 0
4925, 4.173863079475712, -0.12202326979257003, 0
4926, 4.117665738276533, -0.1251229859022264, 0
4927, 4.098866147246381, -0.047524704461066124, 0
4928, 4.054185054713948, -0.15911799202695331, 0
4929, 4.053073028765945, -0.21330512060880175, 0
4930, 3.973004607563016, -0.10696162630629275, 0
4931, 4.00310638535889, -0.14936488677777743, 0
4932, 4.040705949417064, -0.09107996896379414, 0
4933, 4.320282827441263, -0.14415251160151654, 0
4934, 4.3175160804635, -0.08804077742449853, 0
4935, 4.97227343330842, -0.2540333258871163, 0
4936, 4.64347453719221, -0.2540333258871162, 0
4937, 4.27665589937475, -0.043543730960243124, 0
4938, 4.220379279876691, -0.02661515553443558, 0
4939, 4.14619579113404, -0.020662435391000024, 0
4940, 4.093150799407778, 0.01767245808650808, 0
4941, 4.043171123666282, 0.05629077942354911, 0
4942, -0.21866238487866158, 3.9439494132283412, 0
4943, 4.479075089134106, -0.2540333258871162, 0
4944, 4.430295916649775, 0.0638715547052576, 0
4945, -4.003523603188363, -6.244151423152106, 0
4946, 4.670008413508752, 0.2540333258871157, 0
4947, 4.39707932112067, 0.10815157125781741, 0
4948, -3.8624313370747707, -6.184632757126093, 0
4949, 4.407483939322746, -0.05483915709749657, 0
4950, -0.0677163156569815, 4.008860276360169, 0
4951, -0.07416154618216841, 3.9443439343163327, 0
4952, -0.016923811825104093, 4.019646515306872, 0
4953, -0.08454116134162151, 4.059171046133568, 0
4954, -0.11970056800573103, 4.001095602951424, 0
4955, -0.18205110480550946, 3.8902454330865317, 0
4956, -3.807881863834167, -6.176087064488597, 0
4957, -3.884924936217345, -6.0527898010534535, 0
4958, -3.862807137960266, -6.124688411836521, 0
4959, -3.9105076985431992, -6.157478800481823, 0
4960, -3.872282335315569, -6.238961678771398, 0
4961, -3.790134383910254, -6.102075614387819, 0
4962, -3.6885695062078674, -6.165563824880039, 0
4963, -3.7508582695027965, -6.038084132497715, 0
4964, -3.749988746347886, -6.150835877652377, 0
4965, -3.741255916769639, -6.249848588992896, 0
4966, -3.7065924955200376, -6.105293413658936, 0
4967, -3.623906658579233, -6.050999875621237, 0
4968, -3.6000103078613086, -6.140018256341721, 0
4969, -6.325885039996914, 2.8021507468917934, 0
4970, -6.285744861329822, 2.763860203916412, 0
4971, -6.190163945076934, 2.7871486449398293, 0
4972, -6.200596898466517, 2.737383958552646, 0
4973, -6.121110411962764, 2.766067391136502, 0
4974, -6.083562360678284, 2.8023501587629878, 0
4975, -6.211691046938056, 2.8572458233687117, 0
4976, -6.239900552451136, 2.9009124194983875, 0
4977, -6.146493383623764, 2.8389141507016777, 0
4978, -6.125033751723506, 2.8953831105620877, 0
4979, -6.17608706448864, 3.807881863834027, 0
4980, -6.052789801053418, 3.884924936217339, 0
4981, -6.124688411836486, 3.862807137960112, 0
4982, -6.157478800481875, 3.9105076985430456, 0
4983, -6.2389616787715445, 3.872282335315436, 0
4984, -6.102075614387812, 3.7901343839100154, 0
4985, -6.165563824880218, 3.6885695062075423, 0
4986, -6.0380841324977155, 3.7508582695027965, 0
4987, -6.150835877652469, 3.7499887463476296, 0
4988, -6.249848588993185, 3.741255916769492, 0
4989, -6.105293413659083, 3.706592495519688, 0
4990, -6.050999875621239, 3.623906658579233, 0
4991, -6.140018256341521, 3.6000103078612904, 0
4992, 2.7638600509117306, -6.285744723449417, 0
4993, 2.7869577716598366, -6.190949862758559, 0
4994, 2.7541362010918022, -6.152883938291783, 0
4995, 2.737774462702832, -6.201307093088264, 0
4996, 2.857267287801058, -6.211723198997788, 0
4997, 2.8670739901505335, -6.263161111728797, 0
4998, 2.8796493597697523, -6.1423724780485145, 0
4999, 2.827232356000707, -6.121466615315816, 0
5000, 6.325885039996914, 2.802150746891794, 0
5001, 0.08553206448054276, 4.466819534052949, 0
5002, -0.13878718061492712, -4.025962728923138, 0
5003, -0.24984222168412829, -3.890916311537627, 0
5004, -0.22941600010389918, -3.9970690296779874, 0
5005, -0.2650371134935352, -3.9488817539972936, 0
5006, -0.0743282691156269, -3.947789496830592, 0
5007, -4.025962728923146, 0.1387871806149173, 0
5008, -3.8909163115376275, 0.24984222168412804, 0
5009, -3.9970690296780025, 0.22941600010389337, 0
5010, -3.9488817539972985, 0.2650371134935142, 0
5011, -3.947789496830588, 0.07432826911562582, 0
5012, 4.369048172597711, -5.98361866779197, 0
5013, 4.272151291658424, -6.095615066765746, 0
5014, 4.306658706723843, -6.0275553912747855, 0
5015, 4.252875684371672, -5.990403017761993, 0
5016, 4.200504823262826, -6.05436947751304, 0
5017, 4.363397272580711, -6.09910057229908, 0
5018, 4.3666201836996565, -6.041379069092589, 0
5019, 4.25382372913403, -6.044601068853915, 0
5020, 4.136515326091075, -6.020859870020624, 0
5021, 4.037042596488761, -6.162399743515339, 0
5022, 4.1258458887536005, -6.119085631165996, 0
5023, 4.15046790091212, -6.072067766879253, 0
5024, 4.318575792752548, -6.07637531836392, 0
5025, 4.203074274907553, -6.132756414291064, 0
5026, 4.146917173214682, -6.225023649729283, 0
5027, 4.284199558347853, -6.2008297547050875, 0
5028, 4.157020293178427, -6.1679495492347, 0
5029, 4.096041001487453, -6.18658640696278, 0
5030, 4.214615416365627, -6.2075761646245535, 0
5031, 4.032560024725545, -6.257384644176356, 0
5032, 4.192022192667524, -6.259974081810709, 0
5033, 4.139526868635938, -6.281141341449862, 0
5034, 4.09115976668459, -6.246226263551186, 0
5035, 4.296351430018545, -6.2873863205771485, 0
5036, 4.253621199597829, -6.247664230823301, 0
5037, 4.25720479930474, -6.150623783547587, 0
5038, 4.321680802844314, -6.1483165699012545, 0
5039, 4.350747532982995, -6.208695622600255, 0
5040, 4.414547848778882, -6.233917653172759, 0
5041, 4.46231564353856, -6.1793345195953435, 0
5042, 4.470638288448826, -6.105666948605405, 0
5043, 4.414918074093442, -6.136675832539399, 0
5044, 4.396910224300692, -6.185228886984816, 0
5045, -3.0839661650304193, -6.202549299598021, 0
5046, -3.0373232892305, -6.177307652093049, 0
5047, -3.1842430181972965, -6.277342615470552, 0
5048, -3.0505683318783725, -6.295124392875543, 0
5049, -2.975625860398672, -6.2897755694693585, 0
5050, -3.1479851876396574, -6.221335972493377, 0
5051, -3.116749067552817, -6.281297450954333, 0
5052, -3.1538807181407824, -6.337083524581262, 0
5053, -3.236937002723761, -6.341709451691402, 0
5054, -3.114323237630942, -6.397543238780783, 0
5055, -3.092485148945754, -6.3400843925685875, 0
5056, -3.044438788844359, -6.2406011420297265, 0
5057, -3.009184030011376, -6.347276028765041, 0
5058, -3.3253004893088334, -6.215618168097014, 0
5059, -3.236175444263722, -6.203982670051262, 0
5060, -3.231126479212409, -6.403401574891817, 0
5061, -3.3326651147116158, -6.31478697978254, 0
5062, -3.2555234989084796, -6.27274118156693, 0
5063, -3.2815668329064547, -6.316748293601297, 0
5064, -3.3088466127827614, -6.266697958306891, 0
5065, -0.09028304051570019, 4.568381013827477, 0
5066, -6.0588295077052585, -3.502041158695169, 0
5067, -6.150138214928964, -3.4140065821813463, 0
5068, -6.16427560916545, -3.4643297560515123, 0
5069, -6.372229228418257, -3.2319744144887617, 0
5070, -6.241992373736317, -3.2211607753168794, 0
5071, -6.1657768078775606, -3.2981547269342477, 0
5072, -6.180623258292317, -3.199732388956129, 0
5073, -6.217680093138316, -3.273313785065956, 0
5074, -6.229800979376065, -3.3443168226006823, 0
5075, -6.196999148752149, -3.3871972231995247, 0
5076, -6.334679766867122, -3.1189879213228475, 0
5077, -6.397543238780784, -3.1143232376309413, 0
5078, -6.350801925784934, -3.1674995676458306, 0
5079, -6.282921974378388, -3.148985703315866, 0
5080, -6.281542762718412, -3.0869560187467906, 0
5081, -6.286436659300905, -3.027361192582856, 0
5082, -6.334810886086112, -3.0604050918797427, 0
5083, -6.073271671716038, -3.16490400741625, 0
5084, -6.073271671716038, 3.164904007416251, 0
5085, -6.158462635099939, 3.269126784783394, 0
5086, -6.347255292750053, 2.9012221158867115, 0
5087, -6.3068657604314105, 2.8585057015711093, 0
5088, -6.264094166589075, 3.0330745076207406, 0
5089, -6.252654543645654, 2.9668731593227213, 0
5090, -6.320661949756049, 2.9892105089317007, 0
5091, -6.326769649856758, 3.055494508989845, 0
5092, -6.386470550941999, 3.0029560353330726, 0
5093, -6.274568231486582, 3.1026092604167017, 0
5094, -6.358406980556571, 3.117227281266194, 0
5095, -6.307623897677177, 3.20234848789132, 0
5096, -6.34891337424006, 3.169272549904609, 0
5097, -6.367304363596333, 3.2345397419984576, 0
5098, -6.277252163179298, 3.1570670326461716, 0
5099, -6.276172567122378, 3.3320746387908224, 0
5100, -6.335791347973188, 3.2964375107246293, 0
5101, -6.275482051261298, 3.263231558262267, 0
5102, -6.340694877782442, 3.372328711259684, 0
5103, -6.218586866730413, 3.2982272365969423, 0
5104, -6.149770041963773, 3.363747832706783, 0
5105, -6.217500310504296, 3.3659857561610993, 0
5106, -6.179721393783033, 3.483316572465571, 0
5107, -6.181838242206273, 3.419250613511927, 0
5108, -6.119267330885741, 3.418387097167868, 0
5109, -6.278612760065825, 3.454516160057856, 0
5110, -6.061573028749777, 3.38526176985061, 0
5111, -6.272477253192388, 3.393393360880978, 0
5112, -6.224452085225063, 3.4527265990958282, 0
5113, -6.2487996451019505, 3.5363282999253833, 0
5114, -6.404045559275099, 3.3533657600774727, 0
5115, -6.341568469931633, 3.4375298772414604, 0
5116, -6.32796054667424, 3.5122537676631738, 0
5117, -6.399475191930628, 3.4810410802261353, 0
5118, -6.1836232122164105, 3.54974514216469, 0
5119, -6.11658600397102, 3.5203538347247116, 0
5120, -6.233457502671326, 3.6268148236226043, 0
5121, -6.129284033770161, 3.4696691203191, 0
5122, -6.0588295077052585, 3.502041158695171, 0
5123, -6.389690472858404, 3.614152439658395, 0
5124, -6.3467259702907155, 3.5596219622514633, 0
5125, -6.048713490896167, 2.963206728706078, 0
5126, -6.128894730590546, 3.05180792237171, 0
5127, -6.192194681869442, 3.0114097109566864, 0
5128, -6.206580522986082, 3.081216710989115, 0
5129, -6.17353285090549, 3.1257377081727036, 0
5130, -6.156333569109648, 2.9683683352238637, 0
5131, -4.571510738636883, 5.894519628426375, 0
5132, -4.637250772200118, 5.9371123887999735, 0
5133, -4.6471476034680625, 6.000713833748059, 0
5134, -4.890187428436366, 6.087940832321956, 0
5135, -4.646452323150037, 6.177947183593661, 0
5136, -4.3731295253760205, 6.159564575256923, 0
5137, -4.5336897434193855, 6.209450924534309, 0
5138, -3.0617469147548433, 6.063563993417816, 0
5139, -3.1723983286616, 6.184659335700649, 0
5140, -2.869754527491781, 6.026812584849337, 0
5141, -2.951736169107357, 6.1109067860189255, 0
5142, -2.905032140691626, 6.326442328174167, 0
5143, -2.868949931348364, 6.284878576256443, 0
5144, -2.8662382604528975, 6.221774179547991, 0
5145, -2.932304880699421, 6.184322430471985, 0
5146, -2.8152003205984264, 6.220921058646922, 0
5147, -2.9769118883319394, 6.231963950689522, 0
5148, -2.980352892824528, 6.309164360933918, 0
5149, -2.995277101449653, 6.161710294610388, 0
5150, -2.890560470875087, 6.133994416544336, 0
5151, -3.0059060693130317, 6.363040582069729, 0
5152, -3.077763268517137, 6.299815208369457, 0
5153, 2.9012221158867098, -6.347255292750051, 0
5154, 3.0138084603252526, -6.300277652323622, 0
5155, 2.963206728706077, -6.048713490896168, 0
5156, 3.043971977725387, -6.1747387855454035, 0
5157, 3.16490400741625, -6.073271671716038, 0
5158, 3.281190142061136, -6.188428801180199, 0
5159, 5.92304474747657, -4.9253099577277695, 0
5160, 5.95824498819405, -4.477126025357444, 0
5161, 6.125673488504158, -4.456105168539081, 0
5162, 6.1864465662516865, -4.473865248028574, 0
5163, 6.225653697767294, -4.412796390714665, 0
5164, 6.181653736204043, -4.322245778503499, 0
5165, 6.221147873934814, -4.359020399582803, 0
5166, 6.163067817607352, -4.390963619989317, 0
5167, 6.086136152504349, -4.426325459115364, 0
5168, 6.082329592629461, -4.487834103691036, 0
5169, 6.01078696973766, -4.36957209646803, 0
5170, 5.988498702011139, -4.425294691006397, 0
5171, 6.065361561959781, -4.26401687741796, 0
5172, 5.940267034615505, -4.360411324137693, 0
5173, 6.015765273569821, -4.30526020026855, 0
5174, 6.072988018921747, -4.3236300593794414, 0
5175, 6.126855987685177, -4.2864441748628614, 0
5176, 6.006051987188626, -4.243137545584134, 0
5177, 6.1319473495796535, -4.338488739206402, 0
5178, 6.203669819579673, -4.228710699271008, 0
5179, 6.065847377595921, -4.1679601830064765, 0
5180, 6.026812584849337, -2.8697545274917817, 0
5181, 6.1072284813022435, -2.9506526654432736, 0
5182, 6.111303535696919, -2.7934718218100776, 0
5183, 6.326442328174168, -2.905032140691627, 0
5184, 6.3069763727004275, -2.854162850717403, 0
5185, 6.224452949065121, -2.863580277350412, 0
5186, 6.1617325788719075, -2.9015857388283095, 0
5187, 6.13039956733699, -2.860686721595872, 0
5188, 6.073271671716038, -3.164904007416252, 0
5189, 6.158462635099937, -3.2691267847833947, 0
5190, 3.061746914754844, 6.063563993417817, 0
5191, 3.157938174576045, 6.1459663067745804, 0
5192, 3.0055190585226046, 6.087761481766253, 0
5193, 6.048432216091841, 2.9632670746390297, 0
5194, 6.171523345581075, 3.045812193468483, 0
5195, 6.346980471638932, 2.9012724246856556, 0
5196, 6.3003189437099385, 3.013803261385665, 0
5197, 6.073271671716038, 3.164904007416251, 0
5198, 6.188428801180198, 3.2811901420611367, 0
5199, 0.02081842371482018, -4.861384032109167, 0
5200, -0.03060579974236358, -4.89701025165643, 0
5201, 0.005068039333317467, -5.064661297276841, 0
5202, -0.02832751319760945, -4.98414643780058, 0
5203, 0.0696952182371072, -4.85139492774687, 0
5204, -0.14924336107135208, -5.009789992573117, 0
5205, 0.06792311217548452, -4.991407332878644, 0
5206, -0.25403332588711597, -5.301072329424628, 0
5207, 0.023462732033674483, -4.939194438466525, 0
5208, 0.017960624725745538, -5.012130524660349, 0
5209, -0.09458879292386332, -4.987011416349736, 0
5210, -0.1720467533030197, -4.955145773694249, 0
5211, -0.2540333258871159, -4.890073709279367, 0
5212, -0.21983708046749983, -4.931173571293892, 0
5213, -0.22141855373417585, -4.8489738472648405, 0
5214, -0.25403332588711597, -5.136672881366524, 0
5215, -0.17177065889570145, -5.064548610222633, 0
5216, -0.2540333258871159, -5.054473157337471, 0
5217, -0.2173188483138088, -5.095573019351997, 0
5218, -0.12495885949036678, -5.215026571218933, 0
5219, -0.1529015255411999, -5.141198921621555, 0
5220, -0.2096370034747948, -5.013373295322945, 0
5221, -0.25403332588711597, -5.218872605395576, 0
5222, -0.05320950469631369, -5.145668742494211, 0
5223, -0.20403085787364922, -5.1515254732723275, 0
5224, -0.10055504840859723, -5.087665024650825, 0
5225, -0.05912166084588234, -5.039617364560932, 0
5226, -0.04253302760826015, -5.091883065336838, 0
5227, -0.10401793264463001, -5.164898975915837, 0
5228, -0.18821413919300908, -5.259972467410101, 0
5229, -0.1807408090751794, -5.203505589997418, 0
5230, -0.254033325887116, -5.465471777482732, 0
5231, 0.25403332588711497, -5.380673958374251, 0
5232, -0.12573983856988025, -5.280912029028733, 0
5233, -0.1586968631389523, -5.415450128332552, 0
5234, 0.08901177929350887, -5.455983959392845, 0
5235, -0.16968242528305236, -5.308349596413173, 0
5236, -0.08013173098085766, -5.24850529114364, 0
5237, 0.220649665741947, -4.892091396279221, 0
5238, 0.16284630535589528, -4.970290524868805, 0
5239, -4.861384032109152, -0.0208184237148175, 0
5240, -4.8970102516564396, 0.030605799742351912, 0
5241, -5.064661297276853, -0.005068039333338478, 0
5242, -4.984146437800591, 0.02832751319759344, 0
5243, -4.8513949277468225, -0.06969521823708111, 0
5244, -5.009789992573141, 0.14924336107133462, 0
5245, -4.99140733287863, -0.06792311217555537, 0
5246, -5.301072329424629, 0.25403332588711586, 0
5247, -4.939194438466532, -0.02346273203370214, 0
5248, -5.012130524660345, -0.017960624725796667, 0
5249, -4.987011416349751, 0.09458879292384893, 0
5250, -4.955145773694277, 0.17204675330301222, 0
5251, -4.890073709279367, 0.2540333258871158, 0
5252, -4.931173571293893, 0.21983708046748773, 0
5253, -4.848973847264841, 0.2214185537341731, 0
5254, -5.136672881366525, 0.25403332588711586, 0
5255, -5.064548610222661, 0.17177065889567514, 0
5256, -5.054473157337473, 0.25403332588711586, 0
5257, -5.095573019351999, 0.21731884831380419, 0
5258, -5.215026571218947, 0.12495885949036681, 0
5259, -5.141198921621588, 0.15290152554122785, 0
5260, -5.013373295322946, 0.20963700347478564, 0
5261, -5.2188726053955765, 0.25403332588711586, 0
5262, -5.1456687424941965, 0.05320950469633616, 0
5263, -5.151525473272393, 0.20403085787366948, 0
5264, -5.087665024650914, 0.10055504840865247, 0
5265, -5.039617364561011, 0.059121660845861464, 0
5266, -5.091883065336871, 0.042533027608193164, 0
5267, -5.164898975915844, 0.10401793264464491, 0
5268, -5.259972467410103, 0.18821413919301333, 0
5269, -5.203505589997444, 0.18074080907516085, 0
5270, -5.465471777482734, 0.25403332588711586, 0
5271, -5.380673958374251, -0.25403332588711547, 0
5272, -5.280912029028738, 0.12573983856989446, 0
5273, -5.41545012833253, 0.15869686313898318, 0
5274, -5.455983959392894, -0.08901177929353586, 0
5275, -5.308349596413166, 0.16968242528306207, 0
5276, -5.248505291143659, 0.08013173098087739, 0
5277, -4.89209139627922, -0.22064966574191985, 0
5278, -4.970290524868809, -0.1628463053559348, 0
5279, 6.300154136497977, -2.708397144380833, 0
5280, 6.2541399536706015, -2.669750487294604, 0
5281, 6.2137642821058074, -2.77955114475547, 0
5282, 6.285223905348804, -2.765150098377491, 0
5283, -6.310190850069469, -2.8587565051507418, 0
5284, -6.370183511375458, -2.8970248723187986, 0
5285, -6.105451912166447, -3.1051768186917585, 0
5286, -6.027705933734158, 2.8695007233706034, 0
5287, 6.196133388256616, -2.7025812995906877, 0
5288, -2.7637941522397447, 6.285685045078649, 0
5289, -2.802146753776817, 6.325901234871381, 0
5290, 2.98771169642608, 6.233980477685235, 0
5291, 3.0768403831507607, 6.299907736823154, 0
5292, 3.0075240609080724, 6.350190054596179, 0
5293, 2.9369899587818544, 6.2573131367276345, 0
5294, 4.375753932591519, 6.021521708918071, 0
5295, 4.424300951070892, 5.987760748623078, 0
5296, 4.550369512939984, 6.050031310803735, 0
5297, 6.070967439165315, 4.457393522448461, 0
5298, 5.999657399498025, 4.438062883850172, 0
5299, 5.955876580199731, 4.4828004677494055, 0
5300, 5.9829527475779125, 4.368915502809889, 0
5301, 6.046122833941785, 4.407848967357521, 0
5302, 6.041725538594298, 4.299940460367338, 0
5303, 6.035583930664539, 4.3542345811090915, 0
5304, 6.108553342656889, 4.4234229979429305, 0
5305, 6.172896768380433, 4.3732228182511985, 0
5306, 6.129669588213399, 4.296561319769949, 0
5307, 6.211915510139736, 4.426739900709369, 0
5308, 6.131225174599657, 4.346202191520434, 0
5309, 6.081837323408349, 4.197785955887437, 0
5310, 6.215058915119383, 4.298930793526448, 0
5311, 6.084137193447231, 4.257641377402936, 0
5312, 6.020655499702823, 4.236402542465861, 0
5313, 5.961812051637832, 4.247637612875332, 0
5314, 6.222092339991433, 4.35203232203935, 0
5315, 6.174693981755917, 4.213788982352, 0
5316, 6.2873863205771485, 4.296351430018546, 0
5317, 6.173227879783109, 4.266623271100812, 0
5318, 3.957471114932664, -0.04146155412838923, 0
5319, 3.9739355438517445, 0.14010520309834082, 0
5320, 3.890469059236897, 0.03808666264229678, 0
5321, 4.014600626015666, 0.1031934057414152, 0
5322, 3.9674039984897926, 0.04229071849646908, 0
5323, 3.930905607250813, 0.004154220196281956, 0
5324, 4.329271940676338, 0.02159027340514097, 0
5325, 4.396731974655098, 0.01239089564248761, 0
5326, 5.025341185941501, 0.2540333258871156, 0
5327, 4.368933519668135, 0.0604873714320196, 0
5328, 4.492342027292377, 0.25403332588711575, 0
5329, 4.4831106788990605, -0.007243887737182139, 0
5330, 4.384843860469501, 0.16213634306517793, 0
5331, 4.495887224301993, 0.14767348766803584, 0
5332, -3.9404923443211994, -6.272875318986905, 0
5333, -4.033123074445732, -6.3340171490744455, 0
5334, -3.9922172781201635, -6.297682954685856, 0
5335, -4.051158533187631, -6.27826921304702, 0
5336, -3.8940873405314984, -6.355471368290543, 0
5337, -3.850273354849781, -6.303375968835897, 0
5338, -3.75269983837425, -6.374691402058426, 0
5339, -3.901117018904842, -6.305086953392058, 0
5340, -3.8072397356158727, -6.250069026177047, 0
5341, -3.7094835366521117, -6.315706975897754, 0
5342, -3.780846603164049, -6.312763945076307, 0
5343, -3.607227759112257, -6.313788033100949, 0
5344, -3.657988386464924, -6.334317968947205, 0
5345, -3.614152439658395, -6.389690472858403, 0
5346, -3.6595514755846765, -6.251024765225613, 0
5347, -3.568559168900522, -6.228359340777033, 0
5348, -3.699923452477505, -6.217075993547318, 0
5349, -3.6085696432899206, -6.261714785589691, 0
5350, -3.6475716005938996, -6.105069153864801, 0
5351, -3.505310605672933, -6.132623654136952, 0
5352, -6.18463275712622, 3.862431337074637, 0
5353, -6.272875318986951, 3.940492344321103, 0
5354, -6.244151423152174, 4.003523603188336, 0
5355, -6.334017149074446, 4.033123074445732, 0
5356, -6.297682954685898, 3.99221727812017, 0
5357, -6.278269213047027, 4.051158533187646, 0
5358, -6.355471368290543, 3.8940873405314984, 0
5359, -6.303375968836, 3.850273354849796, 0
5360, -6.374691402058426, 3.75269983837425, 0
5361, -6.305086953392103, 3.901117018904809, 0
5362, -6.250069026176979, 3.807239735615715, 0
5363, -6.315706975897942, 3.7094835366521344, 0
5364, -6.312763945076307, 3.7808466031640497, 0
5365, -6.3345227188853315, 3.6584946342869227, 0
5366, -6.261467512309065, 3.6811973980873223, 0
5367, -6.105069153864687, 3.647571600593727, 0
5368, 0.2540333258871158, 4.396875365105053, 0
5369, 0.1731219448998594, 4.526228326469247, 0
5370, 0.025349896360759627, 4.617165491618467, 0
5371, 0.07418250874380182, 4.587114481425091, 0
5372, 0.09557033546987281, 4.67657127698133, 0
5373, 0.14413498324688986, 4.400569801626725, 0
5374, 0.13504594524358055, 4.488092159494145, 0
5375, 0.2042841258171844, 4.48670474982947, 0
5376, 0.2540333258871158, 4.561274813163158, 0
5377, 0.2540333258871158, 4.807873985250315, 0
5378, 0.222373157235663, 4.43797522711958, 0
5379, 0.13309953483992584, 4.642491108278184, 0
5380, 0.19379394670157676, 4.615004782946186, 0
5381, 0.2540333258871158, 4.725674261221263, 0
5382, 0.18394645611381805, 4.674014751962259, 0
5383, 0.20401449620655085, 4.565829868418465, 0
5384, -0.20873577852213077, -3.938925696824921, 0
5385, -3.93892569682493, 0.20873577852211195, 0
5386, 4.050283012903225, -6.076855431204447, 0
5387, 4.088538195772136, -6.0413718249543695, 0
5388, 4.073389455311341, -6.12422863238699, 0
5389, 4.007642182325081, -6.002244713538011, 0
5390, 3.9593109680597482, -6.106571740486874, 0
5391, 3.983791741250907, -6.054554232882135, 0
5392, 4.012331092118613, -6.1147781133236165, 0
5393, 4.033123074445732, -6.334017149074446, 0
5394, -3.2268880297394262, -6.130466431721331, 0
5395, -3.272265441165375, -6.0883419026937, 0
5396, -3.3306109972171662, -6.138717537450236, 0
5397, -3.2766065948392025, -6.161530177794423, 0
5398, -3.385326401286669, -6.098403592416241, 0
5399, -3.4427379641407057, -6.124561647853986, 0
5400, -3.4608621466006975, -6.230749574857797, 0
5401, -3.468060478160091, -6.174880278247628, 0
5402, -3.525550771757305, -6.18801250635266, 0
5403, -3.396334658246055, -6.194037328225086, 0
5404, -3.395417276196249, -6.270714446103161, 0
5405, -3.474282364349709, -6.326293368453361, 0
5406, -3.3960765240546156, -6.338363840796763, 0
5407, -3.3533657600774727, -6.404045559275099, 0
5408, -3.446884263101988, -6.281427336620641, 0
5409, -0.09962518390660122, 4.513584309133356, 0
5410, -0.014788735587297541, 4.549507067372038, 0
5411, 0.03837866256879001, 4.547771515522845, 0
5412, -0.03770484119872046, 4.608837553510536, 0
5413, -0.16618811633562539, 4.628814168224901, 0
5414, -0.20642943511676282, 4.536758623846471, 0
5415, -0.15029477281969428, 4.559689895832906, 0
5416, -0.20172064155734337, 4.589523565536024, 0
5417, -6.092084359098293, -3.3853153120965103, 0
5418, -6.119715256630106, -3.333943653714083, 0
5419, -6.0966048352544036, -3.2718955861292733, 0
5420, -6.115334179070159, -3.2163633543391987, 0
5421, -6.157804435652718, -3.2466212195555655, 0
5422, -6.181084243588356, 3.2045431787972882, 0
5423, -6.22322582598928, 3.242021858876336, 0
5424, -6.119043886216412, 3.2209018167141212, 0
5425, -6.086309183856173, 3.272356427179543, 0
5426, -6.1243087126805325, 3.313698958562258, 0
5427, -6.180143615741789, 3.6363998504873276, 0
5428, -6.271702074011346, 3.5867553501918747, 0
5429, -6.287554392862215, 3.636248822342542, 0
5430, -6.0896970729993996, 3.008494059120033, 0
5431, -6.072522004871359, 3.063430188482826, 0
5432, -6.110636355697887, 3.1057738418736136, 0
5433, -4.430857769788333, 6.200105217475738, 0
5434, -4.3749587649309944, 6.218331482210284, 0
5435, -4.2657803737919044, 6.192317958907101, 0
5436, -4.313928905819008, 6.23235609478803, 0
5437, -4.420544051677124, 6.262209711295949, 0
5438, -4.259345183914719, 6.249026684888923, 0
5439, -4.143455914649807, 6.2071563193154216, 0
5440, -4.194413347988658, 6.247430756513534, 0
5441, -4.167211104274749, 6.3113221331699805, 0
5442, -4.0124185062830104, 6.222053567062378, 0
5443, -4.125263322159208, 6.266096783199337, 0
5444, -4.078479924188813, 6.219378697433771, 0
5445, -4.090671586015539, 6.105369163808023, 0
5446, -4.033123074445733, 6.3340171490744455, 0
5447, -4.1017397866707, 6.164209374217689, 0
5448, -4.193915028703404, 6.116409548756963, 0
5449, -3.9814859394431337, 6.280790587693903, 0
5450, -3.8615180092336683, 6.180098611862608, 0
5451, -3.8940873405314984, 6.355471368290543, 0
5452, -4.059101250622816, 6.278003474070724, 0
5453, -3.932419353528152, 6.21743725362288, 0
5454, -3.8459055841254455, 6.273708754619405, 0
5455, -3.8533670909824336, 6.324389556400223, 0
5456, -3.978339872002304, 6.117137483594066, 0
5457, -4.038116203393432, 6.145716253276938, 0
5458, -3.913403642941347, 6.282842231176707, 0
5459, -3.8798553684420574, 6.231263943189161, 0
5460, -3.974929507393434, 6.176237950421217, 0
5461, -3.9170350493188586, 6.1432485478240135, 0
5462, -3.9246885604776667, 6.076195082679151, 0
5463, -3.8495691198988196, 6.101851761466609, 0
5464, -3.8804204630371926, 6.021132358415861, 0
5465, -3.7508582695027965, 6.0380841324977155, 0
5466, -3.8037239806815024, 6.148888431352197, 0
5467, -3.6717478353484236, 6.229297263874312, 0
5468, -3.728992460103231, 6.174742103843985, 0
5469, -3.8041126538594847, 6.0796297006398845, 0
5470, -3.6894491798215205, 6.11629869870052, 0
5471, -3.6266540000531924, 6.083951102635156, 0
5472, -3.5431078853468825, 6.189539684332658, 0
5473, -3.625094522970267, 6.164103223528472, 0
5474, -3.756441753544207, 6.260855512270033, 0
5475, -3.805108642842946, 6.215440028088526, 0
5476, -3.676292656832686, 6.176755218858056, 0
5477, -3.56803674347555, 6.125042587099473, 0
5478, -3.503698706553713, 6.09624174598985, 0
5479, -3.4094344241863235, 6.191031324953716, 0
5480, -3.4436126330895895, 6.130754390160052, 0
5481, -3.385324183415925, 6.097139727111061, 0
5482, -3.4762578499982877, 6.189093197055472, 0
5483, -3.3013161476381603, 6.168753397039705, 0
5484, -3.445919930278695, 6.296041536746985, 0
5485, -3.5099550020082573, 6.148571293208731, 0
5486, -3.331862266389738, 6.11950561425601, 0
5487, -3.271997892641079, 6.094319205142458, 0
5488, -3.3575139245348242, 6.169513212499353, 0
5489, -3.3278568048496378, 6.284383830789051, 0
5490, -3.3620567591863617, 6.231949798502767, 0
5491, -3.444230276996852, 6.237785102365379, 0
5492, -3.2098575245741436, 6.125883833004699, 0
5493, -3.3873240102343245, 6.285800723525179, 0
5494, -3.353365760077473, 6.4040455592751, 0
5495, -3.163814279420617, 6.08464394848077, 0
5496, -3.237889650227901, 6.185074078343712, 0
5497, -3.2044568448269457, 6.293372571755219, 0
5498, -3.2841760138112748, 6.233548728343563, 0
5499, -3.204831708121675, 6.234178531814638, 0
5500, -3.131035977247925, 6.2471312359941855, 0
5501, -3.266454201678396, 6.292960674036527, 0
5502, -3.2358883980162094, 6.358321368768948, 0
5503, -3.6008338650347325, 6.23075405934644, 0
5504, -3.5273020131157455, 6.272711300487615, 0
5505, -3.637913343634008, 6.309005486858284, 0
5506, -3.721770984856672, 6.224475541202669, 0
5507, -3.4133702264792256, 6.344631530994043, 0
5508, -3.479479208212788, 6.371100899748221, 0
5509, -3.5307812863458086, 6.335219488414267, 0
5510, -3.591663073213118, 6.352010716924228, 0
5511, -3.5813850669308107, 6.294584463659858, 0
5512, -3.304786048001912, 6.343300196168116, 0
5513, -3.3592073160684452, 6.333429988887151, 0
5514, -3.102648100323585, 6.183406896844836, 0
5515, -3.138364074576114, 6.137204336924584, 0
5516, -3.0784302000892243, 6.247213594556934, 0
5517, -3.1418605784373237, 6.311352798912147, 0
5518, -3.101111126038375, 6.35392145398865, 0
5519, -3.7100365213829196, 6.316584796609227, 0
5520, -3.75269983837425, 6.374691402058426, 0
5521, -3.6775480109057908, 6.278794450796281, 0
5522, -3.781581608751243, 6.318661333301774, 0
5523, -3.102316648270085, 6.0983180854230294, 0
5524, -3.1821901943072777, 6.348218576710996, 0
5525, -4.431546711625212, 6.1361555964417995, 0
5526, -3.004587593162742, 6.088162335074604, 0
5527, -2.911919298823017, 6.068726007966275, 0
5528, 2.9601652644244636, -6.322660746658188, 0
5529, 3.0060861758588393, -6.361610127101874, 0
5530, 3.1104450179885266, -6.31179474667942, 0
5531, 2.9667303284063817, -6.251949189954591, 0
5532, 3.029700130132097, -6.237702818172094, 0
5533, 2.9882505133922157, -6.1952080791844235, 0
5534, 3.065226091113924, -6.280030447107565, 0
5535, 3.088619852370871, -6.21795846300173, 0
5536, 3.103853223957363, -6.157550231529991, 0
5537, 3.0544794316760413, -6.098443503158562, 0
5538, 3.004315589042567, -6.130406083396262, 0
5539, 3.1099963144746825, -6.102243566506485, 0
5540, 3.0654402695539438, -6.039286925646319, 0
5541, 3.234357297014479, -6.130042300944344, 0
5542, 3.1966077637513988, -6.180323846694105, 0
5543, 3.301742196809549, -6.123967657376457, 0
5544, 3.4182278676154163, -6.1966134811226095, 0
5545, 3.273568492045552, -6.059230438754794, 0
5546, 3.3838496446864355, -6.122024289796715, 0
5547, 3.3502951830735634, -6.182706642270762, 0
5548, 3.3248034484813345, -6.294992502145018, 0
5549, 3.3198213410856656, -6.234824872871689, 0
5550, 3.2324651583222557, -6.2682801099753895, 0
5551, 3.386074817968624, -6.259628917573041, 0
5552, 3.3881598423941295, -6.334003001821362, 0
5553, 3.5058900295235156, -6.281052914696564, 0
5554, 3.449235893044235, -6.252145660132878, 0
5555, 3.451548075631902, -6.317584789305698, 0
5556, 3.525151310970362, -6.1733328427573015, 0
5557, 3.481041080226134, -6.3994751919306285, 0
5558, 3.4752250099581605, -6.201210661329249, 0
5559, 3.467779755962737, -6.129231638384724, 0
5560, 3.6071298675094874, -6.312715028876083, 0
5561, 3.502041158695169, -6.058829507705259, 0
5562, 3.5106776978224863, -6.343875735822963, 0
5563, 3.635190017042542, -6.146883523848122, 0
5564, 3.534281886120665, -6.111906200319348, 0
5565, 3.577680690908011, -6.149748997160799, 0
5566, 3.5834328013837085, -6.2328534066379655, 0
5567, 3.614152439658393, -6.389690472858404, 0
5568, 3.552695801887316, -6.309079733086535, 0
5569, 3.38526176985061, -6.061573028749777, 0
5570, 3.2359080187233658, -6.215589371091426, 0
5571, 3.3303454724454733, -6.356945136282516, 0
5572, 3.258334511474709, -6.338081261979645, 0
5573, 3.423823344686686, -6.148817448855998, 0
5574, 3.527493565398817, -6.2293337360351595, 0
5575, 3.6969345500940425, -6.24262100662273, 0
5576, 3.1842272802569482, -6.325852151616982, 0
5577, 3.2311264792124077, -6.403401574891819, 0
5578, 3.638265250494804, -6.260029747306847, 0
5579, 3.6741731228148553, -6.3167928650436025, 0
5580, 3.6532626206900307, -6.20300722645574, 0
5581, 3.7491732628355994, -6.14115101672136, 0
5582, 3.6929480498815854, -6.1592563080956255, 0
5583, 3.7054026080719358, -6.101578258864153, 0
5584, 3.767536078440703, -6.076846952724748, 0
5585, 3.7486008095733734, -6.341802449093539, 0
5586, 3.856403837562508, -6.136998129109338, 0
5587, 3.8248039849021573, -6.087961461854038, 0
5588, 3.8804204630371917, -6.021132358415861, 0
5589, 3.177456244492039, -6.271184352154368, 0
5590, 3.7240781699545296, -6.291529058591175, 0
5591, 3.8094421793920183, -6.2810073091859735, 0
5592, 3.9195977177067163, -6.064099505420365, 0
5593, 3.794615425715567, -6.327010668327973, 0
5594, 3.894087340531497, -6.3554713682905435, 0
5595, 3.914286696097762, -6.247169087900167, 0
5596, 3.8523617181604113, -6.3175607614014035, 0
5597, 3.922769376218456, -6.304786006038405, 0
5598, 3.9801814660402646, -6.286914637030615, 0
5599, 6.249218067817875, -4.288951937173541, 0
5600, 6.3113221331699805, -4.16721110427475, 0
5601, 6.25261729915262, -4.209689302154391, 0
5602, 6.180079525909296, -4.095517535045261, 0
5603, 6.205052510140461, -4.159780145621992, 0
5604, 6.260924802118339, -4.124347107178288, 0
5605, 6.134644168660333, -4.150157752091787, 0
5606, 6.2579181285982335, -4.020822008066877, 0
5607, 6.088649799098395, -4.065701039334328, 0
5608, 6.115042042303771, -4.216238565317976, 0
5609, 6.3340171490744455, -4.033123074445733, 0
5610, 6.090057510623349, -4.119686829541157, 0
5611, 6.156126693653004, -4.245421797893687, 0
5612, 6.276868521319998, -4.072077843776238, 0
5613, 6.008578151757528, -4.134446192687386, 0
5614, 6.041707820802956, -4.092029599078129, 0
5615, 6.0671908357510205, -2.910374920421149, 0
5616, 6.128780959136845, -3.051825230818862, 0
5617, 6.1885732086724365, -2.986205961890617, 0
5618, 6.181084243588355, -3.2045431787972896, 0
5619, 6.282083206651463, -3.2761735654240596, 0
5620, 6.221285981705757, -3.254878207276979, 0
5621, 6.2146523368169015, -3.3712512028968256, 0
5622, 6.273371435630674, -3.2036109953673986, 0
5623, 6.234699199481182, -3.314018372604041, 0
5624, 6.313541157327177, -3.3737615421560507, 0
5625, 6.403401574891818, -3.23112647921241, 0
5626, 6.3141232354736205, -3.114694087744541, 0
5627, 6.2758411949487565, -3.150945919470954, 0
5628, 6.34232069846224, -3.293845468551982, 0
5629, 6.33572959106927, -3.1801448689326643, 0
5630, 6.326067584647449, -3.237746305240957, 0
5631, 6.11904388621641, -3.220901816714122, 0
5632, 6.086309183856171, -3.272356427179544, 0
5633, 3.0950671893790958, 6.172894680385712, 0
5634, 3.1642846774613425, 6.247641958300375, 0
5635, 3.0992756765832086, 6.238312945241886, 0
5636, 3.1429945961875525, 6.197934968790507, 0
5637, 3.2233812885221726, 6.192917303625, 0
5638, 3.2226841782664977, 6.124804211619729, 0
5639, 3.2722805426798334, 6.088004519710221, 0
5640, 3.3545998922715485, 6.1902253267517375, 0
5641, 3.3258124843555246, 6.1291514237048075, 0
5642, 3.3853246892890954, 6.097428001597546, 0
5643, 3.288833277117584, 6.183903185100423, 0
5644, 3.4766898745040793, 6.179163710157778, 0
5645, 3.3114113822203857, 6.294264999373864, 0
5646, 3.442699429602527, 6.125226228666601, 0
5647, 3.3170488050216256, 6.2356212301770375, 0
5648, 3.4098204724440966, 6.274132213439075, 0
5649, 3.5035570186103033, 6.093043730877587, 0
5650, 3.4152386106332386, 6.180210378820525, 0
5651, 3.5916923382532273, 6.167790514600952, 0
5652, 3.5592859439407096, 6.116667108198503, 0
5653, 3.6270822193717303, 6.0890871048797255, 0
5654, 3.533719278784502, 6.168706128224463, 0
5655, 3.5644857280381252, 6.280945836488915, 0
5656, 3.5635368928421, 6.220869317493635, 0
5657, 3.6807978741861396, 6.249063075945637, 0
5658, 3.6185415750074292, 6.250046338105678, 0
5659, 3.650728128726577, 6.316568700682855, 0
5660, 3.7158561874355143, 6.148285305441918, 0
5661, 3.614152439658395, 6.389690472858404, 0
5662, 3.682276385875671, 6.102479691068807, 0
5663, 3.755741307865366, 6.078988179350411, 0
5664, 3.6538514423919257, 6.158529210044135, 0
5665, 3.5932461174115367, 6.333524568801087, 0
5666, 3.2385899481477254, 6.2686122331102085, 0
5667, 3.892768549494851, 6.1864978597257005, 0
5668, 3.2540478367880117, 6.3409181669460875, 0
5669, 3.231126479212409, 6.403401574891818, 0
5670, 3.8070635629191263, 6.154654399256122, 0
5671, 3.7630081844498116, 6.129297589025479, 0
5672, 3.816708923144765, 6.092873898092959, 0
5673, 3.88600516635974, 6.06038165972385, 0
5674, 3.982951924448966, 6.118422034857241, 0
5675, 3.873701091312821, 6.124280958947239, 0
5676, 3.9272597441833716, 6.10145964970923, 0
5677, 3.112291737484445, 6.106863252922979, 0
5678, 3.164348567064044, 6.079068183723538, 0
5679, 6.158102540760703, 2.9832572860360345, 0
5680, 6.229743089121968, 2.996051765217552, 0
5681, 6.102266225099981, 3.027953787591007, 0
5682, 6.248147890747301, 2.945275143155859, 0
5683, 6.247605789646243, 3.0742061960117786, 0
5684, 6.122593252523546, 3.092346114627473, 0
5685, 6.060149539939524, 3.0622663674440664, 0
5686, 6.181939551325765, 3.1057565471666875, 0
5687, 6.322893262158073, 3.086706326690217, 0
5688, 6.37644470418186, 3.1158888207473487, 0
5689, 6.310272046123814, 3.1796255856402755, 0
5690, 6.277695440895818, 3.125954023086225, 0
5691, 6.322599027205358, 2.9600717067460276, 0
5692, 6.361495431738389, 3.0061006169885514, 0
5693, 6.130042300944343, 3.23435729701448, 0
5694, 6.180323846694104, 3.1966077637513997, 0
5695, 6.123967657376456, 3.30174219680955, 0
5696, 6.196613481122609, 3.418227867615417, 0
5697, 6.059230438754793, 3.273568492045553, 0
5698, 6.122024289796714, 3.3838496446864363, 0
5699, 6.251098850276572, 3.2325053866577775, 0
5700, 6.1827066422707615, 3.3502951830735643, 0
5701, 6.299201449132196, 3.3618367612865523, 0
5702, 6.239164652646001, 3.374127193492279, 0
5703, 6.2561904581183425, 3.3045152387955983, 0
5704, 6.289001360809825, 3.464791253051554, 0
5705, 6.250026554866397, 3.4271858493754306, 0
5706, 6.208875281160802, 3.508835387708561, 0
5707, 6.327458079244198, 3.2632911794742454, 0
5708, 6.133733764749707, 3.4565498704884314, 0
5709, 6.182754958156347, 3.4662367707590893, 0
5710, 6.087048235915758, 3.50329138842375, 0
5711, 6.144994551625806, 3.5712665080895936, 0
5712, 6.061573028749776, 3.3852617698506107, 0
5713, 6.260542842263347, 3.183525644034637, 0
5714, 6.359420923044143, 3.213127665861959, 0
5715, 6.4040455592751, 3.353365760077473, 0
5716, 6.353742078220377, 3.3838224831884856, 0
5717, 6.3994751919306285, 3.481041080226135, 0
5718, 6.350339635334889, 3.321432947428325, 0
5719, 6.338725553312942, 3.5103942043744625, 0
5720, 6.317604863407229, 3.6075759736183284, 0
5721, 6.389690472858403, 3.614152439658394, 0
5722, 6.3456866392277, 3.562793053298122, 0
5723, 6.2724494649450815, 3.548064628657778, 0
5724, 6.222100049290025, 3.6331551777663824, 0
5725, 6.21433352277282, 3.5711180569660685, 0
5726, 6.264634051492463, 3.600881670607132, 0
5727, -5.5887713635263125, 0.2275230720048689, 0
5728, -0.14163556731608049, -4.910110390292483, 0
5729, -0.14079293142494348, -5.359500004616111, 0
5730, -0.254033325887116, -5.38327205345368, 0
5731, -0.19997314169673872, -5.359191165708684, 0
5732, -0.21480677739868403, -5.424371915468207, 0
5733, -0.17353518704717127, -5.503031605881278, 0
5734, 0.1479730036144205, -4.9117095252560725, 0
5735, 0.21863726867145206, -4.980924589387407, 0
5736, -0.10244877409187178, -5.326108960053432, 0
5737, 0.12353427658445756, -5.017482448486977, 0
5738, 4.30503880966934, 6.121135367291394, 0
5739, -4.910110390292502, 0.14163556731607596, 0
5740, -5.359500004616101, 0.14079293142496713, 0
5741, -5.383272053453682, 0.25403332588711586, 0
5742, -5.359191165708665, 0.19997314169675542, 0
5743, -5.424371915468209, 0.21480677739869997, 0
5744, -5.503031605881278, 0.17353518704715526, 0
5745, -4.911709525256073, -0.14797300361442492, 0
5746, -4.980924589387407, -0.21863726867147693, 0
5747, -5.326108960053434, 0.10244877409189809, 0
5748, -5.0174824484869776, -0.12353427658450941, 0
5749, 3.032441259357043, 6.267066317888228, 0
5750, 3.117321706424451, 6.357134462701972, 0
5751, 3.136582916358398, 6.300578071248942, 0
5752, 3.19719788418292, 6.3152665107185095, 0
5753, 4.252747287703643, 6.110852071384953, 0
5754, 4.326509007725015, 6.169912206463675, 0
5755, 4.37845601569409, 6.162286990770645, 0
5756, 4.364749442271863, 5.962041702412366, 0
5757, 6.154814623472942, 4.051738563123942, 0
5758, 6.235037929727497, 4.237319706697116, 0
5759, 6.237301000561232, 4.142375491704775, 0
5760, 6.26437936208803, 4.190520004518121, 0
5761, 3.8902454330865317, 0.1820511048055094, 0
5762, 3.924590006999941, 0.14611325632422034, 0
5763, 3.950210261036595, 0.20497754990936481, 0
5764, 3.943677691153881, 0.0930003522914799, 0
5765, 4.510761963197829, 0.06846116947455776, 0
5766, 4.468511867233289, 0.10153008500872257, 0
5767, 4.593175517723197, -0.004542741165086937, 0
5768, 4.625599524603392, 0.13102850066462501, 0
5769, 4.537611894646605, 0.0157518810827142, 0
5770, 4.532735625730406, -0.048774396693247214, 0
5771, 4.588289162648738, 0.06828888591157789, 0
5772, 4.472847059330894, -0.10833803502473878, 0
5773, 4.7077304720601765, 0.03972260750424081, 0
5774, 4.55928678437966, 0.12799997004534205, 0
5775, 4.65245546213229, 0.07259387449518753, 0
5776, 4.611364281899018, 0.19541184619058732, 0
5777, 4.653093386501553, 0.010756824442489425, 0
5778, 4.644467249292891, -0.08043884292578957, 0
5779, 4.847674799725127, 0.25403332588711564, 0
5780, 4.545426055517723, 0.1953245670007729, 0
5781, 4.681415786744078, 0.12129239989344104, 0
5782, 4.681848471042627, 0.1881902049502167, 0
5783, 4.758841606616939, 0.2540333258871157, 0
5784, 4.777634852717378, 0.1541203721658767, 0
5785, 4.723806421344272, 0.15446852584671678, 0
5786, 4.750319375592571, 0.09225496764953511, 0
5787, 4.870539687867342, -0.04873970772545359, 0
5788, 4.7973447078326705, 0.01060074328665174, 0
5789, 4.461050277692738, -0.056072280064142305, 0
5790, 4.398136197241138, -0.1329385761452087, 0
5791, 4.514829134939978, -0.1795241892776855, 0
5792, 4.5811752204005645, 0.2540333258871157, 0
5793, 4.396875365105053, -0.25403332588711613, 0
5794, 4.451402097920814, -0.16895776721175768, 0
5795, 4.561274813163158, -0.2540333258871162, 0
5796, 4.5149986879989, -0.1314516414607996, 0
5797, 4.315136925665341, -0.2008615682431393, 0
5798, 4.396014967472637, -0.1934704287426827, 0
5799, 4.596540611510217, -0.1803195452128296, 0
5800, 4.520174951148633, -0.22792249768088815, 0
5801, 4.602374675177684, -0.2284033889337001, 0
5802, 4.807873985250315, -0.25403332588711625, 0
5803, 4.611012095231132, -0.12582464313315075, 0
5804, 4.650269556328061, -0.19790848320647572, 0
5805, -3.632363577909228, -6.1941362212818385, 0
5806, -3.502041158695171, -6.0588295077052585, 0
5807, -3.5547118781170393, -6.110049225466655, 0
5808, 0.006597554307253228, 4.71053647158394, 0
5809, -0.018959813841031695, 4.661170818971849, 0
5810, -3.5156475641389546, -6.271768745116904, 0
5811, -3.538406482439223, -6.331988039691574, 0
5812, -3.4810410802261353, -6.399475191930627, 0
5813, -0.17042561737101092, 4.887290653920883, 0
5814, -0.11158918729441111, 4.619505743075251, 0
5815, -4.202280128875493, 6.180463010789978, 0
5816, -4.154963008736814, 6.154069464739871, 0
5817, -4.294264105115952, 6.093378323045125, 0
5818, -4.374545308277337, 6.0774117084190395, 0
5819, -4.3408734037523065, 6.117920055928556, 0
5820, -4.416244359706303, 6.009209830414742, 0
5821, -4.322204650901413, 6.024052321565904, 0
5822, -4.48323689164417, 6.016521900436909, 0
5823, -4.519662670285604, 5.967475044779097, 0
5824, -4.468369032724875, 5.917836226878353, 0
5825, -4.4543748633645155, 5.970407393958032, 0
5826, -4.366264296404085, 5.969645332481822, 0
5827, -4.25488617991131, 6.001376905748576, 0
5828, -4.19678731081647, 6.044257257420638, 0
5829, -4.135318735205191, 6.01375728682787, 0
5830, -4.145771878882148, 6.078359720649487, 0
5831, -4.238850080815103, 6.0820650340855105, 0
5832, -4.088291934687695, 6.0475240809450606, 0
5833, -4.01376342200037, 6.041768424362387, 0
5834, -4.037840186384022, 6.090954332548397, 0
5835, -3.7518986028671892, 6.1139671364803405, 0
5836, 3.116101494771956, -6.373578608974606, 0
5837, 3.9773185352591183, -6.207179439883341, 0
5838, 3.9139913423818458, -6.177033210859598, 0
5839, 6.225782256157808, -3.874993794939224, 0
5840, 6.16129301951266, -3.998035790000467, 0
5841, 6.038140177682668, -4.0132014968403995, 0
5842, 6.099594137092994, -4.00462419703728, 0
5843, 6.119371496733751, -3.897642553587745, 0
5844, 6.125397588858363, -3.954075489101456, 0
5845, 6.192461083251915, -3.935950544602681, 0
5846, 6.070072286351235, -3.9314450939760026, 0
5847, 6.06347862390473, -3.8689771768192567, 0
5848, 6.2150890099921625, -3.9861763525160896, 0
5849, 6.143065930672332, -3.7826184763291595, 0
5850, 6.091288045274917, -3.814753279305332, 0
5851, 6.083868752128918, -3.7450172737297684, 0
5852, 6.195681432497568, -3.6343847214864162, 0
5853, 6.126165827206354, -3.675946561155234, 0
5854, 6.199125934483527, -3.7190621471334646, 0
5855, 6.126323945814599, -3.5972948156329405, 0
5856, 6.174372680372722, -3.6776602877318743, 0
5857, 6.144822217187598, -3.7276655216898513, 0
5858, 6.22167307821638, -3.79545199735149, 0
5859, 6.285804743363376, -3.6731274626095014, 0
5860, 6.050999875621239, -3.623906658579234, 0
5861, 6.220838502876949, -3.503947824975233, 0
5862, 6.174412907777022, -3.8377705267961626, 0
5863, 6.28944327099392, -3.8318279878360153, 0
5864, 6.266156428188236, -3.7407999208381857, 0
5865, 6.331550995827179, -3.7114582147174704, 0
5866, 6.374691402058426, -3.7526998383742507, 0
5867, 6.231465383609018, -3.675337875020594, 0
5868, 6.128878230520127, -3.5053591899341336, 0
5869, 6.188046771314647, -3.565267799583114, 0
5870, 6.283569720256998, -3.576922149278207, 0
5871, 6.238066146617067, -3.552588463860563, 0
5872, 6.126552196555185, -3.849007613926029, 0
5873, 6.170345083225127, -3.889267187639184, 0
5874, 6.355471368290543, -3.8940873405314993, 0
5875, 6.269855589991994, -3.9622692590368183, 0
5876, 6.105857740375277, -3.5507228985498394, 0
5877, 6.288057781007151, -3.8983112612971818, 0
5878, 6.09014723557722, -3.007173341689762, 0
5879, 6.0715643034329485, -3.062290959574033, 0
5880, 6.109090571957103, -3.105812917050327, 0
5881, 6.1771407518060775, -3.100047594644292, 0
5882, 6.2484162409635555, -3.081330948167765, 0
5883, 6.1854205396790025, -3.0433842217177136, 0
5884, 6.314699938105654, -3.0321734515998555, 0
5885, 6.318921029093477, -2.9684503974861047, 0
5886, 6.256332185723476, -2.996305770072292, 0
5887, 6.344768898483291, -3.073645924381288, 0
5888, 6.366545044991651, -3.0054648273823443, 0
5889, 6.20626200776265, -2.9340283720921696, 0
5890, 6.377973910147672, -3.3529561510410715, 0
5891, 3.3721341283239084, 6.3404995914899684, 0
5892, 3.3533657600774727, 6.404045559275099, 0
5893, 3.315221518479218, 6.352253674992545, 0
5894, 3.8166310456449444, 6.260160971757605, 0
5895, 6.094020073320279, 3.6274935105440047, 0
5896, 6.157889761948507, 3.6341769085412667, 0
5897, 6.192547439810677, 3.7940790970701967, 0
5898, 6.1912200502961285, 3.7106598008736125, 0
5899, 6.288573827865427, 3.7045442183698345, 0
5900, 6.109180524152842, 3.7536854441102965, 0
5901, 6.119932624713388, 3.688387067721689, 0
5902, 6.2384503389843395, 3.684573625337247, 0
5903, 6.242658392776412, 3.751561509585392, 0
5904, 6.374691402058426, 3.75269983837425, 0
5905, 6.274047102654989, 3.8393450554426303, 0
5906, 6.3085212456039255, 3.7699525120249775, 0
5907, 6.340599726236437, 3.712585979611611, 0
5908, 6.161049831045533, 3.752860086222668, 0
5909, 6.348229535442585, 3.4457817438550276, 0
5910, 4.291797187238129, 6.035268844572505, 0
5911, -0.254033325887116, -5.547671501511784, 0
5912, -0.17861507451454015, -5.588771363526311, 0
5913, -0.22419857687115036, -5.506571639497259, 0
5914, -0.22752307200487093, -5.588771363526311, 0
5915, -0.16419545532064014, -5.7125495642560145, 0
5916, -5.5887713635263125, 0.17861507451453712, 0
5917, 0.020400464275820325, -5.789194550944462, 0
5918, -0.06456820996367488, -5.552508018535266, 0
5919, 0.07356819180233384, -5.754022988191263, 0
5920, -0.12856253334645873, -5.54871649905511, 0
5921, -0.09181096205547343, -5.4703660073904485, 0
5922, -0.0525113871092128, -5.335674190835505, 0
5923, -5.506571639497261, 0.22419857687114014, 0
5924, -5.547671501511786, 0.25403332588711586, 0
5925, 0.00036679722589751107, -5.485383449824024, 0
5926, -0.04964780707565931, -5.501971008942275, 0
5927, -0.14201612814894507, -5.4633239459384235, 0
5928, -5.712549564256026, 0.16419545532064556, 0
5929, 4.216065549918872, 6.044021402693106, 0
5930, -5.789194550944481, -0.020400464275817265, 0
5931, -5.552508018535284, 0.06456820996366304, 0
5932, -5.7540229881912826, -0.07356819180233153, 0
5933, -5.548716499055119, 0.12856253334644824, 0
5934, -5.470366007390421, 0.0918109620554488, 0
5935, -5.335674190835512, 0.0525113871092496, 0
5936, 4.252038713095898, 5.98583457737142, 0
5937, 4.342803814452978, 6.083532789482417, 0
5938, -5.485383449824046, -0.00036679722591483055, 0
5939, -5.501971008942284, 0.04964780707565352, 0
5940, -5.463323945938402, 0.14201612814893477, 0
5941, 4.118589466507968, 6.141005861193835, 0
5942, 4.130047898937795, 5.982471277945334, 0
5943, 4.181318413874076, 6.106575459047058, 0
5944, 4.2114491598867, 6.20197373863458, 0
5945, 4.129505892716474, 6.086536245016536, 0
5946, 4.055705714265245, 6.100074425994282, 0
5947, 4.214650443588597, 6.148505228615752, 0
5948, 4.266894869733471, 6.178463312726479, 0
5949, 4.296351430018547, 6.2873863205771485, 0
5950, 4.360575935077173, 6.217284292076727, 0
5951, 4.259784825437541, 6.2388306572362815, 0
5952, 4.107943887288855, 6.03439004764629, 0
5953, 4.007642182325082, 6.00224471353801, 0
5954, 3.9557511520558424, 6.060599837810286, 0
5955, 4.046074059364585, 6.0440848254890795, 0
5956, 6.140334362212918, 4.1357594622696805, 0
5957, 6.131647519436299, 4.186164377465795, 0
5958, 6.0596332083987186, 4.118247851775817, 0
5959, 6.191394486283192, 4.101301002259872, 0
5960, 6.253871439601034, 4.016909287036626, 0
5961, 6.209686260640559, 4.049520429926259, 0
5962, 6.178635775155751, 3.961210749769666, 0
5963, 6.1872755772875045, 4.161669046702938, 0
5964, 6.094706194522814, 4.151325101683525, 0
5965, 6.028810712300299, 4.169720698136647, 0
5966, 5.982471277945334, 4.130047898937795, 0
5967, 6.07048254161546, 4.032412642081197, 0
5968, 6.108655278017316, 4.0870416291239176, 0
5969, 6.041750598021031, 4.072384271549682, 0
5970, 6.00224471353801, 4.007642182325082, 0
5971, 6.123418514270654, 3.9950790966173817, 0
5972, 6.067099811309307, 3.97141994771954, 0
5973, 6.021132358415861, 3.8804204630371926, 0
5974, 6.121724824536485, 3.930371884107455, 0
5975, 6.144155240411413, 3.855480154146798, 0
5976, 6.0801719719421605, 3.8557575430303013, 0
5977, 6.066969420644389, 3.914376078071764, 0
5978, 6.0829115163745096, 3.801377995821241, 0
5979, 6.0380841324977155, 3.7508582695027965, 0
5980, 6.21040702832146, 3.857925101381214, 0
5981, 6.265166437842787, 3.927206647429266, 0
5982, 6.175545610536798, 3.90373086422472, 0
5983, 6.137203131645008, 3.8016348789472016, 0
5984, 6.355471368290543, 3.8940873405314984, 0
5985, 6.31533433956294, 3.9243223599945134, 0
5986, 6.3237930100767015, 3.853279264146096, 0
5987, 6.290979716899307, 3.9760193828139507, 0
5988, 6.3340171490744455, 4.033123074445733, 0
5989, 4.590289572500225, -0.06177302074309231, 0
5990, 4.8032582031710325, 0.21066397267740336, 0
5991, 4.93702710749335, 0.1159675810353558, 0
5992, 4.87969548956222, 0.17681018932516812, 0
5993, 4.847650646902328, 0.08918160920745605, 0
5994, 4.799514810416997, 0.10749668498806124, 0
5995, 4.936507992833314, 0.2540333258871156, 0
5996, 4.885627829185864, 0.12496727596272468, 0
5997, 4.926695508243488, 0.16366509893959, 0
5998, 5.114174379049689, 0.2540333258871156, 0
5999, 5.018649882433542, 0.15861532180606414, 0
6000, 4.89209139627922, 0.22720045261326083, 0
6001, 4.728738814174392, -0.0480722730632325, 0
6002, 4.725674261221263, -0.25403332588711625, 0
6003, 4.743553527157907, -0.151296030970342, 0
6004, 4.766774123235789, -0.20826149006530437, 0
6005, 4.866778672590333, -0.1598027963420429, 0
6006, 4.8048928262033845, -0.15950793212329686, 0
6007, 4.836104887746906, -0.10316884084672072, 0
6008, 4.810029649153175, -0.048565020163418036, 0
6009, 4.775044039547219, -0.09879970583127176, 0
6010, 0.04171877082270275, 4.669021537799346, 0
6011, 0.10282422163596022, 4.829088982330737, 0
6012, 0.1704441840341076, 4.765706855866999, 0
6013, 0.2015886670177352, 4.723452886475106, 0
6014, -0.12579396477633847, 4.802843724867327, 0
6015, -0.1317750892214245, 4.677552307568582, 0
6016, -0.07243457096208088, 4.748208957113305, 0
6017, -0.11868630210701817, 4.726806471582242, 0
6018, 0.005426553940022899, 4.809815820822664, 0
6019, -0.018372440426633836, 4.759888530981284, 0
6020, -0.2540333258871158, 4.758841606616939, 0
6021, -0.2540333258871158, 5.203007572157876, 0
6022, -0.05424126602797102, 4.829534435940401, 0
6023, 0.024685459082118465, 4.968228220836324, 0
6024, -0.032476053585740114, 4.908952846949626, 0
6025, 0.04717100834965576, 4.889345340094307, 0
6026, -0.1063525779933551, 5.037394012757853, 0
6027, -0.0012902900318470314, 4.8640618791572185, 0
6028, 0.05069782927790127, 4.8367737011794825, 0
6029, 0.0652317668185225, 4.760874642978761, 0
6030, 0.15111804289243655, 4.929522545848698, 0
6031, -0.1049996427289202, 4.9527055350191915, 0
6032, 0.11722264278050484, 4.776688469381564, 0
6033, 0.1070955190359458, 4.888863020438951, 0
6034, 0.0890354124238178, 4.952578502966022, 0
6035, 0.003988089276701939, 5.355017749664115, 0
6036, -0.01664076051892934, 5.279901760627899, 0
6037, 0.1388871281986333, 4.9917011714301855, 0
6038, 0.19449634614169123, 4.970347583063485, 0
6039, -0.08090678047543828, 4.910658209801574, 0
6040, -0.0419286632027232, 4.975267564960885, 0
6041, -0.2540333258871158, 4.847674799725127, 0
6042, -0.2540333258871158, 5.380673958374251, 0
6043, -0.12886013555060166, 4.994679399002966, 0
6044, 0.08791276573155227, 5.579395890166972, 0
6045, -0.2012186468728, 4.668373311397905, 0
6046, -0.10547860017702919, 4.857637027703617, 0
6047, -0.2540333258871158, 5.114174379049689, 0
6048, 0.0722879656923235, 5.0261763941959305, 0
6049, -0.1824853172382098, 4.759193615952911, 0
6050, -0.18744678417686472, 4.824276912826591, 0
6051, -0.21806337371973172, 4.719190037047223, 0
6052, -0.12300130700452314, 5.17119966554518, 0
6053, -0.18169798281158267, 5.049808425561683, 0
6054, -0.13442961457649855, 5.101839118735262, 0
6055, 0.25403332588711586, 5.301072329424629, 0
6056, -0.1902452520810745, 5.146657452061159, 0
6057, -0.07717645514211877, 5.128027480879519, 0
6058, -0.00139505476280994, 5.0401335403189025, 0
6059, 0.22157476324076414, 5.054473157337473, 0
6060, -0.2048999428005643, 5.096562447124816, 0
6061, 0.011944994479957354, 5.128251222592638, 0
6062, -0.06505158659026777, 5.18680369555106, 0
6063, -0.12156445594512175, 5.28127141024453, 0
6064, -0.10669022553994392, 5.226031994976006, 0
6065, -0.18355536567208514, 5.234956927613853, 0
6066, -0.05466407710264239, 5.069040459837894, 0
6067, -0.2540333258871158, 5.2918407652660635, 0
6068, -0.2067020116930825, 5.192307438187995, 0
6069, -0.06419677444578942, 5.49569112462438, 0
6070, -0.23168775205374342, 5.24742416871197, 0
6071, -0.18644905100139328, 5.3034740328656635, 0
6072, -0.11875122876570156, 5.395402912320433, 0
6073, -0.2268853922448365, 5.336257361820158, 0
6074, -0.18674687626951658, 5.391295346112082, 0
6075, -0.13812678971042922, 5.338780077831947, 0
6076, -0.004550141287306769, 5.432445521630093, 0
6077, 0.09894094751408808, 5.667497720007351, 0
6078, -0.16308056715564803, 5.514999622191156, 0
6079, 6.1437020416263355, -4.05197701495446, 0
6080, 6.319938138259276, -3.4764155392721063, 0
6081, 6.317190917958983, -3.7762369127466946, 0
6082, 6.173860651033566, -3.4396453720983104, 0
6083, 6.132784170824129, -3.3687849327468897, 0
6084, 6.1242980639440265, -3.313461055105496, 0
6085, 6.17943276457509, -3.3267875847634985, 0
6086, 6.117875050930257, -3.4495747023342993, 0
6087, 6.061573028749776, -3.3852617698506107, 0
6088, 6.0588295077052585, -3.502041158695172, 0
6089, 6.389690472858403, -3.6141524396583957, 0
6090, 6.343587354468288, -3.5757064138070396, 0
6091, 6.332996988874981, -3.6352716365461837, 0
6092, 3.8370815937865337, 6.205119405040458, 0
6093, 3.7572076875840468, 6.21236248193811, 0
6094, 3.7046749108641572, 6.2008824749837235, 0
6095, 0.11449252635906763, -5.3116289949599, 0
6096, -0.0825062840018389, -5.400001664783725, 0
6097, -0.039787500575879355, -5.441447989593443, 0
6098, 0.09569999339132321, -5.642577654906933, 0
6099, -5.311628994959859, -0.11449252635903481, 0
6100, -5.400001664783708, 0.08250628400188123, 0
6101, -5.441447989593384, 0.03978750057582916, 0
6102, -5.642577654906956, -0.09569999339132128, 0
6103, 4.167211104274749, 6.3113221331699805, 0
6104, 4.209456393063615, 6.253640166514837, 0
6105, 4.1300791076141605, 6.2247069515232125, 0
6106, 4.127229448140393, 6.277195451731601, 0
6107, 4.018942405091908, 6.246290198069776, 0
6108, 4.160847222028709, 6.177844279074864, 0
6109, 4.035325480588162, 6.17267980549689, 0
6110, 4.088713200161945, 6.187746109738406, 0
6111, 3.965617751027104, 6.195793668542372, 0
6112, 3.9456135056095025, 6.2703221285110935, 0
6113, 3.882074344087439, 6.253156298914198, 0
6114, 3.9339718785795195, 6.153695925264608, 0
6115, 3.8940873405314984, 6.355471368290543, 0
6116, 3.851400686637977, 6.311033145863792, 0
6117, 6.262226700734512, 4.084428894029258, 0
6118, 6.231456512217596, 3.968524458526703, 0
6119, 4.866837300226627, 0.021505813731821987, 0
6120, 5.0032213665139365, -0.006526205352959662, 0
6121, 4.902636985425966, 0.06821300950760228, 0
6122, 4.93482018578738, 0.006472239321059356, 0
6123, 4.98048898075357, 0.060321678329725466, 0
6124, 5.054936051600444, 0.04834910896336244, 0
6125, 4.990545394921029, 0.11297193491919984, 0
6126, 4.848973847264841, -0.21419907109810854, 0
6127, 5.043710155592356, 0.10155461776665177, 0
6128, 5.380673958374251, 0.25403332588711547, 0
6129, 5.059487807354291, -0.0077461870947631364, 0
6130, 5.301072329424629, -0.2540333258871164, 0
6131, 5.203007572157876, 0.2540333258871155, 0
6132, 5.1354471300813325, 0.08467565292608611, 0
6133, 4.980924589387408, 0.20920447376863982, 0
6134, 4.74509264849723, 0.0022519903095076406, 0
6135, 4.6763056268055525, -0.03744460980959384, 0
6136, 4.702087647936966, -0.10457224414892449, 0
6137, 4.6887160308766775, -0.1582008501700329, 0
6138, 0.18230717806810598, 4.8461246665303985, 0
6139, 0.2540333258871158, 4.890073709279367, 0
6140, 0.20469851415095217, 4.801737661878192, 0
6141, 0.1987443521368224, 4.899802835500948, 0
6142, 0.14089300211553318, 4.714515046174049, 0
6143, -0.2540333258871158, 4.936507992833314, 0
6144, -0.19851553942498823, 4.980804353453979, 0
6145, -0.20235371603845265, 4.928675713833014, 0
6146, 0.25403332588711586, 5.136672881366525, 0
6147, -0.09056626109278577, 5.445053228751651, 0
6148, -0.0709398594806703, 5.376319480762603, 0
6149, 0.1328304472812354, 5.137024400410277, 0
6150, 0.044003446942753426, 5.078329315405129, 0
6151, 0.1073918572532982, 5.078960921140656, 0
6152, 0.07244502801393439, 5.131848177584728, 0
6153, 0.09314869914627055, 5.245134685812497, 0
6154, 0.038236258093581325, 5.19663510331391, 0
6155, 0.0982461688399049, 5.185667994553927, 0
6156, 0.25403332588711586, 5.2188726053955765, 0
6157, 0.16876395096945407, 5.086677048699421, 0
6158, 0.1934476704360721, 5.142290873163854, 0
6159, 0.03579090193220511, 5.254740208004196, 0
6160, -0.01197753571171125, 5.17669460362168, 0
6161, -0.044222709914765373, 5.327867108136139, 0
6162, 0.15168367905756486, 5.460546008330463, 0
6163, 0.02268087947735875, 5.517876002531602, 0
6164, 0.06809942536338284, 5.401272186602301, 0
6165, 0.07663216588555836, 5.32256301283338, 0
6166, -0.014609878617253387, 5.482707262524933, 0
6167, 0.25403332588711586, 5.465471777482734, 0
6168, 0.16292989285963194, 5.300495745775543, 0
6169, 0.11173578492444916, 5.366185639731116, 0
6170, 0.02672518149454411, 5.308382928882454, 0
6171, 0.04375357690949608, 5.464103873516988, 0
6172, 0.09726973851220713, 5.448707593454627, 0
6173, 0.11125732950398695, 5.515388188779501, 0
6174, 0.25403332588711586, 5.547671501511786, 0
6175, 0.1711449197837431, 5.517212686099541, 0
6176, 0.11430741524620999, 5.290123898680052, 0
6177, 0.25403332588711586, 5.383272053453682, 0
6178, 0.1612574978902149, 5.351985898298849, 0
6179, -0.2540333258871158, 5.469507151482438, 0
6180, 6.3448905646043885, -3.423334289704656, 0
6181, 6.262676400268196, -3.4284575431227617, 0
6182, 6.22085957225485, -3.4546207517905083, 0
6183, 6.267724662804795, -3.480594119508117, 0
6184, 6.399475191930628, -3.4810410802261362, 0
6185, 0.049874195872490874, -5.158361720732092, 0
6186, 0.027392676517761543, -5.576498480061639, 0
6187, -5.158361720732123, -0.04987419587245587, 0
6188, -5.576498480061661, -0.02739267651776802, 0
6189, 5.075510301854712, 0.14955421777276096, 0
6190, 5.208324740010115, 0.03256324852001341, 0
6191, 4.955402447188953, -0.07169015533110978, 0
6192, 4.931173571293893, -0.22066461860698533, 0
6193, 4.918544967190962, -0.03960459251896057, 0
6194, 4.9007623845524515, -0.10535838767355447, 0
6195, 4.941799444905688, -0.1688017215306906, 0
6196, 5.16419737804615, 0.17136105455676037, 0
6197, 4.890073709279367, -0.25403332588711625, 0
6198, 5.125877462697954, 0.13595992955790542, 0
6199, 0.20873990133102138, 5.259972467410103, 0
6200, 0.15506013161280205, 5.220489895568496, 0
6201, 0.20416093091455503, 5.196071607170406, 0
6202, 0.14166303883522513, 5.564545896978842, 0
6203, 0.19188993329391443, 5.5887713635263125, 0
6204, 0.2220956802594902, 5.506571639497261, 0
6205, 0.2540333258871159, 6.287469017773257, 0
6206, -0.16368958284268578, 5.7152555721824445, 0
6207, -0.1904873246322349, 5.456126926030229, 0
6208, 0.1310305289152171, 5.63076187120646, 0
6209, -0.10472273057836722, 5.551006201326225, 0
6210, -0.032847709201275804, 5.757361024136792, 0
6211, 0.050239733283839155, 5.76674885993674, 0
6212, 0.2540333258871159, 5.958670121657049, 0
6213, 0.25403332588711586, 5.794270673598944, 0
6214, -0.015842240931282496, 5.6413201597676315, 0
6215, -0.07437184698372734, 5.637439037799492, 0
6216, -0.003201064050989584, 5.702439173730525, 0
6217, -0.08143705757352365, 5.69567013509044, 0
6218, 0.05084096100653949, 5.659394935325824, 0
6219, 0.03074431842703839, 5.6014929720450555, 0
6220, -0.038270751444660064, 5.567924986749651, 0
6221, 0.1248530722538669, 5.753487952452019, 0
6222, 0.06071146567501723, 5.713128860229093, 0
6223, -0.0975779684942892, 5.758363697897632, 0
6224, 0.026972971137425313, -5.420750045177311, 0
6225, -0.2540333258871158, 6.4466722756725, 0
6226, -0.13861985544385483, 5.467796906346237, 0
6227, -0.2540333258871158, 5.558340344590626, 0
6228, 0.19035269476325278, 5.651642227508918, 0
6229, 0.25403332588711586, 5.712070949569892, 0
6230, -0.06082376361957851, -5.198617701525911, 0
6231, 0.0023403211241581692, 5.818306256480565, 0
6232, 0.1065605911199338, 5.867102945699973, 0
6233, -0.00907412942966454, -5.212165563449522, 0
6234, 0.06228592573063602, 5.825969556741683, 0
6235, 0.21623002842983136, 5.342172191439156, 0
6236, -0.0026517897810867733, -5.160007706965585, 0
6237, 0.1384623389891098, 5.702487693064519, 0
6238, 0.18661635109490943, 5.782833422221696, 0
6239, 0.18034234949886407, 5.871072076674021, 0
6240, 0.13429346930059066, 5.813287974165969, 0
6241, 0.25403332588711586, 5.876470397627996, 0
6242, 0.05358339929526874, 5.911073603369864, 0
6243, 0.13901703026332676, 5.960107053755886, 0
6244, -0.2540333258871158, 6.09133950323975, 0
6245, 0.10544446695956662, 5.919657803723247, 0
6246, 0.25403332588711497, -5.203007572157876, 0
6247, 0.0032134611215376106, -5.328511240936956, 0
6248, 0.05240902107750428, -5.355647258371506, 0
6249, -0.02045372283157313, -5.277556055083906, 0
6250, 0.20471797964200714, 5.424371915468209, 0
6251, 0.06052947007868477, -5.257963757620449, 0
6252, -0.020550146141139432, -5.385481664467166, 0
6253, 0.042537297010692365, -5.209517571944916, 0
6254, 0.14678635582353683, -5.198365166410945, 0
6255, 0.20302671333017724, -5.376032098970824, 0
6256, 0.1588988355633411, -5.7163527066668705, 0
6257, -0.10062682882238225, -5.619162665757568, 0
6258, 0.009650838284008187, -5.726359118122908, 0
6259, 0.09487327034163982, -5.575087371917326, 0
6260, 0.06012462486055542, -5.517224141742645, 0
6261, -5.21216556344951, 0.009074129429718053, 0
6262, -5.1600077069655805, 0.002651789781117575, 0
6263, -5.198617701525901, 0.060823763619643825, 0
6264, -5.277556055083917, 0.020453722831573096, 0
6265, -5.355647258371564, -0.052409021077469406, 0
6266, -5.420750045177379, -0.026972971137487874, 0
6267, -5.257963757620373, -0.060529470078602834, 0
6268, -5.328511240936987, -0.0032134611215105663, 0
6269, -5.385481664467103, 0.02055014614101467, 0
6270, -5.203007572157876, -0.25403332588711547, 0
6271, -5.209517571944893, -0.04253729701059386, 0
6272, -5.198365166411013, -0.1467863558229377, 0
6273, -5.3760320989704296, -0.20302671333014455, 0
6274, -5.716352706666893, -0.15889883556333823, 0
6275, -5.619162665757584, 0.10062682882238064, 0
6276, -5.726359118122927, -0.009650838284008083, 0
6277, -5.575087371917352, -0.09487327034164321, 0
6278, -5.517224141742674, -0.06012462486055986, 0
6279, 5.136672881366525, -0.25403332588711636, 0
6280, 5.0298989746963425, -0.07427008606550312, 0
6281, 4.999792628246314, -0.13453058650574456, 0
6282, 5.054473157337473, -0.25403332588711636, 0
6283, 4.97979312167275, -0.20328102450971425, 0
6284, 5.162572965119716, -0.09343920339423456, 0
6285, 5.046524439732594, -0.18540902113148885, 0
6286, 5.098940434261441, -0.06513640791323957, 0
6287, 5.071712322889159, -0.12482813870360081, 0
6288, 5.15706795492516, -0.020132809400497817, 0
6289, 5.121145006097968, -0.18090756342390152, 0
6290, 5.154219840445653, 0.03391395563215598, 0
6291, 5.095573019351999, -0.22454915478860216, 0
6292, 5.17777274338105, -0.2110248876900326, 0
6293, 5.123889016947868, -0.12866220147932336, 0
6294, 5.18013699681888, -0.15158302769686655, 0
6295, 5.3154375618470135, -0.07898678517708782, 0
6296, 5.240463314242254, -0.10163493530042575, 0
6297, 5.224552635210868, -0.03449785898864194, 0
6298, 5.2188726053955765, -0.25403332588711636, 0
6299, 5.300775999164433, -0.16587240772911674, 0
6300, 5.2865542038484605, -0.11879269492267518, 0
6301, 5.240010555612868, -0.1624926146895716, 0
6302, 5.465471777482734, -0.25403332588711647, 0
6303, 5.419878506126904, -0.14129057843379578, 0
6304, 5.355550088452484, -0.13043544382921887, 0
6305, 5.378547682882142, -0.19018511967732682, 0
6306, 5.383272053453682, -0.25403332588711647, 0
6307, 5.438822554270406, -0.19921994212297073, 0
6308, 5.547671501511786, -0.25403332588711647, 0
6309, 5.4865736264153595, -0.15154217557291327, 0
6310, 5.480842422097765, 0.03325086399248495, 0
6311, 5.466558551244717, -0.059677532607658804, 0
6312, 5.390080611428678, -0.06215191132303377, 0
6313, 5.329712089262865, -0.20985610359971738, 0
6314, 5.5887713635263125, -0.160075873723337, 0
6315, 5.50657163949726, -0.2090774553846934, 0
6316, 5.4293430401240075, -0.09254772101023168, 0
6317, 5.42654171808062, -0.0059646376251762945, 0
6318, 5.377317960425318, 0.11939639319686411, 0
6319, 5.418021993153778, 0.06303455814904012, 0
6320, 5.543822065488386, 0.10449708263569842, 0
6321, 5.315488751728329, 0.03186490144628834, 0
6322, 5.558340344590626, 0.25403332588711547, 0
6323, 5.361411149815177, 0.06502966254944231, 0
6324, 5.290092392966773, 0.11540675784395645, 0
6325, 5.261761987347844, 0.010000329891532163, 0
6326, 5.254917259544654, 0.06835044669752913, 0
6327, 5.2212738645659815, 0.13017433495519118, 0
6328, 5.36465282429592, -0.005727456782673952, 0
6329, 5.489521090829627, 0.15754956058804775, 0
6330, 5.5887713635263125, -0.21604376787392143, 0
6331, 5.2918407652660635, 0.25403332588711547, 0
6332, 5.634528093459959, -0.007740931698270545, 0
6333, 5.439272428310056, 0.12126040850450548, 0
6334, 5.218320171761145, 0.18622272160180603, 0
6335, 5.562531150641361, 0.0309230967540408, 0
6336, 5.469507151482438, 0.25403332588711547, 0
6337, 5.6160886629470825, 0.08124412244740657, 0
6338, 5.3313671357147205, 0.16851826496642136, 0
6339, 5.273793765800264, 0.170666721104638, 0
6340, 5.247424168711969, 0.2284290219644354, 0
6341, 5.52019229340695, -0.020359513381301042, 0
6342, 5.406318324882753, 0.1860338145962333, 0
6343, 5.425090554928344, 0.23194863696643928, 0
6344, 5.606037415681158, 0.17392957734482384, 0
6345, 5.54813276919875, 0.16322489641706708, 0
6346, 5.590405047785101, 0.12534659999816342, 0
6347, 5.069757782495595, 0.21107669262377304, 0
6348, 5.158590975603782, 0.22443874679140477, 0
6349, -0.2540333258871158, 5.647173537698813, 0
6350, -0.17697707595311465, 5.60281761770334, 0
6351, -0.2193959610370042, 5.513923748036532, 0
6352, 0.19607350191932904, 5.7093816912257, 0
6353, 0.21344867566951137, 5.829083647707666, 0
6354, 0.213979287712137, 5.917570259642522, 0
6355, -0.01996545022226081, 6.138166281097326, 0
6356, 0.12105290830791576, -5.387450697199461, 0
6357, 0.16885184014219393, -5.430644770667353, 0
6358, 0.25403332588711497, -5.2918407652660635, 0
6359, 0.25403332588711497, -5.469507151482438, 0
6360, 0.15708052012268411, -5.346138785535665, 0
6361, 0.12012669055188178, -5.251999680920009, 0
6362, 0.19228560619054552, -5.254424110207246, 0
6363, 0.2006648683882568, -5.310254679375607, 0
6364, -0.030114749016336182, -5.608688789830455, 0
6365, 0.024356261344725266, -5.656953792234212, 0
6366, 0.2540333258871149, -6.4466722756725, 0
6367, -0.031297968778364965, -5.801550558366523, 0
6368, -0.2540333258871162, -5.958670121657047, 0
6369, -0.25403332588711625, -6.287469017773256, 0
6370, 0.06706359870176194, -5.684680302516843, 0
6371, -0.05515429859511263, -5.682705039874284, 0
6372, 0.10769454519036974, -5.715845393668921, 0
6373, 0.25403332588711497, -6.09133950323975, 0
6374, 0.25403332588711497, -5.913673117023375, 0
6375, -0.04487320801576074, -5.7373717461777884, 0
6376, -0.16622696333389458, -5.6482356032877465, 0
6377, -0.11179897908647066, -5.675199572576258, 0
6378, 0.07502669748355319, -5.9401321692917035, 0
6379, -0.004920401847631345, -5.847698395395865, 0
6380, -0.03876022329109819, -5.892847115439092, 0
6381, -0.0800795267414904, -5.780437564681061, 0
6382, 0.08409881987361369, -5.851495081909076, 0
6383, -0.02767606636986361, -5.948170545396144, 0
6384, -0.08738125942241236, -5.864219588784055, 0
6385, -0.1957326368591139, -5.936268849722331, 0
6386, 0.02328417278807597, -5.904094412504592, 0
6387, -0.25403332588711613, -5.794270673598942, 0
6388, -0.16789657729035348, -5.776789071542427, 0
6389, 0.25403332588711497, -5.558340344590626, 0
6390, -5.387450697199475, -0.12105290830793083, 0
6391, -5.430644770666699, -0.16885184014236826, 0
6392, -5.2918407652660635, -0.25403332588711547, 0
6393, -5.469507151482438, -0.25403332588711547, 0
6394, -5.346138785535643, -0.15708052012251836, 0
6395, -5.2519996809201, -0.12012669055166673, 0
6396, -5.254424110207064, -0.19228560619048574, 0
6397, -5.310254679375515, -0.20066486838813968, 0
6398, -5.608688789830475, 0.030114749016329427, 0
6399, -5.6569537922342334, -0.02435626134472632, 0
6400, -6.4466722756725, -0.2540333258871155, 0
6401, -5.801550558366541, 0.031297968778368906, 0
6402, -5.958670121657049, 0.2540333258871159, 0
6403, -6.287469017773257, 0.2540333258871159, 0
6404, -5.684680302516864, -0.06706359870176068, 0
6405, -5.6827050398743015, 0.055154298595112665, 0
6406, -5.715845393668942, -0.10769454519036772, 0
6407, -6.09133950323975, -0.25403332588711547, 0
6408, -5.913673117023375, -0.25403332588711547, 0
6409, -5.737371746177807, 0.04487320801576182, 0
6410, -5.648235603287755, 0.16622696333389753, 0
6411, -5.675199572576273, 0.11179897908647038, 0
6412, -5.940132169291722, -0.07502669748355285, 0
6413, -5.847698395395885, 0.004920401847636022, 0
6414, -5.892847115439116, 0.03876022329110313, 0
6415, -5.780437564681079, 0.0800795267414946, 0
6416, -5.851495081909096, -0.08409881987360678, 0
6417, -5.948170545396172, 0.027676066369869814, 0
6418, -5.8642195887840725, 0.08738125942241715, 0
6419, -5.93626884972234, 0.19573263685911313, 0
6420, -5.904094412504613, -0.023284172788072717, 0
6421, -5.794270673598944, 0.25403332588711586, 0
6422, -5.776789071542441, 0.16789657729035415, 0
6423, -5.558340344590626, -0.25403332588711547, 0
6424, 5.259972467410103, -0.2153129523025058, 0
6425, 5.190461919052953, 0.0845973984295727, 0
6426, 5.680869329824794, 0.048264903047253685, 0
6427, 5.766809985313244, -0.07395412110685642, 0
6428, 5.487947721968232, 0.09042920133917544, 0
6429, 5.336257361820158, 0.22267097960312213, 0
6430, 5.542665168221795, -0.09601784157738519, 0
6431, 5.538345559762219, -0.14774854519408526, 0
6432, 5.6225101319380695, -0.0871705337806309, 0
6433, 5.493072914104764, -0.10201341765905458, 0
6434, 5.580240792420124, -0.04015106319255353, 0
6435, 5.695886590279637, -0.09395388400285867, 0
6436, 5.958670121657049, -0.25403332588711663, 0
6437, 5.636864050017911, -0.13807256734724369, 0
6438, 6.287469017773257, -0.2540333258871167, 0
6439, 5.647173537698813, 0.25403332588711547, 0
6440, 5.5139237480365315, 0.21304817734041673, 0
6441, -0.2166803749090581, 5.691590134252907, 0
6442, -0.2283064361832775, 5.602756941144719, 0
6443, -0.12061427646904406, 5.6051317897975546, 0
6444, -0.150962444739746, 5.656747416901273, 0
6445, 0.04075228046914736, 6.032374496993417, 0
6446, 0.06978925347340725, 5.974116926582901, 0
6447, 0.25403332588711497, -5.647173537698813, 0
6448, 0.08197420144261117, -5.0854489404873044, 0
6449, 0.034586713221272464, -5.108108936429132, 0
6450, 0.11306779508841405, -5.142660398554517, 0
6451, 0.09344789515614085, -5.192593934668442, 0
6452, 0.1611693223145893, -5.904166164644709, 0
6453, 0.14300312624424397, -5.795826318410985, 0
6454, 0.09241109838580985, -5.801292147741495, 0
6455, 0.14030661967954194, -5.851971420690745, 0
6456, 0.25403332588711497, -5.824839923915188, 0
6457, 0.1943124606520098, -5.826427879653656, 0
6458, 0.21063161429583951, -5.879319736649756, 0
6459, -0.14031425863666358, -5.96507146558663, 0
6460, -0.08777360544978555, -5.931439123186595, 0
6461, 0.04074753864230965, -6.1622755746259035, 0
6462, -0.09637458734800095, -5.725703351189571, 0
6463, -5.647173537698813, -0.25403332588711547, 0
6464, -5.085448940487338, -0.0819742014426581, 0
6465, -5.10810893642914, -0.03458671322130434, 0
6466, -5.142660398554514, -0.11306779508821777, 0
6467, -5.192593934668169, -0.09344789515576457, 0
6468, -5.904166164644723, -0.1611693223145877, 0
6469, -5.795826318411008, -0.1430031262442406, 0
6470, -5.801292147741515, -0.09241109838580587, 0
6471, -5.851971420690765, -0.14030661967953245, 0
6472, -5.824839923915188, -0.25403332588711547, 0
6473, -5.826427879653684, -0.19431246065200772, 0
6474, -5.879319736649777, -0.21063161429583294, 0
6475, -5.965071465586644, 0.1403142586366679, 0
6476, -5.931439123186618, 0.08777360544978756, 0
6477, -6.162275574625915, -0.04074753864232339, 0
6478, -5.725703351189589, 0.09637458734800314, 0
6479, 5.714828445952549, 0.13883965931401623, 0
6480, 5.712517575660309, -0.01717630911220494, 0
6481, 5.741069812630859, -0.1184285885659884, 0
6482, 5.75501634173599, -0.16788593454625822, 0
6483, 5.794270673598944, -0.2540333258871166, 0
6484, 0.136283548133225, -5.466478612661932, 0
6485, 5.66922433676278, -0.047988478167993676, 0
6486, 5.765161122542159, 0.04865617821328838, 0
6487, 5.668702852418972, 0.10447997940445468, 0
6488, 5.774202425580146, -0.012538470992600114, 0
6489, 5.888597823267829, -0.057460673478616664, 0
6490, 5.825559476456869, -0.04987291347839939, 0
6491, 5.846395857822159, -0.14241835514091508, 0
6492, 5.8688906028532, 0.044465723777003044, 0
6493, 0.1978225887213183, -5.479929287747392, 0
6494, 6.015400518569418, -0.12303495799156614, 0
6495, 6.4466722756725, 0.2540333258871152, 0
6496, 5.722849424894492, 0.08417885116072468, 0
6497, 5.60275694114472, 0.22622852227102777, 0
6498, 5.816151801042467, 0.02492464337421601, 0
6499, 5.862375348388823, -0.009662354928077196, 0
6500, 0.15093164285727032, -5.512632607044101, 0
6501, 6.09133950323975, 0.2540333258871153, 0
6502, 6.201175423618863, -0.08522853825568627, 0
6503, 5.949894776354186, 0.0072593130982158, 0
6504, 0.14696246343847302, -5.565455856967335, 0
6505, 0.15133458498197255, -5.658875633086643, 0
6506, 0.10833187787898356, -5.898758182762039, 0
6507, 0.1596059027044977, -6.021565237019886, 0
6508, 0.19858692879373516, -5.7643184275246, 0
6509, 0.03173832314239937, -6.047168826699461, 0
6510, -5.512632607044113, -0.1509316428580399, 0
6511, -5.466478612661796, -0.1362835481335688, 0
6512, -5.565455856967319, -0.14696246343849795, 0
6513, -5.479929287746632, -0.19782258872134678, 0
6514, -5.658875633086666, -0.15133458498196978, 0
6515, -5.898758182762057, -0.10833187787898174, 0
6516, -6.021565237019895, -0.15960590270449915, 0
6517, -5.764318427524623, -0.1985869287937408, 0
6518, -6.047168826699477, -0.031738323142404004, 0
6519, 5.691590134252906, 0.20265564926700527, 0
6520, 5.712070949569892, -0.2540333258871166, 0
6521, 5.670971087555365, -0.19832056134587706, 0
6522, 5.753170811584418, -0.22074398148858232, 0
6523, 5.811570228521489, -0.1941334241940455, 0
6524, 5.876470397627996, -0.2540333258871166, 0
6525, 5.917570259642522, -0.18309974768659698, 0
6526, 5.865805125009421, -0.2004800311526623, 0
6527, 6.1230695697151525, -0.25403332588711663, 0
6528, 5.906745421469812, -0.11943589443186828, 0
6529, 5.960349603975316, -0.14307372011183073, 0
6530, 6.0408698456861005, -0.25403332588711663, 0
6531, 5.963938063543748, -0.0672941084701475, 0
6532, 5.962515832676963, -0.20443137616887136, 0
6533, 6.086714652809793, -0.005567897952532833, 0
6534, 6.081969707700626, -0.17806737686422225, 0
6535, 6.016462793371016, -0.0188009195489304, 0
6536, 6.0627419503498885, -0.07139499402895107, 0
6537, 6.028549903644048, 0.11012476255911714, 0
6538, 6.069623163723034, -0.12522374991318402, 0
6539, 6.144622987699215, -0.13556472072198752, 0
6540, 6.133789547884237, -0.05999018280214169, 0
6541, 6.0039932868938655, 0.04739756806950947, 0
6542, 6.216975506036125, 0.05953595776516141, 0
6543, 6.069140144632083, 0.05806403840768094, 0
6544, 6.069249150522944, 0.18458664893513, 0
6545, 6.160144806548884, 0.010377800904197956, 0
6546, 6.135756099793843, 0.2016681047507969, 0
6547, 5.952446833581834, 0.0603458681582784, 0
6548, 6.087120208820209, 0.11393645503474448, 0
6549, 6.149773361178609, 0.08130692907112409, 0
6550, 5.913673117023375, 0.25403332588711536, 0
6551, 6.0025063101315626, 0.25403332588711536, 0
6552, 6.046922906685656, 0.22992513093041936, 0
6553, 5.989661501833987, 0.17739788187953662, 0
6554, 6.020725049318361, -0.18437266418308748, 0
6555, 6.081969707700626, -0.22716848179686638, 0
6556, 6.139797717839458, -0.195881789958602, 0
6557, 6.205269293744205, -0.2540333258871167, 0
6558, 6.232081524531703, -0.01535724872896832, 0
6559, 5.958089713577468, 0.22208378148296387, 0
6560, 5.874568697813491, 0.1528209615052188, 0
6561, 5.9678252704302865, 0.11989844719982853, 0
6562, 5.931825431473404, 0.16646592780332675, 0
6563, 5.909490720451058, 0.1032004499297407, 0
6564, 6.225149145294831, -0.1690991615101486, 0
6565, 6.413588268405996, 0.06022285501998201, 0
6566, 6.18972548659857, -0.20560147285358457, 0
6567, 6.246369155758732, -0.2188595974545272, 0
6568, 6.331278447465405, -0.06765654385410896, 0
6569, 6.2859961954030075, -0.17255612227573822, 0
6570, 6.283833203397201, -0.08980027189673623, 0
6571, 6.315349913251318, 0.040408101727797754, 0
6572, 6.240747447705513, -0.11927885987749857, 0
6573, 6.505867133722403, 0.017099446935693506, 0
6574, 6.262219403044019, 0.02969163614378108, 0
6575, 6.3008993101105615, -0.02501262412464611, 0
6576, 6.439176599848618, -0.004791049093079203, 0
6577, 0.20321321400992146, -5.60275694114472, 0
6578, 0.21361201198667168, -5.691590134252907, 0
6579, 0.25403332588711497, -6.0025063101315626, 0
6580, 0.13495645172771656, -5.962527030562854, 0
6581, 0.08447755371456821, -6.006226132469991, 0
6582, 0.19847117473525386, -5.970673442951446, 0
6583, 0.02654277551704299, -5.9807876206046915, 0
6584, -5.60275694114472, -0.20321321400992923, 0
6585, -5.691590134252907, -0.21361201198666446, 0
6586, -6.0025063101315626, -0.25403332588711547, 0
6587, -5.962527030562867, -0.13495645172771614, 0
6588, -6.006226132470009, -0.08447755371457288, 0
6589, -5.970673442951455, -0.19847117473525175, 0
6590, -5.980787620604715, -0.026542775517042684, 0
6591, 5.658802605006613, 0.15854362543342057, 0
6592, 5.7964970138630925, 0.12528261242517105, 0
6593, 5.849372948222019, 0.09981489170739098, 0
6594, 5.800024693145045, 0.20849798768102695, 0
6595, 5.752148913408944, 0.1885688025903453, 0
6596, 5.826719308973514, 0.1640383409270463, 0
6597, 5.824839923915188, 0.25403332588711536, 0
6598, 6.141196846310662, 0.1413049211346579, 0
6599, 6.371831292976152, 0.01381486599576389, 0
6600, 0.21386112085052303, -6.046922906685657, 0
6601, 0.14290713745573605, -6.128014892701777, 0
6602, 0.16665429851028069, -6.077205515485924, 0
6603, 0.09605741482958632, -6.075581077102601, 0
6604, 0.04505434673187564, -6.104032545663409, 0
6605, -0.2540333258871162, -6.123069569715152, 0
6606, -0.028421836373074383, -6.127880063800399, 0
6607, -0.04845130571836352, -6.050174026949236, 0
6608, -0.07231106425968153, -5.992197058772077, 0
6609, -0.020761816800171484, -6.004880644755999, 0
6610, -0.0070777262662901005, -6.17170462142318, 0
6611, -0.10259207262872164, -6.262293700848557, 0
6612, -0.007146375480530452, -6.080961700154838, 0
6613, 0.04529617190958557, -6.413330027833151, 0
6614, -0.028782004212037887, -6.215351926104416, 0
6615, -0.10863886424469653, -6.171286440597656, 0
6616, 0.25403332588711497, -6.269005889456125, 0
6617, -0.08075015579404762, -6.215137945787121, 0
6618, -0.09360352167385444, -6.103246851084324, 0
6619, -0.13025354556270505, -6.038653469312151, 0
6620, -0.17279662561366976, -6.121427857106661, 0
6621, -0.2540333258871162, -6.0408698456861, 0
6622, 0.03880960553516885, -6.231816613187588, 0
6623, -0.01662325161868218, -6.317892577273727, 0
6624, 0.11134344553962283, -6.276376410409057, 0
6625, 0.02664016325129554, -6.284866842894746, 0
6626, 0.0408896250365004, -6.3483837189029195, 0
6627, 0.13942320223237695, -6.374320951530352, 0
6628, 0.17348982534076593, -6.218199430839624, 0
6629, 0.08578466492900265, -6.37796027657783, 0
6630, -0.17043004560256833, -6.184590780111869, 0
6631, -0.19268152897437377, -6.009710324613847, 0
6632, -0.20122894116132783, -6.068860151340646, 0
6633, -0.04623269888386039, -6.269412328679491, 0
6634, 0.09720901818539425, -6.161192499882635, 0
6635, 0.11800188910852533, -6.4556988934505535, 0
6636, -0.2540333258871162, -6.2052692937442036, 0
6637, 0.11455318275967707, -6.217523351791956, 0
6638, 0.18365147986772457, -6.291336207795659, 0
6639, 0.13976620942437323, -6.321225246199031, 0
6640, 0.2540333258871149, -6.357839082564313, 0
6641, 0.22939221400108015, -6.313422486010219, 0
6642, 0.1845931870048808, -6.429719519309211, 0
6643, 0.2280875154771448, -6.402255679118406, 0
6644, 0.2540333258871149, -6.802005048105251, 0
6645, 0.20640023915573444, -6.4910888722265945, 0
6646, 0.2540333258871149, -6.624338661888876, 0
6647, 0.2540333258871149, -6.535505468780688, 0
6648, 0.16809082602270106, -6.579922065334782, 0
6649, -0.029135775582376608, -6.393815909444903, 0
6650, -0.06210755473334689, -6.497298635439015, 0
6651, 0.06827480166624711, -6.457464872125131, 0
6652, -0.09450352018745567, -6.344050268570983, 0
6653, 0.0837980403870688, -6.574536222286029, 0
6654, 0.0171130149048703, -6.5155865507021495, 0
6655, -0.0006130961205987467, -6.46528179207597, 0
6656, 0.04454459839260521, -6.781348651680653, 0
6657, 0.12938910059096248, -6.5233173222195555, 0
6658, 0.0704369902902122, -6.516743011522452, 0
6659, -0.2540333258871163, -6.616267913889466, 0
6660, -0.004260652454643424, -6.564453206983609, 0
6661, 0.11884634958147264, -6.688319874802021, 0
6662, 0.12290622126791645, -6.624779609949184, 0
6663, 0.2540333258871149, -6.713171854997063, 0
6664, -0.2540333258871163, -6.451868465831361, 0
6665, -0.2540333258871163, -6.369668741802309, 0
6666, 0.20512597876515842, -6.613616228615102, 0
6667, 0.1725611728220031, -6.771726239552285, 0
6668, -0.12415737769593937, -6.3057056581138315, 0
6669, -0.16433381718371495, -6.2475033507363165, 0
6670, -0.05329721475986364, -6.443111680446693, 0
6671, -0.13902575378512688, -6.4569826668632215, 0
6672, -0.19080204941433093, -6.308741932643973, 0
6673, 0.16518353987266438, -6.703734089622737, 0
6674, -0.1033178703776807, -6.405817692991118, 0
6675, -0.19592969733613627, -6.440936376317973, 0
6676, -0.21512026113626173, -6.57516805187494, 0
6677, -0.13059035836240318, -6.5344224015358945, 0
6678, -0.1693807229942034, -6.49946848352163, 0
6679, -0.16987959394697116, -6.609178451728296, 0
6680, -0.07069389123863375, -6.563186826790293, 0
6681, -0.039813794357649, -6.686392020711217, 0
6682, 0.03995342510294256, -6.651379218926145, 0
6683, -0.03855973686080296, -6.620605220209651, 0
6684, -0.10465494719257895, -6.619894225085065, 0
6685, -0.1550609802182264, -6.722842886859137, 0
6686, -0.2540333258871163, -6.78066736194757, 0
6687, -0.14535746533756588, -6.663779643423957, 0
6688, -0.21811466711515795, -6.682155062886457, 0
6689, -0.09831690637611301, -6.701836666645264, 0
6690, -0.08031940628161204, -6.8375977434709165, 0
6691, -0.05046614179886703, -6.764566692469912, 0
6692, -0.2540333258871163, -6.534068189860413, 0
6693, 0.021235637514801016, -6.717106233245765, 0
6694, 0.07884165575746613, -6.7325549288337845, 0
6695, -0.21111653358736984, -6.740510975621781, 0
6696, -0.17235848966803807, -6.824944970885836, 0
6697, -0.11720346828748934, -6.779903303834611, 0
6698, -0.01179815628039134, -6.822990355357269, 0
6699, -0.16873425082090265, -7.056467440030117, 0
6700, 0.2540333258871149, -6.890838241213438, 0
6701, -0.02706146994641921, -6.919407825893527, 0
6702, 0.055870985368370166, -6.85561142948001, 0
6703, -0.03796411236573509, -6.868265028764047, 0
6704, 0.03669697301458906, -6.916488508210856, 0
6705, 0.0068387334765900795, -6.962086789810274, 0
6706, 0.2540333258871149, -6.9796714343216255, 0
6707, 0.06893172361826783, -6.960623040339926, 0
6708, 0.14682929951499346, -6.835092102728678, 0
6709, 0.10619089863638774, -6.788229227902994, 0
6710, 0.1058655113912903, -6.865367546952502, 0
6711, -6.046922906685657, -0.21386112085052644, 0
6712, -6.12801489270179, -0.14290713745575162, 0
6713, -6.077205515485933, -0.16665429851028882, 0
6714, -6.075581077102621, -0.09605741482959156, 0
6715, -6.104032545663422, -0.04505434673188031, 0
6716, -6.1230695697151525, 0.2540333258871159, 0
6717, -6.127880063800422, 0.02842183637307097, 0
6718, -6.05017402694926, 0.04845130571835739, 0
6719, -5.992197058772105, 0.07231106425969121, 0
6720, -6.004880644756014, 0.020761816800176847, 0
6721, -6.171704621423203, 0.00707772626627811, 0
6722, -6.2622937008485655, 0.1025920726287275, 0
6723, -6.0809617001548615, 0.007146375480521692, 0
6724, -6.4133300278332355, -0.04529617190954369, 0
6725, -6.215351926104447, 0.02878200421201943, 0
6726, -6.171286440597697, 0.10863886424464236, 0
6727, -6.269005889456125, -0.25403332588711547, 0
6728, -6.215137945787161, 0.08075015579401637, 0
6729, -6.103246851084347, 0.09360352167385637, 0
6730, -6.038653469312176, 0.13025354556272806, 0
6731, -6.121427857106752, 0.17279662561366194, 0
6732, -6.0408698456861005, 0.2540333258871159, 0
6733, -6.231816613187629, -0.038809605535214384, 0
6734, -6.317892577273835, 0.016623251618666277, 0
6735, -6.276376410409121, -0.11134344553969094, 0
6736, -6.2848668428948224, -0.026640163251332984, 0
6737, -6.348383718902999, -0.040889625036532685, 0
6738, -6.374320951530534, -0.1394232022325213, 0
6739, -6.218199430839608, -0.17348982534080198, 0
6740, -6.377960276577955, -0.08578466492908002, 0
6741, -6.184590780111887, 0.17043004560244815, 0
6742, -6.00971032461385, 0.1926815289743796, 0
6743, -6.068860151340689, 0.2012289411613085, 0
6744, -6.269412328679557, 0.04623269888384028, 0
6745, -6.161192499882672, -0.09720901818541702, 0
6746, -6.455698893450923, -0.11800188910855981, 0
6747, -6.205269293744205, 0.2540333258871159, 0
6748, -6.217523351792005, -0.11455318275970046, 0
6749, -6.291336207795585, -0.1836514798677622, 0
6750, -6.321225246199151, -0.13976620942446855, 0
6751, -6.357839082564313, -0.2540333258871155, 0
6752, -6.313422486010219, -0.22939221400108137, 0
6753, -6.429719519309495, -0.18459318700484628, 0
6754, -6.402255679118406, -0.22808751547701098, 0
6755, -6.802005048105251, -0.2540333258871156, 0
6756, -6.4910888722265945, -0.20640023915597522, 0
6757, -6.624338661888876, -0.2540333258871156, 0
6758, -6.535505468780688, -0.2540333258871155, 0
6759, -6.579922065334782, -0.16809082602250847, 0
6760, -6.393815909444967, 0.02913577558237078, 0
6761, -6.497298635439085, 0.062107554733742715, 0
6762, -6.457464872125342, -0.06827480166617683, 0
6763, -6.344050268571043, 0.0945035201875046, 0
6764, -6.5745362222864845, -0.08379804038671389, 0
6765, -6.515586550702804, -0.017113014903873403, 0
6766, -6.46528179207608, 0.0006130961208186958, 0
6767, -6.781348651681798, -0.04454459839171195, 0
6768, -6.523317322219935, -0.12938910059038106, 0
6769, -6.5167430115228395, -0.07043699028947654, 0
6770, -6.616267913889466, 0.2540333258871159, 0
6771, -6.564453206984612, 0.004260652455481746, 0
6772, -6.688319874803102, -0.11884634958175855, 0
6773, -6.624779609949869, -0.12290622126787637, 0
6774, -6.713171854997063, -0.2540333258871156, 0
6775, -6.451868465831362, 0.2540333258871159, 0
6776, -6.369668741802309, 0.2540333258871159, 0
6777, -6.613616228615329, -0.20512597876495886, 0
6778, -6.771726239548886, -0.17256117280381614, 0
6779, -6.3057056581138475, 0.12415737769593944, 0
6780, -6.247503350736278, 0.1643338171837354, 0
6781, -6.443111680446816, 0.05329721475979032, 0
6782, -6.456982666862663, 0.1390257537849084, 0
6783, -6.308741932643938, 0.1908020494143261, 0
6784, -6.7037340896231, -0.1651835398729789, 0
6785, -6.4058176929910315, 0.1033178703771737, 0
6786, -6.440936376317958, 0.19592969733610535, 0
6787, -6.5751680518749405, 0.2151202611357104, 0
6788, -6.5344224015349415, 0.13059035836282828, 0
6789, -6.499468483520663, 0.16938072299482237, 0
6790, -6.609178451728708, 0.16987959394625587, 0
6791, -6.563186826790345, 0.07069389123949521, 0
6792, -6.686392020712662, 0.03981379436027065, 0
6793, -6.651379218927387, -0.039953425101684356, 0
6794, -6.620605220210667, 0.038559736862474894, 0
6795, -6.6198942250839075, 0.10465494719292533, 0
6796, -6.722842886860555, 0.15506098021601972, 0
6797, -6.780667361947571, 0.2540333258871159, 0
6798, -6.6637796434247205, 0.1453574653365149, 0
6799, -6.682155062888668, 0.2181146671155499, 0
6800, -6.70183666664484, 0.09831690637694318, 0
6801, -6.8375977434614335, 0.08031940627807255, 0
6802, -6.7645666924642125, 0.05046614180391316, 0
6803, -6.534068189860414, 0.2540333258871159, 0
6804, -6.7171062332470575, -0.021235637512599964, 0
6805, -6.73255492883398, -0.0788416557560565, 0
6806, -6.740510975623873, 0.21111653358515148, 0
6807, -6.8249449708916154, 0.17235848966874712, 0
6808, -6.779903303832357, 0.11720346828740219, 0
6809, -6.822990355343146, 0.011798156284486633, 0
6810, -7.056467440000499, 0.1687342508104534, 0
6811, -6.890838241213438, -0.2540333258871156, 0
6812, -6.9194078258717955, 0.02706146994066284, 0
6813, -6.8556114294599855, -0.055870985339145134, 0
6814, -6.868265028748014, 0.0379641123634418, 0
6815, -6.916488508159861, -0.036696972988494336, 0
6816, -6.962086789780539, -0.006838733487992018, 0
6817, -6.9796714343216255, -0.2540333258871156, 0
6818, -6.96062304032027, -0.0689317235635914, 0
6819, -6.8350921027145555, -0.1468292994856469, 0
6820, -6.788229227893742, -0.10619089862265713, 0
6821, -6.865367546927749, -0.10586551135897962, 0
6822, 5.869256520469282, 0.21303375072085495, 0
6823, 6.180172696347937, 0.25403332588711525, 0
6824, 6.269005889456125, 0.25403332588711525, 0
6825, -0.21859227557273173, -6.24636915575873, 0
6826, -0.21984004263907142, -6.164169431729678, 0
6827, 0.25403332588711497, -6.180172696347937, 0
6828, 0.1935117573998261, -6.357321685203726, 0
6829, 0.12995967199945146, -6.741952468228293, 0
6830, 0.1683657791623424, -6.6512338727138385, 0
6831, 0.22417800390186648, -6.757588451551157, 0
6832, -0.15738967477493146, -6.3665888990676445, 0
6833, -0.2050448335962156, -6.38904842993378, 0
6834, -0.22143470307971835, -6.492968327845887, 0
6835, 0.0364529702141711, -6.598452153523058, 0
6836, -0.25403332588711636, -6.862867085976623, 0
6837, -0.18530926350074778, -6.903966947991149, 0
6838, -0.2234750871419403, -6.821767223962096, 0
6839, -0.13195702838021753, -6.872138524230227, 0
6840, -0.2540333258871163, -7.708800107504256, 0
6841, -0.05193353426404745, -6.975140490400031, 0
6842, -0.09213212678714462, -6.9237846698545065, 0
6843, -0.2540333258871163, -8.472533405002837, 0
6844, -0.11142103573289569, -6.991313630360522, 0
6845, 0.2540333258871149, -8.578668910269, 0
6846, -0.012489619114610655, -7.013897244562646, 0
6847, -0.08261580497550414, -7.045816767593173, 0
6848, -0.25403332588711636, -7.326933458754965, 0
6849, -0.156909874604628, -6.949707154599056, 0
6850, -6.246369155758732, 0.21859227557274427, 0
6851, -6.164169431729679, 0.2198400426389965, 0
6852, -6.180172696347937, -0.25403332588711547, 0
6853, -6.357321685203674, -0.19351175739984355, 0
6854, -6.741952468215988, -0.12995967199449826, 0
6855, -6.651233872714242, -0.16836577916240245, 0
6856, -6.757588451551157, -0.2241780038909342, 0
6857, -6.366588899068073, 0.15738967477515425, 0
6858, -6.38904842993394, 0.20504483359641965, 0
6859, -6.492968327845888, 0.22143470308017316, 0
6860, -6.5984521535239775, -0.03645297021375091, 0
6861, -6.862867085976623, 0.2540333258871159, 0
6862, -6.903966947991149, 0.18530926350645127, 0
6863, -6.821767223962097, 0.22347508714215886, 0
6864, -6.872138524238328, 0.13195702837313433, 0
6865, -7.708800107504257, 0.254033325887116, 0
6866, -6.975140490369194, 0.051933534251947404, 0
6867, -6.923784669835243, 0.09213212676730835, 0
6868, -8.472533405002839, 0.2540333258871161, 0
6869, -6.991313630329831, 0.11142103571635018, 0
6870, -8.578668910269, -0.2540333258871157, 0
6871, -7.013897244529108, 0.0124896191043115, 0
6872, -7.045816767558644, 0.08261580496079308, 0
6873, -7.326933458754967, 0.25403332588711597, 0
6874, -6.949707154595453, 0.1569098746070967, 0
6875, 6.284758726457394, 0.14561119218242757, 0
6876, 6.211938432415719, 0.17810789829024617, 0
6877, 6.198839439913585, 0.1181584772604589, 0
6878, 6.264486033052254, 0.19802118307987943, 0
6879, 6.357839082564313, 0.2540333258871152, 0
6880, 0.19548009611539985, -6.160464506939983, 0
6881, 0.2061583241351871, -6.110148000587027, 0
6882, 0.22575511760781466, -6.224589292902031, 0
6883, 0.22092222555126007, -6.668755258442969, 0
6884, 0.038433978015545045, -7.218767053480118, 0
6885, 0.17372193961198895, -6.914329309736507, 0
6886, 0.20162035929469405, -6.86067854574282, 0
6887, 0.11528919542807416, -6.923809417317762, 0
6888, 0.15606872267700572, -7.022755527538265, 0
6889, 0.15219662517562024, -6.966474901981294, 0
6890, 0.22343391360376083, -6.935254837767531, 0
6891, 0.20450913123274791, -6.810512112728692, 0
6892, -6.160464506939972, -0.19548009611541645, 0
6893, -6.110148000587023, -0.20615832413519503, 0
6894, -6.2245892929020314, -0.22575511760783698, 0
6895, -6.668755258442969, -0.22092222555137964, 0
6896, -7.218767053434198, -0.03843397802537726, 0
6897, -6.914329309751378, -0.1737219395864561, 0
6898, -6.860678545743355, -0.20162035927604702, 0
6899, -6.923809417303144, -0.11528919538875117, 0
6900, -7.022755527572812, -0.1560687226411138, 0
6901, -6.966474902001218, -0.1521966251206657, 0
6902, -6.935254837767532, -0.22343391359183115, 0
6903, -6.810512112723856, -0.20450913122579564, 0
6904, 6.352766048011937, 0.10833727958767778, 0
6905, 6.300164387627345, 0.0930416527050289, 0
6906, 6.43491655711399, 0.14968467624454124, 0
6907, 6.336272323828604, 0.15892161692042517, 0
6908, 6.403453929688614, 0.10991226128507436, 0
6909, 6.319087345333569, 0.21281934910543293, 0
6910, -0.006040491520447571, -7.121058045931263, 0
6911, -0.25403332588711636, -7.136000134380319, 0
6912, -0.25403332588711636, -7.0405334721929975, 0
6913, -0.02986454158945467, -7.068717358963585, 0
6914, -7.121058045891491, 0.0060404915092329555, 0
6915, -7.136000134380321, 0.2540333258871159, 0
6916, -7.040533472192998, 0.2540333258871159, 0
6917, -7.068717358927107, 0.029864541577499428, 0
6918, 6.608174546601649, 0.15417626340166082, 0
6919, 6.3895771392271845, 0.1968356558803868, 0
6920, 0.0700615760062179, -7.051206881298611, 0
6921, -0.20208816421092402, -6.99873832845612, 0
6922, -0.21881218891281887, -7.0882668032866585, 0
6923, -0.12612093717245884, -7.193522205586943, 0
6924, -0.08525236811870249, -7.125520755358665, 0
6925, -0.15822331521445712, -7.128351447822226, 0
6926, -0.25403332588711636, -7.231466796567642, 0
6927, -0.04251531413840845, -7.197487173870987, 0
6928, -0.12155888047284286, -7.084424154427814, 0
6929, -0.19731392335691833, -7.188099052205282, 0
6930, -0.1685756845756372, -7.280843045471312, 0
6931, -0.16461051371159724, -7.228789870007524, 0
6932, 0.006891750768731851, -7.174147927946789, 0
6933, 0.09794939677924483, -7.143235808647881, 0
6934, -0.08767070517409868, -7.266197436643781, 0
6935, -0.016644823310168803, -7.263681752686971, 0
6936, -0.039647755512717514, -7.385519835457352, 0
6937, -0.10816355152824136, -7.587115597354287, 0
6938, -0.05076370059657345, -7.304298513154451, 0
6939, -0.11776082164198612, -7.3332108543513, 0
6940, 0.06982874832675595, -7.325450020414508, 0
6941, -0.18678512559497742, -7.349350381889496, 0
6942, -0.25403332588711636, -7.517866783129611, 0
6943, 0.019118955859399017, -7.328362674346557, 0
6944, 0.2540333258871149, -7.8680033654035, 0
6945, -0.25403332588711636, -7.422400120942288, 0
6946, -0.23258464737486137, -7.374666789848627, 0
6947, -0.1787181386565583, -7.427556955354409, 0
6948, 0.2540333258871149, -7.51267059297075, 0
6949, 0.16140648236952437, -7.340340521505836, 0
6950, -0.2194674913495797, -7.470133452035949, 0
6951, 0.07571155827184778, -7.375901572939284, 0
6952, -0.011559601335077892, -7.44308511531272, 0
6953, -0.13970506374146835, -7.505684366388752, 0
6954, 0.018517389534137653, -7.386533541769742, 0
6955, -0.12063677646022393, -7.398218099815264, 0
6956, -0.012675741097108013, -7.5071277579968365, 0
6957, -0.0758221399135669, -7.4739961906132, 0
6958, 0.08387447927916836, -7.476779394726465, 0
6959, -0.08683586813265276, -7.532030300008972, 0
6960, -0.1262092144509618, -7.452654178722661, 0
6961, 0.044403914916679096, -7.436575327262812, 0
6962, -0.25403332588711636, -7.6133334453169335, 0
6963, -0.07532954693825022, -7.422564296763547, 0
6964, -0.14472042795070278, -7.554451262197681, 0
6965, -0.192867750875154, -7.517707370778505, 0
6966, -0.1763507202141223, -7.626639680442538, 0
6967, -0.20759923730417634, -7.575659420338455, 0
6968, -0.22222864309594406, -7.661066776410594, 0
6969, -0.2540333258871163, -8.090666756253547, 0
6970, -0.15451629332836397, -7.703518733141652, 0
6971, -0.11656589458357917, -7.651200311723381, 0
6972, 0.00539734934878533, -7.779592540495574, 0
6973, 0.013777657810403295, -7.635696868198516, 0
6974, -0.0360250969191735, -7.583374419205043, 0
6975, -0.06749954316783431, -7.7267150632463215, 0
6976, -0.0509220553796018, -7.647417409480669, 0
6977, -7.051206881236043, -0.07006157598298132, 0
6978, -6.9987383284412985, 0.20208816422411455, 0
6979, -7.088266803286659, 0.21881218889564225, 0
6980, -7.193522205635015, 0.12612093715251008, 0
6981, -7.125520755337785, 0.08525236814286119, 0
6982, -7.128351447817048, 0.15822331515664065, 0
6983, -7.231466796567644, 0.2540333258871159, 0
6984, -7.197487173817439, 0.04251531412000134, 0
6985, -7.084424154382548, 0.12155888046019975, 0
6986, -7.188099052187739, 0.19731392334898176, 0
6987, -7.280843045435106, 0.16857568463959616, 0
6988, -7.228789869990656, 0.1646105137297228, 0
6989, -7.1741479279010285, -0.006891750785955053, 0
6990, -7.143235808593556, -0.0979493968221477, 0
6991, -7.266197436793321, 0.08767070507627941, 0
6992, -7.263681752564126, 0.0166448232836117, 0
6993, -7.385519835534179, 0.039647755069727716, 0
6994, -7.5871155975718265, 0.10816355148786422, 0
6995, -7.304298513128309, 0.05076370038344354, 0
6996, -7.33321085457124, 0.11776082160183707, 0
6997, -7.325450020045847, -0.06982874839790294, 0
6998, -7.349350381853438, 0.18678512559902843, 0
6999, -7.517866783129612, 0.254033325887116, 0
7000, -7.32836267402942, -0.019118956105007363, 0
7001, -7.8680033654035, -0.25403332588711564, 0
7002, -7.42240012094229, 0.254033325887116, 0
7003, -7.374666789848629, 0.23258464736404494, 0
7004, -7.427556955503838, 0.1787181383511775, 0
7005, -7.51267059297075, -0.2540333258871156, 0
7006, -7.340340520466424, -0.16140648242900565, 0
7007, -7.470133452035951, 0.21946749126882578, 0
7008, -7.3759015723621895, -0.07571155865219575, 0
7009, -7.443085115573672, 0.01155960050535285, 0
7010, -7.505684366698536, 0.13970506383858933, 0
7011, -7.3865335414431454, -0.018517389972702136, 0
7012, -7.398218100037943, 0.12063677612917936, 0
7013, -7.507127758600542, 0.012675739829252075, 0
7014, -7.473996191480368, 0.07582213926182986, 0
7015, -7.476779394500398, -0.08387448074471561, 0
7016, -7.532030300358777, 0.08683586858716753, 0
7017, -7.4526541791108665, 0.1262092137323172, 0
7018, -7.436575326961178, -0.04440391600283307, 0
7019, -7.613333445316934, 0.254033325887116, 0
7020, -7.422564297321827, 0.07532954643855352, 0
7021, -7.5544512625552835, 0.1447204281074438, 0
7022, -7.517707371107513, 0.1928677511062925, 0
7023, -7.626639681115217, 0.17635072013328734, 0
7024, -7.575659420823477, 0.20759923691328488, 0
7025, -7.661066776410596, 0.22222864334631923, 0
7026, -8.090666756253547, 0.254033325887116, 0
7027, -7.703870881397509, 0.1542520404964978, 0
7028, -7.760555329641603, 0.02703065240425556, 0
7029, -7.679340113430692, 0.0454640135600881, 0
7030, -7.651294627926446, 0.11651122492481653, 0
7031, -7.82974630481083, -0.01931920307359719, 0
7032, -7.712605609226873, 0.09512268174569621, 0
7033, 6.802005048105251, 0.2540333258871151, 0
7034, 0.10265156707425424, -7.005501419485137, 0
7035, 0.04066227102411271, -7.006274612070353, 0
7036, -0.22461970843287776, -7.279200127661303, 0
7037, 0.051288567412614255, -7.1071356577773095, 0
7038, 0.12852945738828114, -7.083729103359748, 0
7039, 0.17638477878628234, -7.1459323903917475, 0
7040, 0.2540333258871149, -7.335004206754375, 0
7041, 0.2540333258871149, -7.068504627429813, 0
7042, 0.19118497718686805, -7.075322067162379, 0
7043, 0.21417216664785957, -7.021953132759111, 0
7044, 0.0854946748423244, -7.194635451606562, 0
7045, 0.19424457465930825, -7.594737817146971, 0
7046, -0.20501977748059863, -7.756533438597918, 0
7047, 0.14804141566169593, -7.209699545163564, 0
7048, 0.10212351338258618, -7.262972201687781, 0
7049, 0.11912182505722967, -7.31134411006902, 0
7050, -0.2540333258871163, -7.899733431878902, 0
7051, 0.05692922949265966, -7.559812350293724, 0
7052, 0.014006438537704467, -7.585615679635649, 0
7053, 0.04086680057497538, -7.508711372031256, 0
7054, 0.2540333258871149, -7.6903369791871246, 0
7055, 0.15798706090398726, -7.546718385608774, 0
7056, 0.10435479409855648, -7.529314033134311, 0
7057, 0.11941624919989437, -7.645556747015288, 0
7058, 0.06882211166436572, -7.616786496997946, 0
7059, 0.11851978041336397, -7.588261765100409, 0
7060, 0.0022691608720033308, -7.707218492993094, 0
7061, 0.06447889201315327, -7.6832957720560096, 0
7062, 0.15659220613138064, -7.758530583327895, 0
7063, 0.12151592046531126, -7.707469422305803, 0
7064, 0.0688861201871985, -7.752272479112564, 0
7065, 0.18784923693131783, -7.6994803292486145, 0
7066, 0.2540333258871149, -8.22333613783625, 0
7067, 0.2540333258871149, -7.601503786078937, 0
7068, 0.06661302779161687, -7.834420502669719, 0
7069, 0.1711430163380801, -7.650296714833118, 0
7070, -0.07964461907973723, -7.936130077453421, 0
7071, 0.1507852704542815, -7.842932608667465, 0
7072, 0.10994835445156736, -7.794514160213151, 0
7073, 0.007050533514302501, -7.904783575133098, 0
7074, 0.10633440499137806, -7.862060406495922, 0
7075, 0.05716962205799666, -7.956119968281074, 0
7076, 0.2540333258871149, -7.779170172295313, 0
7077, 0.20956545130627635, -7.7487731166817735, 0
7078, 0.054349010560365604, -7.884430412216933, 0
7079, 0.004474068958483339, -7.8422111653912685, 0
7080, 0.19891223572775638, -7.86986982184097, 0
7081, 0.2540333258871149, -8.045669751619876, 0
7082, 0.2540333258871149, -7.956836558511688, 0
7083, -0.015778565562556596, -7.9772048645726645, 0
7084, -0.11895192928744994, -8.06743710592468, 0
7085, 0.07370539566582568, -8.150062595430782, 0
7086, -0.08037146785662239, -8.007449410618907, 0
7087, -0.2540333258871163, -7.995200094066225, 0
7088, -0.01530852810832277, -8.091694121270528, 0
7089, -0.12244290726114164, -7.971357270435021, 0
7090, -0.06281763902996113, -8.061139131414986, 0
7091, -0.08202873268540935, -8.14322272902306, 0
7092, 0.04022248529127544, -8.034220544594657, 0
7093, -0.2540333258871163, -8.18613341844087, 0
7094, -0.005343720771518248, -8.173556328031527, 0
7095, -0.015219812932223506, -8.032666134119324, 0
7096, 0.045955350775719966, -8.09532348555815, 0
7097, 0.15137542798203407, -8.07628418611223, 0
7098, 0.10151151336390835, -8.101562746035274, 0
7099, 0.16871904215788114, -8.172315300631322, 0
7100, -0.1285334012771966, -8.118992664513987, 0
7101, -0.1442633517039474, -8.205926244251073, 0
7102, 0.11323607610186853, -8.009174872519186, 0
7103, 0.08277405753583007, -8.325310561285404, 0
7104, -0.2540333258871163, -8.281600080628191, 0
7105, 0.08741034227033015, -8.052835330131584, 0
7106, 0.18784905431505336, -8.011163336241134, 0
7107, 0.13063193739939513, -7.934639645641232, 0
7108, 0.057057610859684, -8.238782702038678, 0
7109, -0.05701076760434248, -8.192074703027316, 0
7110, 0.1918296386608372, -7.948534438341426, 0
7111, 0.0426033078484725, -8.190148459827304, 0
7112, -7.005501419431942, -0.10265156706574075, 0
7113, -7.006274612039164, -0.040662271005606154, 0
7114, -7.279200127661306, 0.22461970847551865, 0
7115, -7.107135657738344, -0.051288567432823604, 0
7116, -7.083729103302129, -0.12852945729378074, 0
7117, -7.145932390220002, -0.1763847788224207, 0
7118, -7.335004206754375, -0.2540333258871156, 0
7119, -7.068504627429813, -0.2540333258871156, 0
7120, -7.0753220672456525, -0.19118497715365212, 0
7121, -7.021953132815751, -0.21417216665119881, 0
7122, -7.1946354515866116, -0.08549467489929459, 0
7123, -7.852000100785241, 0.254033325887116, 0
7124, -7.83114072879647, 0.19044066461012216, 0
7125, -7.209699544552617, -0.14804141571434112, 0
7126, -7.262972201560773, -0.10212351396553239, 0
7127, -7.31134410989756, -0.11912182487854447, 0
7128, -7.7880756120221175, 0.13648112455024808, 0
7129, -7.899733431878902, 0.254033325887116, 0
7130, -7.601503786078937, -0.2540333258871156, 0
7131, -7.8362012498562486, 0.0651357315932426, 0
7132, -7.69910535134999, -0.055581693027065004, 0
7133, -7.809134357348135, 0.024730326481852395, 0
7134, -8.125016586653922, 0.07311086348743842, 0
7135, -7.781292612013751, 0.080001552550055, 0
7136, -7.80426676969158, 0.254033325887116, 0
7137, -7.888857167806297, 0.15255862514170437, 0
7138, -7.711564385308544, -0.0006886581557310617, 0
7139, -7.76563938039978, -0.04182244876734174, 0
7140, -7.835692899585405, -0.13882484463369174, 0
7141, -7.6903369791871246, -0.2540333258871156, 0
7142, -7.815027097057772, -0.07995240202862641, 0
7143, -8.22333613783625, -0.2540333258871157, 0
7144, -7.870709452095634, -0.09346975170020995, 0
7145, -7.918082656648004, -0.14315243403095973, 0
7146, -7.757622910189124, 0.20056670716014935, 0
7147, -7.842204249934801, 0.12108915898090955, 0
7148, -7.914189377911009, 0.016700903604980298, 0
7149, -7.86260364367414, 0.020643634493827896, 0
7150, 6.473827587851903, 0.09313471664984108, 0
7151, 6.451868465831362, -0.25403332588711675, 0
7152, 6.381231554529048, -0.0833435757915289, 0
7153, 6.624338661888876, 0.25403332588711514, 0
7154, 6.616267913889466, -0.2540333258871168, 0
7155, 6.491114934861764, -0.05152411864882265, 0
7156, 6.551749903193866, 0.07021811211456262, 0
7157, 6.434622942959934, -0.06208012938440825, 0
7158, 6.493115392704452, 0.14806829240079616, 0
7159, 6.4654104621577035, 0.19908580460356823, 0
7160, 6.481152847821295, -0.15465106145854798, 0
7161, 6.535505468780688, 0.2540333258871152, 0
7162, 6.6326740221601534, -0.04605802616548083, 0
7163, 6.577345541590493, 0.0017335346848457167, 0
7164, 6.562755155120717, -0.07108059562832897, 0
7165, 6.6768070888984745, 0.060957782898740175, 0
7166, 6.514773214463578, -0.1058541554336789, 0
7167, 6.567809589139044, -0.17837588264203671, 0
7168, 6.6134388267425255, 0.05424853639187289, 0
7169, 6.620461294613519, -0.12212888709784431, 0
7170, 6.650236372550527, 0.009307392781954402, 0
7171, 6.790601821963591, -0.0656858099691367, 0
7172, 6.734689766609261, -0.0014786689238094688, 0
7173, 6.640025135938799, 0.10575165338350817, 0
7174, 6.744602728390482, 0.1541258307983342, 0
7175, 6.676392410877768, 0.16435864240407907, 0
7176, 6.703525302116704, 0.11276619468132687, 0
7177, 6.7844529626879595, 0.07346911814219736, 0
7178, 6.713171854997063, 0.25403332588711514, 0
7179, 6.636069651811151, 0.20089760651893135, 0
7180, 6.574446621925098, 0.20600170857215583, 0
7181, 6.55051660648606, 0.15354032431687847, 0
7182, 6.716646277383001, 0.200228558249918, 0
7183, 6.410768603816836, -0.18791701376151798, 0
7184, 6.780667361947571, -0.25403332588711686, 0
7185, 6.70653487536193, -0.09693172113412105, 0
7186, 6.732141632598002, 0.05420778548465289, 0
7187, 6.806649610233739, 0.004736610341762345, 0
7188, 7.708800107504257, -0.2540333258871169, 0
7189, 6.8839457136853595, -0.049917232578027416, 0
7190, 6.83401995448601, -0.0385402022328553, 0
7191, 6.916547890414074, 0.07817780938997303, 0
7192, 6.851169123331223, 0.057064227238581254, 0
7193, 6.901212294183027, 0.01388455566974215, 0
7194, 6.739567499933045, -0.21845060632360064, 0
7195, 6.937021120157075, -0.030043640483187563, 0
7196, 8.472533405002839, -0.25403332588711697, 0
7197, 6.928244615543932, -0.08741437961582456, 0
7198, 6.87040772857851, 0.10927171002873776, 0
7199, 0.14468906937474924, -7.421089167682866, 0
7200, 6.9583876958852375, 0.03422234450968412, 0
7201, 6.369668741802309, -0.2540333258871167, 0
7202, 6.635116190445153, -0.188613657021383, 0
7203, 6.698467637918519, -0.25403332588711686, 0
7204, 6.673939581007916, -0.14519848013713293, 0
7205, 6.759622815077332, -0.16792226849607816, 0
7206, 6.738609130273078, -0.05451354501416658, 0
7207, 6.687034584352108, -0.03283346006417499, 0
7208, 6.657505722803503, -0.08906038019358882, 0
7209, 8.578668910269, 0.2540333258871146, 0
7210, 6.9796714343216255, 0.254033325887115, 0
7211, 6.943395622220559, 0.1677976778785108, 0
7212, 6.948596521896987, -0.14176719600693788, 0
7213, 0.19856369736003804, -7.508688483437155, 0
7214, 7.030854728970208, -0.0838362611261539, 0
7215, 6.850253539976939, -0.13463676241942873, 0
7216, 6.983905586340649, -0.06657264701776627, 0
7217, 0.14863836514783252, -7.48418954287291, 0
7218, 0.2540333258871149, -7.423837399862562, 0
7219, 0.12557455190361752, -7.375027055967248, 0
7220, 0.2001653191223786, -7.390469601696862, 0
7221, 0.2008072943922982, -7.44959858934045, 0
7222, 0.2540333258871149, -7.246171013646188, 0
7223, 0.22437291275822907, -7.64592038263303, 0
7224, -0.15680367642990675, -7.88599973425833, 0
7225, -0.18731861313963816, -8.074248790258164, 0
7226, -0.1581255518432403, -8.020757107139117, 0
7227, -0.23040260066122506, -8.042933425159886, 0
7228, -0.07630609745210216, -8.352264236238916, 0
7229, -0.1950900885100671, -8.145447487011303, 0
7230, -0.08945728347860174, -8.269423276792562, 0
7231, -0.09719239781308861, -8.220698827788118, 0
7232, -0.1710821101324785, -8.28447510917389, 0
7233, -0.006857652390161922, -8.298774771874633, 0
7234, -0.012081574431718615, -8.236093239078203, 0
7235, -0.1346763506882937, -8.25305227796379, 0
7236, -0.20509494866483216, -8.229009417893637, 0
7237, -0.2540333258871163, -8.424800073909175, 0
7238, -0.12284942189108584, -8.317188722515045, 0
7239, -0.14149534946975334, -8.390348871597231, 0
7240, -0.05615331396987827, -8.30660056747221, 0
7241, 0.012991310637537778, -8.396375006615465, 0
7242, 0.04461221154976401, -8.289566975609127, 0
7243, -0.19803054677616205, -8.385963366812403, 0
7244, -0.18902399828999228, -8.441948572635535, 0
7245, -0.2540333258871163, -9.236266702501418, 0
7246, -0.06858366466942557, -8.5044084732331, 0
7247, -0.12057265720494015, -8.457308113956094, 0
7248, -0.2540333258871163, -8.663466729377483, 0
7249, -0.051061162354021375, -8.43282458537589, 0
7250, -0.2540333258871163, -8.854400053752126, 0
7251, -0.12849113890999872, -8.518291162170327, 0
7252, -0.036443319616775854, -8.384008203199121, 0
7253, 0.08520120832540942, -8.574224311120522, 0
7254, -0.08368501404283443, -8.575441798756708, 0
7255, -0.2540333258871163, -8.568000067190159, 0
7256, 0.000624087313904495, -8.556243614820904, 0
7257, -0.1971722539728044, -8.511627174338265, 0
7258, -0.1699610005032467, -8.596942881716744, 0
7259, 0.016508414326413628, -8.477059745181133, 0
7260, -0.2540333258871163, -8.377066742815515, 0
7261, -0.09141611912303751, -8.401234850930448, 0
7262, 0.2540333258871149, -9.289334455134501, 0
7263, -0.20460355223592255, -8.560994708060964, 0
7264, -0.01951838726101788, -8.511017886434995, 0
7265, 0.05141370782690235, -8.525246903016082, 0
7266, 0.03527764960428818, -8.601147264503846, 0
7267, 0.11737147812128049, -8.515888356552342, 0
7268, 0.1694540002742607, -8.582648448937888, 0
7269, 0.2540333258871149, -8.401002524052625, 0
7270, 0.023482754199772533, -8.656627779792172, 0
7271, -0.030236376972005465, -8.616213319168098, 0
7272, -0.10442674638467564, -8.770736698434346, 0
7273, -0.051881331485357944, -8.700893033769166, 0
7274, 0.2540333258871149, -8.934001682701751, 0
7275, 0.0912274503780525, -8.433383664823722, 0
7276, -0.14388559694544603, -8.686363108319657, 0
7277, -0.09252025920593551, -8.642443682063568, 0
7278, 0.04234824004054749, -8.43551434348791, 0
7279, 0.2540333258871149, -8.489835717160812, 0
7280, 0.06822266658818192, -8.380815920224494, 0
7281, 0.1508906208688215, -8.372828219367701, 0
7282, -0.10174319031737777, -8.718068063260711, 0
7283, 0.2540333258871149, -8.756335296485375, 0
7284, 0.13047223670293903, -8.466342401260507, 0
7285, 0.18662369331069723, -8.507694766868482, 0
7286, 0.1990287592827755, -8.399483951224198, 0
7287, 0.2540333258871149, -8.312169330944439, 0
7288, 0.12410521404879349, -8.610664648522075, 0
7289, 0.060339083075315186, -8.805666178877068, 0
7290, 0.2540333258871149, -8.667502103377188, 0
7291, 0.16538979946113275, -8.279462270563206, 0
7292, 0.01978398442986105, -8.736618841412938, 0
7293, 0.18240386584750287, -8.654320218876839, 0
7294, 0.22517960612633753, -8.623085506823095, 0
7295, 0.10357296754979921, -8.698838347096684, 0
7296, 0.20883173905178726, -8.711918699931282, 0
7297, 0.13320881339331947, -8.659261957564917, 0
7298, 0.16298801924662437, -8.803781155614907, 0
7299, 0.20081325649986526, -8.765287419513651, 0
7300, 0.14267567273342416, -8.745990520111802, 0
7301, 0.2540333258871149, -8.845168489593563, 0
7302, 0.0854426889527743, -8.753663337334359, 0
7303, 0.13529855407250946, -8.32259807112671, 0
7304, -0.03917246321772982, -8.765141836261659, 0
7305, -0.05672783574266916, -8.943725096492024, 0
7306, -0.06452333215467011, -8.852804263307085, 0
7307, 0.052812156542396474, -8.69806501112913, 0
7308, 0.16090321692117435, -8.700119932917445, 0
7309, 0.2540333258871149, -8.134502944728062, 0
7310, 0.1114060577248811, -8.203058874589038, 0
7311, 0.1105396456976831, -8.260944178649668, 0
7312, 0.16044436110855861, -8.225683399546698, 0
7313, -7.421089166631096, -0.1446890699311572, 0
7314, -7.375027055090027, -0.12557455221238736, 0
7315, -7.506032549436366, -0.16656882762072, 0
7316, -7.469386816078119, -0.13301093849477524, 0
7317, -7.423837399862562, -0.2540333258871156, 0
7318, -7.590541534703704, -0.09015241322590653, 0
7319, -7.5635353548646815, -0.15955630480916003, 0
7320, -7.390469600425085, -0.20016531973116544, 0
7321, -7.452753208022045, -0.1988532076200416, 0
7322, -7.532351273651954, -0.1107372389923365, 0
7323, -7.528795634834119, -0.04717983285692774, 0
7324, -7.742177242674314, -0.138587996175985, 0
7325, -7.740271448865015, -0.08689877757755948, 0
7326, -7.596631210589333, 0.01122652638147756, 0
7327, -7.651892281503161, -0.016005348817197698, 0
7328, -7.754525414253622, -0.19828080031184744, 0
7329, -7.5523136260187576, 0.03876371626409543, 0
7330, -7.58053826235653, -0.038679163646122054, 0
7331, -7.246171013646188, -0.2540333258871156, 0
7332, -7.881750873390815, 0.2046405125638101, 0
7333, -8.068530490489286, 0.18313922638919536, 0
7334, -7.869364180499457, -0.19151667200595857, 0
7335, -8.15159398895311, 0.01467246343146935, 0
7336, -7.885421475042927, -0.032848927853522836, 0
7337, -7.902449767002415, 0.08480251969446145, 0
7338, -7.956381662989303, 0.13086329775391864, 0
7339, -8.062316704375892, 0.11294384709262954, 0
7340, -8.01248204139828, 0.14042419663449637, 0
7341, -7.995200094066225, 0.254033325887116, 0
7342, -7.997477952263217, 0.0590932931210123, 0
7343, -8.13840008734721, 0.19231756215135243, 0
7344, -7.945986033767795, 0.05724479691681196, 0
7345, -8.281600080628193, 0.254033325887116, 0
7346, -8.052011570302366, 0.059391920085003144, 0
7347, -8.19796113476805, 0.059073957810042016, 0
7348, -8.012548581969032, -0.07353102884395513, 0
7349, -8.186133418440871, 0.254033325887116, 0
7350, -8.045669751619876, -0.2540333258871157, 0
7351, -8.073690095102988, -0.0492705864832785, 0
7352, -8.119733648204136, 0.1340586276686042, 0
7353, -8.139462741393446, -0.048369092281572046, 0
7354, -8.108076630464117, -0.15827470581443642, 0
7355, -7.940913718853797, -0.07841193641398105, 0
7356, -8.025096208538013, -0.0049367632739522604, 0
7357, -8.244450510837815, -0.03588415553995189, 0
7358, -8.06337536804326, -0.11245034236487958, 0
7359, -8.189967511772519, -0.02539985289262213, 0
7360, -8.200757486561852, -0.11613442439561711, 0
7361, -8.119748752979069, -0.10217362787656539, 0
7362, -8.038675305766839, -0.1812600606469131, 0
7363, -7.956836558511688, -0.25403332588711564, 0
7364, -8.001253155065783, -0.2215795708455259, 0
7365, -7.947761849226957, -0.19499215078844212, 0
7366, 6.534068189860414, -0.2540333258871168, 0
7367, 6.57516805187494, -0.2270102277012624, 0
7368, 6.515236090722147, -0.20028201506186397, 0
7369, 6.328568879787783, -0.21253847084340244, 0
7370, 6.350759783018331, -0.14625329148936722, 0
7371, 6.4607881563214855, -0.20265597841415456, 0
7372, 6.425210129542015, -0.12737983735446104, 0
7373, 6.7600667008950905, -0.11224501695483974, 0
7374, 6.808947497212116, 0.13574398664866089, 0
7375, 6.790799692708677, 0.19402728186152365, 0
7376, 6.890838241213438, 0.254033325887115, 0
7377, 6.855758446292375, 0.15984244389834493, 0
7378, 6.896445578483488, 0.19831709028720437, 0
7379, 6.842843585002016, 0.2153580055577668, 0
7380, 7.068504627429813, 0.254033325887115, 0
7381, 6.862867085976623, -0.25403332588711686, 0
7382, 6.903966947991149, -0.19655256948511227, 0
7383, 6.821767223962096, -0.19836194410691657, 0
7384, 0.21004611958040195, -7.201754417092094, 0
7385, 0.2050073096209086, -7.290587610200281, 0
7386, 0.1570298872954075, -7.263872676218779, 0
7387, -0.2540333258871163, -7.804266769691579, 0
7388, -0.12719154091408577, -7.7758267709999, 0
7389, -0.06181186356600341, -7.809917693276949, 0
7390, -0.11773746939687106, -7.837433859051968, 0
7391, -0.06510371685702958, -7.873818583685281, 0
7392, -0.18624375825569167, -7.822322950883396, 0
7393, -0.23044792830764696, -7.85200010078524, 0
7394, -0.19770622033660368, -7.947466762972564, 0
7395, -0.2033848203668258, -7.997866508812549, 0
7396, -0.21409445143818576, -8.327375904642807, 0
7397, -0.16591676997407048, -8.345168550150964, 0
7398, -0.22344794307814753, -8.61573339828382, 0
7399, -0.16807065677654898, -8.824127296305305, 0
7400, 0.20884647571888168, -8.4554258875836, 0
7401, 0.21042299850360605, -8.552589868471232, 0
7402, 0.19633243139651937, -8.332076270607711, 0
7403, 0.2200660740867449, -8.267752734390344, 0
7404, 0.1140546604918472, -8.934931518793872, 0
7405, -0.14083593606309416, -9.107833880564417, 0
7406, 0.021315590167995592, -8.891239093942568, 0
7407, -0.004581205768431171, -8.822641981301283, 0
7408, 0.1956265609704402, -8.117873970806864, 0
7409, 0.22268272010617357, -8.178919541282157, 0
7410, -7.623714520123985, 0.06282065309481293, 0
7411, -7.201754417092094, -0.21004611965699582, 0
7412, -7.290587610200281, -0.20500731020720994, 0
7413, -7.263872675643631, -0.15702988803318413, 0
7414, -7.662193066069355, -0.12741357574319037, 0
7415, -7.644907501583127, -0.0731310255759756, 0
7416, -7.694693090039887, -0.18662742371375468, 0
7417, -7.779170172295313, -0.25403332588711564, 0
7418, -7.81259485156805, -0.20593510595706624, 0
7419, -7.62655300070772, -0.18550080991613976, 0
7420, -7.64592038263303, -0.23142385989424116, 0
7421, -7.964500846526315, -0.020473683194622692, 0
7422, -8.089865611458295, 0.01045020335521174, 0
7423, 7.335004206754375, 0.2540333258871149, 0
7424, -8.134502944728062, -0.2540333258871157, 0
7425, 6.9518688516748925, 0.11642795557143723, 0
7426, 7.003046673905373, 0.10686372538616068, 0
7427, 7.057695945006844, 0.023217492476692456, 0
7428, 7.022283768002805, 0.18536035928815803, 0
7429, 7.0106380159643225, 0.05214809640280265, 0
7430, 7.005435901575756, -0.00905059128931935, 0
7431, 6.976607089204207, 0.2045746709534844, 0
7432, 7.112921223983906, 0.17424726696546028, 0
7433, 7.024088030875719, 0.234037119282225, 0
7434, 7.070427916643687, 0.20284770877585892, 0
7435, 7.061989440959883, 0.13402420347876226, 0
7436, 7.326933458754967, -0.2540333258871169, 0
7437, 7.115409727416142, 0.1187389490390031, 0
7438, 7.8680033654035, 0.2540333258871148, 0
7439, -0.15360716277225328, -8.742323197311581, 0
7440, -0.2540333258871163, -8.758933391564804, 0
7441, -0.2051196575866766, -8.704549806518706, 0
7442, -0.1224883827808413, -8.860821759631314, 0
7443, -0.10344127847799084, -8.913246168235682, 0
7444, -0.08292899639774703, -9.073711155886292, 0
7445, -0.2540333258871163, -8.94986671593945, 0
7446, -0.01573131567154032, -9.075141437636196, 0
7447, -0.05162158284012525, -9.014234943353907, 0
7448, -0.2540333258871163, -9.045333378126772, 0
7449, 0.04311372961843579, -8.99943817129435, 0
7450, -0.05184660785338041, -9.192654559052686, 0
7451, -0.0013198941406335762, -9.025621497830764, 0
7452, -0.14750846772981524, -9.001739471165656, 0
7453, -0.10188072365645269, -9.025757252268114, 0
7454, -0.050486765360849305, -9.128766264556063, 0
7455, 0.06123900890900896, -9.163102932098893, 0
7456, 0.010255125275495512, -9.130059136820298, 0
7457, 0.2540333258871149, -9.111668068918126, 0
7458, -0.1995611691996773, -8.776378900794985, 0
7459, -0.2023279135109586, -8.8640366087903, 0
7460, 0.08007902640112738, -9.078180433511873, 0
7461, 0.15835984376845402, -9.14009807098921, 0
7462, 0.1191461877842375, -9.011792732924533, 0
7463, 0.10423040728936728, -9.128089480249741, 0
7464, 0.14761767278085802, -9.07323611787379, 0
7465, 0.19832213706689542, -9.099383745924, 0
7466, 0.2540333258871149, -9.022834875809938, 0
7467, 0.18654335660914428, -9.017880614073393, 0
7468, 0.18374585881288558, -8.889585086147656, 0
7469, 0.17601629092709306, -8.953931894040577, 0
7470, 0.2329236309316274, -8.889585086147656, 0
7471, 0.20151022768409607, -8.839874646407832, 0
7472, 0.11536264384741103, -8.860715623192927, 0
7473, 0.07520345258567149, -8.897127330072292, 0
7474, 0.2238257772547558, -8.978418279255845, 0
7475, -0.03226556477052398, -8.895833109268237, 0
7476, -7.557087189524843, -0.21701558221379558, 0
7477, -8.401002524052625, -0.2540333258871157, 0
7478, -8.090086348173969, -0.21476516642561816, 0
7479, -8.17857864001619, -0.19034412618522667, 0
7480, -0.032324070424077214, -9.25078682576741, 0
7481, 7.51267059297075, 0.2540333258871149, 0
7482, 0.004749287861238377, -8.950871896156972, 0
7483, -0.17489965502522223, -8.932880660966122, 0
7484, -0.21138502061142234, -8.99760004703311, 0
7485, -0.18870873928914986, -9.060779785788933, 0
7486, -0.2540333258871163, -9.140800040314094, 0
7487, -0.1989577298006307, -9.119087027295611, 0
7488, -0.1515587574627484, -9.20817545813454, 0
7489, 0.13548703332325607, -9.260047226085597, 0
7490, 0.2540333258871149, -9.200501262026314, 0
7491, -8.33416525050849, -0.13674987754512427, 0
7492, -8.261835156134032, -0.17940695854894367, 0
7493, -8.269928154602477, -0.11047896010634069, 0
7494, -8.312169330944439, -0.2540333258871157, 0
7495, -8.267752734390346, -0.2297035982413431, 0
7496, -8.319612706522692, -0.19472495736574386, 0
7497, 7.136000134380321, -0.2540333258871169, 0
7498, 7.078708477304321, -0.06926666483423786, 0
7499, 7.040533472192998, -0.2540333258871169, 0
7500, 7.166064246334273, 0.19691905279992805, 0
7501, 7.246171013646188, 0.2540333258871149, 0
7502, -0.10766317315687259, -9.162122554192102, 0
7503, -0.21203081746084596, -9.188533371407756, 0
7504, 0.12006794306433116, -9.194951639914482, 0
7505, 0.1863924219762452, -9.213615404793629, 0
7506, 0.19491192232659166, -9.274076629650855, 0
7507, 0.2540333258871149, -9.64466722756725, 0
7508, 0.14919308335343867, -9.334860833957652, 0
7509, 0.2540333258871149, -9.467000841350876, 0
7510, 0.08223549278300601, -9.370938705226143, 0
7511, 0.15956835128251196, -9.434289339051247, 0
7512, 0.13393125069924547, -9.386708968483026, 0
7513, 0.2151711868191443, -9.156084665472221, 0
7514, 0.2540333258871149, -9.378167648242687, 0
7515, 0.19353024852060347, -9.376082041038103, 0
7516, 0.21321249401357073, -9.325336575930352, 0
7517, 0.21481190395786412, -9.427510564611582, 0
7518, 0.16324813162660312, -9.63507985509284, 0
7519, 7.290587610200282, 0.10700112726579752, 0
7520, 7.194603934884355, 0.005694065529087897, 0
7521, 7.016690959505355, -0.15109077117284667, 0
7522, 6.975472932033037, -0.19880075887617765, 0
7523, -0.09118386181342966, -9.267991908117466, 0
7524, -0.09930597794995259, -9.215812349763373, 0
7525, 0.07363902795320947, -9.306739942347654, 0
7526, -0.25403332588711625, -9.618133351250709, 0
7527, 0.00989182310733265, -9.295265002825547, 0
7528, 0.06293214338284012, -9.242859248977162, 0
7529, 0.011454405160483405, -9.203740460069099, 0
7530, -0.25403332588711625, -9.331733364688741, 0
7531, -0.1965153115997137, -9.243674468147027, 0
7532, -0.14414911352125698, -9.261074140315614, 0
7533, 0.2540333258871149, -9.555834034459064, 0
7534, 0.03575720627944834, -9.506551170952543, 0
7535, 0.11413113743093511, -9.500969027215724, 0
7536, 0.09004646045371006, -9.437949787023106, 0
7537, -0.008796505033797142, -9.415510379964545, 0
7538, 0.04458465969147881, -9.409288147153008, 0
7539, 0.011446111208890768, -9.357081509945655, 0
7540, -0.05309809824479014, -9.327776588499374, 0
7541, -0.25403332588711625, -9.427200026876063, 0
7542, 7.290587610200281, 0.18722607697775565, 0
7543, 7.22848417644748, 0.19410554176674333, 0
7544, 7.423371880670756, 0.14711360212177804, 0
7545, 7.363038485048918, 0.18722607697775662, 0
7546, 7.359965453684232, 0.11717377877528125, 0
7547, 7.423837399862562, 0.2540333258871149, 0
7548, 7.348107371329223, -0.043619679984010645, 0
7549, 7.415437123532729, 0.20060902466299613, 0
7550, 7.336125377861451, 0.03809793971994305, 0
7551, 7.261598791397908, 0.03834312997043525, 0
7552, 7.474632034782701, 0.016669477698640196, 0
7553, 7.420656761498716, 0.07075283103078094, 0
7554, 7.202390326308632, 0.10379099834900553, 0
7555, 7.262105458502777, -0.047756739724890127, 0
7556, 7.397353618446477, 0.005338390436248501, 0
7557, 7.449048855063422, -0.09788938749448806, 0
7558, 7.408652573616684, -0.05527416782452711, 0
7559, 7.517866783129612, -0.2540333258871169, 0
7560, 7.4660481627805, -0.04168493892159249, 0
7561, 7.5841929229251575, -0.15897336015099175, 0
7562, 7.4625773945437475, -0.15502864826825408, 0
7563, 7.617162559097261, -0.10222367498563524, 0
7564, 7.561680234938632, -0.025943766525229374, 0
7565, 7.2452169537576525, 0.14034426164830463, 0
7566, 7.164280696457183, 0.14257454070449652, 0
7567, 7.149850013640386, 0.05860387075356605, 0
7568, 7.093941523884202, 0.06651399745159207, 0
7569, 7.123095367439722, -0.009409152380975658, 0
7570, 7.212703307929811, 0.053614924233279126, 0
7571, 7.303315106268292, -0.008450176126508765, 0
7572, 7.30775074699545, -0.1006590420940395, 0
7573, 7.19729450487756, -0.14982011717110766, 0
7574, 7.231466796567644, -0.2540333258871169, 0
7575, 7.245103285290662, -0.1085696332278699, 0
7576, 7.173635617150277, -0.07186403160615154, 0
7577, 7.3350321050356015, -0.1983304702856682, 0
7578, 7.283432926940936, -0.16009723659885244, 0
7579, 7.21269307928934, -0.040809954690108965, 0
7580, 7.124564288181366, -0.129324846278831, 0
7581, 7.067914149580266, -0.12675965513430004, 0
7582, 7.093203699179319, -0.1950792090177656, 0
7583, 7.155117173510775, -0.1951451143148098, 0
7584, 7.235589740001067, -0.1949721022996076, 0
7585, 7.039442618377301, -0.20005362030604829, 0
7586, -0.12252035331769423, -9.527587052441714, 0
7587, 7.378883430608695, -0.12394730744847661, 0
7588, 7.773030311122444, 0.05038068960080211, 0
7589, 7.6903369791871246, 0.25403332588711486, 0
7590, 7.497059393758589, 0.10626487899046413, 0
7591, 7.469528620845919, 0.06555164368990507, 0
7592, 7.550195260668324, 0.0503396020422194, 0
7593, 7.526710414293464, 0.17784121313525356, 0
7594, 7.524047069457998, 0.007396561615751088, 0
7595, 7.6616168887541285, 0.028108623296535573, 0
7596, 7.474848691868427, 0.2076743272956402, 0
7597, 7.6018942755756145, 0.01911698214864461, 0
7598, 7.6415258497191925, -0.041281458536286286, 0
7599, 7.619299014893521, 0.10634950633909233, 0
7600, 8.090666756253547, -0.2540333258871169, 0
7601, 7.731087855476794, -0.029609431669929784, 0
7602, 7.682644691696024, -0.09779490698470597, 0
7603, 7.42240012094229, -0.2540333258871169, 0
7604, 7.699552761400154, -0.1476746180548897, 0
7605, 7.601503786078937, 0.2540333258871149, 0
7606, 7.475764414202213, 0.15473787023019894, 0
7607, 7.558167730823133, 0.12288004615765286, 0
7608, 7.606333436032411, 0.17970124489132172, 0
7609, 7.52490643002011, -0.1101001869341376, 0
7610, 7.6419982424987865, -0.15460432300185512, 0
7611, 7.613333445316934, -0.2540333258871169, 0
7612, 7.677045268888426, -0.20321288816404087, 0
7613, 7.557087189524844, 0.22282830808502746, 0
7614, 7.700033986336177, 0.15844189850901436, 0
7615, 7.64592038263303, 0.21959630698294838, 0
7616, 7.402679814489546, -0.18809354201443396, 0
7617, 7.648713836006309, 0.14937060082201936, 0
7618, -0.0469020025213535, -9.490580803541613, 0
7619, 0.0004473858297832714, -9.467408871964993, 0
7620, -0.10978729734683086, -9.411454113184183, 0
7621, -0.02942962944005978, -9.622045918188775, 0
7622, -0.10338777532763249, -9.470920278973875, 0
7623, -0.1786771919295997, -9.448945209937722, 0
7624, -0.01616466510791406, -9.55338929757054, 0
7625, -0.07820348013484318, -9.577012696648138, 0
7626, 0.0764204724443812, -9.6068871821295, 0
7627, -0.16347242230197584, -9.608887104049174, 0
7628, 0.039859480876573136, -9.563296463359924, 0
7629, -0.17899617775112708, -9.36632093048049, 0
7630, -0.1878204126414362, -9.30500693665115, 0
7631, -0.12394826234909984, -9.327106518469204, 0
7632, -0.23480015191590356, -9.28400003359508, 0
7633, -0.25403332588711625, -9.522666689063385, 0
7634, 0.11166207785787416, -9.559762206002791, 0
7635, -0.2305455339332557, -9.379466695782401, 0
7636, -0.22699199791667546, -9.474933357969723, 0
7637, -0.18839646596966175, -9.528324280770045, 0
7638, -0.22508545778169242, -9.570400020157047, 0
7639, 7.719700898731557, 0.027352495616709247, 0
7640, 7.722233516415926, 0.09475243849616866, 0
7641, 7.818159361748359, 0.1533064128342704, 0
7642, 7.779406123824043, 0.10894169158570423, 0
7643, 7.8692990205499465, 0.06952704420886346, 0
7644, 7.470133452035951, -0.2157495322307904, 0
7645, 7.529061765875039, -0.19117556114764256, 0
7646, 7.565600114223273, -0.23010884652304137, 0
7647, 7.517650435030299, -0.05681680778647065, 0
7648, 7.568727092673908, -0.07913575903166176, 0
7649, -0.05816343948556114, -9.385386401841057, 0
7650, -0.25403332588711625, -9.809066675625354, 0
7651, 7.668735183204556, 0.08252327245151518, 0
7652, 7.732504121596808, 0.21280092179270843, 0
7653, 7.779170172295313, 0.2540333258871148, 0
7654, 7.755076535553024, 0.1583154634153377, 0
7655, 7.7901566530559325, 0.20037656415306984, 0
7656, 7.97102987129594, -0.06364613561080792, 0
7657, 7.938454086272383, -0.15999030003390902, 0
7658, -0.16278214914844522, -9.735277759932385, 0
7659, 7.828285376157276, 0.024150623579916763, 0
7660, 7.786646159685741, -0.015312174020995717, 0
7661, 7.899733431878902, -0.2540333258871169, 0
7662, 7.9078054855498126, -0.006500542415153535, 0
7663, 7.733149933635519, -0.08237570122893079, 0
7664, 7.80426676969158, -0.2540333258871169, 0
7665, 7.849397545368319, -0.04076739601326181, 0
7666, 7.916209342543757, -0.06075043322255995, 0
7667, 7.740775941825607, -0.19872229518054854, 0
7668, 7.9724246104699015, 0.0014446650418971849, 0
7669, -0.25403332588711625, -9.713600013438032, 0
7670, 8.22333613783625, 0.2540333258871147, 0
7671, 8.044578129749404, -0.12253048737049066, 0
7672, 7.76169715077051, -0.13835618619004691, 0
7673, 7.864557411017573, -0.11176316733350075, 0
7674, 7.799274516825101, -0.08392456807250148, 0
7675, 7.916578953662785, -0.11278061177304916, 0
7676, 7.868638665329695, -0.18623776587299157, 0
7677, 7.804160638495244, -0.18688125426862845, 0
7678, 7.816192591216549, -0.134715955519344, 0
7679, 7.852000100785241, -0.2348977889147017, 0
7680, 7.956836558511688, 0.2540333258871148, 0
7681, 7.995200094066225, -0.2540333258871169, 0
7682, 7.9846989192653846, -0.12194722624672145, 0
7683, 7.999625665092822, -0.18722099730617625, 0
7684, 8.042933425159886, -0.22364238965281721, 0
7685, 7.874770022726621, 0.13036432339885637, 0
7686, 7.872761459189702, 0.19227404611571564, 0
7687, 7.947466762972563, -0.21869392620634162, 0
7688, 4.342700333873871, 0.9182491445850577, 0
7689, 4.379273160338821, 0.9625131296906718, 0
7690, 4.6447189358350665, 1.4776124457979127, 0
7691, 4.590586844406523, 1.4648855974002182, 0
7692, 4.655297356629089, 1.5600386366308865, 0
7693, 4.6132936478412185, 1.600622165934143, 0
7694, 4.708220396015763, 1.560152043575067, 0
7695, 4.122706609050708, -1.0451334115478834, 0
7696, 4.10260675657643, -0.9953191371268953, 0
7697, 3.9298844823768935, -0.2497816907509298, 0
7698, 3.941475045264429, -0.19690548147893377, 0
7699, 3.9411813132400773, -0.3023746431845088, 0
7700, 4.645734932184196, -6.175110371784442, 0
7701, -6.02113235841586, -3.8804204630371917, 0
7702, -6.06800288286228, -3.8551719460902065, 0
7703, -6.066991728154682, -3.9114081112065193, 0
7704, 3.890692685387262, -0.10587777952091584, 0
7705, 4.403508834184189, 0.2540333258871158, 0
7706, 4.447925430738283, 0.19931382380207258, 0
7707, 4.436890325135268, 0.14593169672133094, 0
7708, 4.359092237630096, 0.2152106830642545, 0
7709, 0.1977842514210782, 4.360054385795859, 0
7710, 3.6262422848577582, -6.07901304852052, 0
7711, 3.805145958676407, -6.199944572180647, 0
7712, 3.758577978745995, -6.2403956272300585, 0
7713, 3.8645828303498444, -6.212309838643536, 0
7714, 3.8030527716654525, -6.14589696310359, 0
7715, 3.484963586255566, 6.3272397110342355, 0
7716, 3.538480419082904, 6.341140562985473, 0
7717, 3.430044040591561, 6.34659229397494, 0
7718, 3.4810410802261353, 6.399475191930628, 0
7719, 3.4809567219037394, 6.253194447350156, 0
7720, 3.435029818486184, 6.228469286211561, 0
7721, 3.5156181091233534, 6.2884498358959, 0
7722, 3.781185574610119, 6.3154837151701, 0
7723, 3.75269983837425, 6.374691402058426, 0
7724, 3.7346071832249197, 6.263200794550761, 0
7725, 3.714199066618992, 6.323725954770421, 0
7726, 4.033123074445732, 6.334017149074446, 0
7727, 4.060173210236726, 6.2846350191820415, 0
7728, 3.9943914938549026, 6.295268339488454, 0
7729, 0.2540333258871159, 6.1230695697151525, 0
7730, -0.12100348496253327, 5.884728160121968, 0
7731, -0.14115945491814377, -5.905895256943888, 0
7732, -0.1256524757224067, -5.818675002542325, 0
7733, -0.25403332588711613, -5.876470397627994, 0
7734, -0.1918256575617004, -5.843168404591577, 0
7735, -5.905895256943892, 0.14115945491814788, 0
7736, -5.818675002542343, 0.1256524757224109, 0
7737, -5.876470397627996, 0.25403332588711586, 0
7738, -5.843168404591585, 0.1918256575617026, 0
7739, -7.974691915730099, 0.192794662408106, 0
7740, -8.042933425159886, 0.23003476871592773, 0
7741, -8.382207061548847, 0.09041751956859945, 0
7742, -7.98637199948432, -0.13691211768398232, 0
7743, 0.18217107908204128, -9.533274845203467, 0
7744, 0.1601892241955323, -9.581850131526522, 0
7745, 0.22850465900456562, -9.511417437904969, 0
7746, 0.16314340886156686, -9.485546346364682, 0
7747, 0.032912006509138475, -9.727910554705412, 0
7748, 0.21581856531654195, -9.600250631013157, 0
7749, 0.2540333258871149, -9.822333613783625, 0
7750, 0.08823231727321017, -9.718311159945113, 0
7751, 0.2540333258871149, -9.733500420675437, 0
7752, 0.107177205578914, -9.659964783665295, 0
7753, 0.146374083804102, -9.704940750574949, 0
7754, -6.661338147750939e-16, -10.0, 0
7755, 0.20419838419190206, -9.681939197522938, 0
7756, 0.12701666294355712, -10.0, 0
7757, -0.02289318568455244, -9.734096481234458, 0
7758, 0.04080838983013785, -9.783499513080663, 0
7759, 0.1445018391248877, -9.833583907858545, 0
7760, -0.0795413746896383, -9.87291091777253, 0
7761, 0.0783461902988844, -9.836575027591437, 0
7762, 0.19078676398299765, -9.754718919900135, 0
7763, 0.19281022868258738, -9.81621383744877, 0
7764, 0.04140092362112535, -9.662629925603015, 0
7765, 0.2540333258871149, -9.911166806891814, 0
7766, 0.12130794057843092, -9.787785841109875, 0
7767, -0.0010225036324143233, -9.852896637507717, 0
7768, 0.02265677065822736, -9.613242103673745, 0
7769, -0.014084915016677274, -9.677366720303903, 0
7770, -0.10199721876464402, -9.671963029522958, 0
7771, -0.15628356661547538, -9.678828406631496, 0
7772, -0.11726563276795277, -9.769292577286162, 0
7773, -0.018950898271798307, -9.794783955422979, 0
7774, -0.12701666294355846, -10.0, 0
7775, 0.11501998909586261, -9.914612899943588, 0
7776, -0.11100715302661879, -9.61924879751483, 0
7777, -0.024042888547951433, -9.926611885266732, 0
7778, 0.19052499441533602, -10.0, 0
7779, 0.18927637297993088, -9.882246675477992, 0
7780, 0.04956150608239336, -9.897738692018079, 0
7781, -0.09154066565809356, -9.940840427996584, 0
7782, -0.19301890086614426, -9.869134973073134, 0
7783, -0.06350833147177956, -10.0, 0
7784, -0.1291910797606056, -9.899165183525158, 0
7785, -0.13219792003078695, -9.833405257469751, 0
7786, -0.07588310339089654, -9.813189440089545, 0
7787, -0.18627925154375688, -9.787014084135508, 0
7788, -0.25403332588711625, -9.904533337812676, 0
7789, 0.2018753261283884, -9.940996362171376, 0
7790, 0.06350833147177823, -10.0, 0
7791, 0.07182247191209548, -9.946784365497715, 0
7792, 0.15075519792596082, -9.953128493895592, 0
7793, 0.020535229528868534, -9.952639958330884, 0
7794, -0.07992788109965349, -9.725287498510095, 0
7795, -0.19052499441533735, -10.0, 0
7796, -0.25403332588711625, -9.952266668906338, 0
7797, -0.15877082867944792, -9.950243898542038, 0
7798, -0.203503047225755, -9.921346932440986, 0
7799, -0.20517899916510887, -9.648513979534965, 0
7800, -0.23210369207374681, -9.761333344531694, 0
7801, 7.951859120434566, 0.08243802338615465, 0
7802, 7.915406329874093, 0.04511430829262739, 0
7803, 8.139035263493733, 0.08685736559045043, 0
7804, 8.102857616457968, 0.02663654675396366, 0
7805, 8.025267606721336, -0.071275762250559, 0
7806, 8.042332666686713, 0.06230305235191502, 0
7807, 7.992011772629303, 0.04952578435781415, 0
7808, 8.061154673857214, -0.029898696632969624, 0
7809, 8.045669751619876, 0.25403332588711475, 0
7810, 8.170220212293382, -0.06670174516134911, 0
7811, 8.281600080628193, -0.2540333258871169, 0
7812, 8.121584091346628, -0.030825551151108292, 0
7813, 8.109158578052245, -0.09857564597502141, 0
7814, 8.195416488656598, 0.01836123343782621, 0
7815, 8.10614215822908, -0.17704548913491547, 0
7816, 8.054573529783852, -0.17326240203822707, 0
7817, 8.186133418440871, -0.2540333258871169, 0
7818, 8.13840008734721, -0.22357896907378136, 0
7819, 8.214267392197813, -0.15730175885772807, 0
7820, 8.162551961866633, -0.12643709016797142, 0
7821, 8.016297550571732, 0.15865037411795774, 0
7822, 7.941733015326469, 0.16352427602581465, 0
7823, 7.9817782036458205, 0.20335651751055833, 0
7824, 7.922015754370155, 0.21332927421138168, 0
7825, 8.261301524346019, 0.1300457932373561, 0
7826, 8.233866749534531, -0.21545925849705186, 0
7827, 8.3240470119016, -0.15268678726553653, 0
7828, 8.26982832469173, -0.17095874585289392, 0
7829, 8.267244974608177, -0.07371514176257628, 0
7830, 8.078214143407326, 0.12369028290166578, 0
7831, 8.084970986096716, 0.19461175496306657, 0
7832, 8.134502944728062, 0.25403332588711475, 0
7833, 8.128637239168023, 0.13831993970367318, 0
7834, 8.194385594539504, 0.12482266065070086, 0
7835, 8.232174164591429, 0.07195287253836515, 0
7836, 8.27280925733767, 0.004680311145143818, 0
7837, 8.226520451902788, -0.03142943800232503, 0
7838, 8.392913125101453, -0.04323950916657105, 0
7839, 8.325218547351405, -0.038434743636377826, 0
7840, 8.320233803487712, -0.09551565854235636, 0
7841, 8.366597375861755, 0.06527510575995321, 0
7842, 8.299676011140992, 0.07445652858643423, 0
7843, 8.329367468770831, 0.020019614196740705, 0
7844, 8.21656634139989, -0.1001768171761734, 0
7845, 8.223516568532293, 0.18628224549969175, 0
7846, 8.401002524052625, 0.25403332588711464, 0
7847, 8.312169330944437, 0.22039412077698572, 0
7848, 8.261332247532936, 0.220258734443775, 0
7849, 8.341514299963645, 0.14437842226431122, 0
7850, 8.295498110587978, 0.1702864018063888, 0
7851, 8.474707287316372, 0.14308444518587313, 0
7852, 8.370906350819654, 0.19939686867952464, 0
7853, 8.408114948120046, 0.14415906696241765, 0
7854, 8.489835717160812, 0.25403332588711464, 0
7855, 8.442345799063094, 0.20154224355885636, 0
7856, 8.633664898383827, 0.1679403791260201, 0
7857, 8.178919541282156, 0.22003925776729166, 0
7858, 8.136722690132576, 0.18967405567835774, 0
7859, 8.534252313714905, 0.19147104422880173, 0
7860, 8.566476284795773, 0.09098425919491959, 0
7861, 8.934001682701751, 0.25403332588711447, 0
7862, 8.53075748673603, 0.13494016466172618, 0
7863, 9.289334455134501, 0.25403332588711436, 0
7864, 8.756335296485375, 0.2540333258871145, 0
7865, 8.85440005375213, -0.254033325887117, 0
7866, 8.588725608526065, 0.19984539048639907, 0
7867, 8.848335479074036, 0.14689305778150621, 0
7868, 8.667502103377188, 0.2540333258871145, 0
7869, 8.642715745329761, 0.09222981889144877, 0
7870, 8.711918699931282, 0.18688021216413778, 0
7871, 8.666145590852008, 0.20487046727059696, 0
7872, 8.682950869353554, 0.13543601522642218, 0
7873, 8.793158111342956, 0.16008855472620231, 0
7874, 8.74167864557373, 0.13624473679653126, 0
7875, 9.23626670250142, -0.254033325887117, 0
7876, 8.845168489593563, 0.25403332588711447, 0
7877, 8.568000067190162, -0.254033325887117, 0
7878, 8.801748199724779, 0.07404760727676371, 0
7879, 9.021277201966877, -0.015029222910339729, 0
7880, 8.758035856440234, 0.20464290647658076, 0
7881, 8.718918512248672, 0.05415721557363891, 0
7882, 8.6061465071382, -0.003297026753615498, 0
7883, 8.754475190589856, 0.08849760767112799, 0
7884, 8.798477768020133, -0.09474261158108777, 0
7885, 8.91977935796055, 0.04988229015336501, 0
7886, 8.605246186375643, 0.051810704683241546, 0
7887, 8.662656146748795, 0.025187417836900455, 0
7888, 8.729654234450425, -0.03581126216238301, 0
7889, 8.865409069956417, 0.08465404018026937, 0
7890, 8.772152300782732, 0.014884702776615882, 0
7891, 8.852542464370522, 0.00464189072040657, 0
7892, 8.806669274399184, -0.034801032143681666, 0
7893, 8.932640362715125, -0.04181629916914868, 0
7894, 8.86768556824048, -0.0736699148658064, 0
7895, 8.857247311958282, -0.1635720450614095, 0
7896, 8.842867538274588, -0.1163454125254201, 0
7897, 8.903896339684719, 0.0009034566700688168, 0
7898, 8.889585086147658, 0.2017293076025367, 0
7899, 8.933724414243224, 0.13158074171009482, 0
7900, 9.008487072491942, 0.07678018940392287, 0
7901, 8.957411762642739, 0.08549820127477914, 0
7902, 8.49421712149657, 0.005093610766756254, 0
7903, 8.551866930947318, 0.02337740264206656, 0
7904, 8.500068633941552, 0.07351164926440701, 0
7905, 8.545338843196351, -0.05606759336907446, 0
7906, 8.434861200562855, 0.04462932480216815, 0
7907, 8.440700029952097, 0.09955695229589914, 0
7908, 8.388050100766014, 0.01302937249997408, 0
7909, 8.440105399613987, -0.011821527479163575, 0
7910, 8.464873871427017, -0.1001779573149299, 0
7911, 8.391857445015644, -0.1194512256196363, 0
7912, 8.597359169658485, -0.054591054024636376, 0
7913, 8.663466729377484, -0.254033325887117, 0
7914, 8.5729341815775, -0.11117702536324746, 0
7915, 8.51503905181074, -0.14364892328719378, 0
7916, 8.682742145669389, -0.13888885673039258, 0
7917, 8.63323657916558, -0.10364175213006444, 0
7918, 8.688025113942684, -0.07907923236889755, 0
7919, 8.739444066814821, -0.1137591886273225, 0
7920, 8.758933391564806, -0.254033325887117, 0
7921, 8.613133664496997, -0.18426641506490868, 0
7922, 8.65588673099291, -0.03167920725694571, 0
7923, 8.489928883089075, -0.05043642398133159, 0
7924, 8.329331752173434, -0.2144624781260397, 0
7925, 8.44989251813705, -0.16814694136776429, 0
7926, 8.499431856804321, -0.2010150828731271, 0
7927, 8.555213989655824, -0.18538517524138012, 0
7928, 8.615733398283822, -0.23543059908189773, 0
7929, 8.670381133017132, -0.19600520464365437, 0
7930, 8.377066742815515, -0.2540333258871169, 0
7931, 8.96548553587628, 0.009541527886891759, 0
7932, 9.045333378126774, -0.254033325887117, 0
7933, 9.216124243001843, 0.05891087225274057, 0
7934, 8.993673683230545, 0.13496919129695514, 0
7935, 8.384810354462568, -0.18678054992229157, 0
7936, 8.424800073909177, -0.22545723676696916, 0
7937, 9.0097427289346, -0.13690288691012145, 0
7938, 8.931464759365111, -0.12157264549122554, 0
7939, 8.979777027944438, -0.08239792786391675, 0
7940, 9.1102676007759, 0.04416379866057779, 0
7941, 8.90811066665071, -0.16687825470536835, 0
7942, 8.949866715939452, -0.254033325887117, 0
7943, 9.111668068918126, 0.2540333258871144, 0
7944, 9.073227994282718, 0.12424157569928698, 0
7945, 8.806666722658468, -0.20725547591640456, 0
7946, 8.784444940092518, -0.1523183922628748, 0
7947, 8.997600047033114, -0.20456491416331507, 0
7948, 8.945838775860315, -0.202382904208431, 0
7949, 8.965113632373685, -0.15727090611056188, 0
7950, 9.051528940362042, 0.03598081335504238, 0
7951, 8.735001170675181, -0.19397398934561913, 0
7952, 0.1179361709399128, 6.146993065723768, 0
7953, 0.2540333258871159, 6.0408698456861005, 0
7954, 0.19678062179436492, 5.979835058587057, 0
7955, 0.138950573309298, 6.054731530428205, 0
7956, 0.09456884224489343, 6.022832816825299, 0
7957, 0.07873956438163757, 6.090090958954989, 0
7958, 0.04831853997320164, 6.152997466082877, 0
7959, 0.017247295470148652, 6.089204078836193, 0
7960, -0.09008902019419171, 6.04624775589455, 0
7961, -0.02474812999230526, 6.038558893735269, 0
7962, 0.09641108368481348, 6.304012592255293, 0
7963, -0.05184380343982813, 6.0897784155579595, 0
7964, -0.2540333258871158, 6.269005889456125, 0
7965, -0.12595940591006408, 6.1163288933736215, 0
7966, -0.06585173388701564, 5.970737310860751, 0
7967, 0.08942996218137254, 6.223070431257818, 0
7968, 0.002331890462713128, 5.957852857443726, 0
7969, -0.04616269321409018, 5.888076626923348, 0
7970, 0.19537456028686495, 6.038523876468755, 0
7971, -0.08247587800728831, 6.173423815100094, 0
7972, -0.006937349334919381, 6.234307883125982, 0
7973, -0.03258792907555662, 6.188830263721423, 0
7974, -0.2540333258871158, 6.180172696347937, 0
7975, -0.13618183005567275, 6.169220299774852, 0
7976, -0.19517681219383892, 6.130384668754695, 0
7977, -0.11910024434877779, 6.296165617939221, 0
7978, -0.07635688823696488, 6.242084622706865, 0
7979, -0.1969038403943927, 6.069105373696827, 0
7980, -0.14146995263601153, 6.234553758511812, 0
7981, -0.18726349582870602, 6.286047103585688, 0
7982, -0.19298807056409312, 6.197503115472428, 0
7983, -0.16762479167590222, 6.388400930088909, 0
7984, -0.2540333258871158, 6.357839082564313, 0
7985, -0.1595172191968783, 6.333784364606001, 0
7986, -0.08561264662314691, 6.372665199353163, 0
7987, -0.033520472473712384, 6.310739255539507, 0
7988, -0.2540333258871158, 5.824839923915188, 0
7989, 0.2540333258871159, 6.205269293744205, 0
7990, 0.00938782174594839, 5.874949907566784, 0
7991, -0.2540333258871158, 5.913673117023375, 0
7992, -0.12446010679699339, 5.80989228567029, 0
7993, -0.06751018410467449, 5.821491898720261, 0
7994, 0.03857817742051034, 6.205808487998662, 0
7995, 0.045685149649425605, 6.267754256530662, 0
7996, -0.13563115289106717, 6.0671579663653805, 0
7997, -0.08519610068300171, 5.922454435250017, 0
7998, -0.07990984170227912, 6.324589435432728, 0
7999, 0.2540333258871159, 6.616267913889466, 0
8000, 0.14099158905914955, 6.259395465378619, 0
8001, 0.19748688371940365, 6.273535217554827, 0
8002, 0.2540333258871159, 6.369668741802309, 0
8003, 0.2540333258871159, 6.451868465831362, 0
8004, 0.13665674212011297, 6.1973869933449794, 0
8005, -0.2540333258871158, 6.0025063101315626, 0
8006, -0.14485201152490165, 5.987024916242534, 0
8007, 0.2540333258871159, 6.780667361947571, 0
8008, 0.037447329658751, 6.423310421044508, 0
8009, -0.11789878034495203, 6.42598000951828, 0
8010, -0.040018408556150124, 6.436709193196947, 0
8011, 0.0733659191628972, 6.710113843896013, 0
8012, -0.02050203515754298, 6.374563349656412, 0
8013, 0.03562934297478275, 6.335434799050014, 0
8014, 0.017832435407080342, 6.540541430356614, 0
8015, -0.20658195342070076, 6.42383448643209, 0
8016, -0.19862293882222817, 5.780423327361094, 0
8017, -0.04030228210201184, 6.5048994713640145, 0
8018, 0.015065766765575497, 6.479822045911997, 0
8019, 0.13805890650771876, 6.495845822317979, 0
8020, 0.07399241566301334, 6.507559786587469, 0
8021, -0.16300833980299978, 6.456650684266131, 0
8022, -0.2540333258871158, 6.624338661888876, 0
8023, 0.18212785035911086, 6.113090007304933, 0
8024, 0.06175503289648456, 6.653904792371067, 0
8025, 0.09448263019309475, 6.606754240641352, 0
8026, 0.06739800078421498, 6.560635488541283, 0
8027, -0.19613379992546484, 5.945423893509083, 0
8028, 0.17212301970781352, 6.410768603816836, 0
8029, -0.2540333258871158, 6.802005048105251, 0
8030, 0.013023833103697285, 6.623580869142351, 0
8031, -0.1854581134433419, 5.8502075119366355, 0
8032, -0.1970767609176075, 6.011450992026257, 0
8033, -0.2314844315554206, 5.869256520469281, 0
8034, -0.14381497745419236, 5.933338389516906, 0
8035, 0.22338944335916572, 6.410768603816836, 0
8036, -0.0569924873652979, 6.5837197275673045, 0
8037, 0.19452563581766807, 6.213529931720632, 0
8038, 0.21221240577081535, 6.160361646690012, 0
8039, 0.1941899063459514, 6.468962059945738, 0
8040, 0.2540333258871159, 6.534068189860414, 0
8041, 0.17642503639675403, 6.57516805187494, 0
8042, 0.22611203056888218, 6.57516805187494, 0
8043, -0.09903022925078407, 6.485035347681612, 0
8044, 0.12409235731461082, 6.551540556031266, 0
8045, 0.19922230533770774, 6.524392563156274, 0
8046, 0.14877139729184027, 6.62551020967155, 0
8047, 0.10634506461790105, 6.433789816595675, 0
8048, 0.07951135460398782, 6.378483576510508, 0
8049, 0.1402857442681098, 6.353122108980764, 0
8050, 0.19748679641788736, 6.3591457117238015, 0
8051, -0.2540333258871158, 6.535505468780688, 0
8052, -0.12539390680145313, 6.541146948015083, 0
8053, -0.07627229590678056, 6.538460018912783, 0
8054, -0.008891603724965513, 6.580652855693308, 0
8055, -0.1008601395271836, 6.742196108629734, 0
8056, -0.14276148411664083, 6.645287783004, 0
8057, -0.05890417589257394, 6.668500221373325, 0
8058, 0.005493185429268618, 6.694830318176675, 0
8059, 0.007776419952163591, 6.843040734033457, 0
8060, 0.02452543100207288, 6.768659914570204, 0
8061, -0.11258403595709635, 6.59680186522309, 0
8062, -0.03506465672407576, 6.626625971214538, 0
8063, -0.10956727235712807, 6.688448068713987, 0
8064, -0.2540333258871158, 6.713171854997063, 0
8065, 0.13727007070128328, 6.8130691357681075, 0
8066, -0.045862210624519735, 6.791886257902711, 0
8067, -0.045767841453479285, 7.168575706214898, 0
8068, -0.04168515695749215, 6.731981610737619, 0
8069, -0.14008782546532283, 6.840895410466721, 0
8070, -0.10209907901768668, 6.7988487994825055, 0
8071, -0.06655010067276877, 6.869151547589545, 0
8072, -0.1620423070856449, 6.782875171628925, 0
8073, 0.07020092834868902, 6.818021258984674, 0
8074, 0.09999568955401415, 6.764895034538016, 0
8075, 0.15305905537451103, 6.70523720364207, 0
8076, 0.11377358834876475, 6.951496178163341, 0
8077, 0.0643402247522237, 6.893784045596671, 0
8078, -0.2540333258871158, 6.9796714343216255, 0
8079, -0.056952563828554494, 6.954646241648882, 0
8080, 0.11428131903611921, 6.667343850781147, 0
8081, 0.2540333258871159, 6.698467637918519, 0
8082, 0.13441152390947841, 6.883791585738668, 0
8083, 0.2540333258871159, 6.862867085976623, 0
8084, 0.18332672629374785, 6.9356998356621204, 0
8085, 0.2540333258871161, 8.472533405002839, 0
8086, -0.2540333258871158, 8.578668910269, 0
8087, 0.194688182456998, 6.875991992508466, 0
8088, 0.254033325887116, 7.708800107504257, 0
8089, 0.25403332588711597, 7.326933458754967, 0
8090, 0.2540333258871159, 7.136000134380321, 0
8091, 0.2540333258871159, 7.040533472192998, 0
8092, 0.15958311698144614, 6.992177414780555, 0
8093, 0.030953393401168205, 7.090889483934773, 0
8094, 0.08577255741522079, 7.029159795450849, 0
8095, -0.011755075102762053, 6.9062863718149705, 0
8096, 0.01997543962632778, 6.981242830401739, 0
8097, 0.2060747031498675, 6.739567499933045, 0
8098, 0.1550771546754152, 6.76078357712816, 0
8099, 0.20092027416591576, 6.662684472598974, 0
8100, 0.2002099488844772, 6.813294392062883, 0
8101, -0.11178796364098857, 7.086507442261031, 0
8102, 0.16364594135906607, 7.0924339927858355, 0
8103, 0.031567560517985316, 6.932141363276593, 0
8104, 0.07120623347742283, 6.980028428509678, 0
8105, 0.030784480222078553, 7.035533506042231, 0
8106, -0.039641461357821775, 7.063426650351429, 0
8107, -0.10721013728825082, 7.011078721263227, 0
8108, 0.13898883652198507, 7.043222593402619, 0
8109, 0.09726182886179012, 7.094912538382791, 0
8110, 0.13583591647175972, 7.237822873238664, 0
8111, 0.05870294230458814, 7.181981370056365, 0
8112, 0.1330022225934081, 7.161926648680832, 0
8113, -0.031787044584059655, 7.006409081832256, 0
8114, 0.19307912126121315, 7.146915655633572, 0
8115, 0.2540333258871159, 7.231466796567644, 0
8116, -0.1280317360325159, 6.919339457151716, 0
8117, -0.2540333258871158, 7.068504627429813, 0
8118, -0.06296489390438999, 7.114820740233975, 0
8119, -0.20468087104410115, 6.843777055685408, 0
8120, -0.14151766732001028, 7.046849847592441, 0
8121, -0.2540333258871158, 6.890838241213438, 0
8122, -0.2128429717065886, 6.4910888722265945, 0
8123, -0.19153780184523195, 6.579922065334782, 0
8124, -0.17671956549201903, 6.529396714215256, 0
8125, -0.19864031935936205, 6.6361034688391705, 0
8126, -0.18046232421643665, 6.708628018205528, 0
8127, 0.21886792535459837, 6.9928001410993375, 0
8128, 0.1969458823739988, 7.045770162464437, 0
8129, 0.01009412188920742, 7.147016546216176, 0
8130, 0.03986871980377367, 7.543890284054867, 0
8131, 0.1936497421743425, 7.210751263809702, 0
8132, 0.19308997872989608, 7.284824923108444, 0
8133, 0.254033325887116, 7.42240012094229, 0
8134, 0.10190312198803668, 7.337529173484234, 0
8135, 0.13759719490102149, 7.294049566137993, 0
8136, 0.254033325887116, 7.517866783129612, 0
8137, 0.18047596662920612, 7.368236759523081, 0
8138, 0.23246132054526908, 7.374666789848629, 0
8139, -0.2540333258871158, 7.51267059297075, 0
8140, -0.2540333258871158, 7.8680033654035, 0
8141, 0.13167748534358845, 7.377221888173752, 0
8142, 0.18395474449632365, 7.44054186752684, 0
8143, 0.22900286382164392, 7.470133452035951, 0
8144, -0.012505127008221317, 7.53526532003512, 0
8145, 0.06617074487974546, 7.589994658154633, 0
8146, -0.04235283303956114, 7.399765517220246, 0
8147, 0.059097933442949994, 7.494416582181577, 0
8148, 0.02034874877431713, 7.275993170727821, 0
8149, 0.08164644716008915, 7.267661268579576, 0
8150, 0.1493250936868578, 7.542344395376797, 0
8151, 0.11077820261836732, 7.430192229883107, 0
8152, 0.14068417157522267, 7.4826138961472175, 0
8153, 0.033097875859307235, 7.420589464742313, 0
8154, -0.000127090224871583, 7.4737823063361315, 0
8155, -0.1051273107296748, 7.484630697660233, 0
8156, -0.05093965954535519, 7.495539999257689, 0
8157, -0.09556615213293627, 7.577171953865512, 0
8158, 0.012096808511323581, 7.349580943842681, 0
8159, 0.05343090869860226, 7.316959479598381, 0
8160, 0.06104715020846754, 7.373713512591544, 0
8161, -0.18082992541694182, 6.970813292410435, 0
8162, -0.19148126778045743, 6.907072678677768, 0
8163, -0.18245081261211551, 7.122846090974571, 0
8164, -0.11976684092485884, 7.162620855174826, 0
8165, -0.2540333258871158, 7.335004206754375, 0
8166, -0.0864679304180904, 7.211584300924752, 0
8167, -0.024450342239230004, 7.229511023039941, 0
8168, -0.19736360934867692, 7.183422129451174, 0
8169, -0.037052358127506575, 7.306812922894129, 0
8170, -0.18198683480635608, 7.485870826484015, 0
8171, -0.21152094593266335, 7.02408803087572, 0
8172, -0.18801601498770837, 7.0708267179459305, 0
8173, -0.2313341707902956, 7.112921223983907, 0
8174, -0.21528534920495707, 6.7575884515511575, 0
8175, 0.15765636637037725, 7.653264627098097, 0
8176, -0.2540333258871158, 7.6903369791871246, 0
8177, -0.1431866339875313, 7.2143527499548545, 0
8178, -0.12131225822447891, 7.533067437775541, 0
8179, -0.2540333258871158, 7.601503786078937, 0
8180, -0.018164903460517325, 7.627316213657111, 0
8181, 0.12701536114127782, 7.5997930891025876, 0
8182, -0.12154842220909776, 7.296659843552164, 0
8183, -0.2540333258871158, 7.246171013646188, 0
8184, -0.180523544891792, 7.5465886959664905, 0
8185, -0.2540333258871158, 7.423837399862562, 0
8186, -0.07501555016538738, 7.266077042517592, 0
8187, -0.08518336649503411, 7.3506957509136415, 0
8188, -0.10987140113844236, 7.415471889332894, 0
8189, -0.06722854383823758, 7.4458074168248825, 0
8190, -0.1879690218523396, 7.315216500661188, 0
8191, -0.14732756986220605, 7.364103548246281, 0
8192, -0.17344324543258244, 7.422486369411739, 0
8193, -0.20693099096674497, 7.372474290541036, 0
8194, -0.22954763979542162, 7.4682539964166565, 0
8195, -0.22994760442542775, 7.557087189524844, 0
8196, -0.042220044028739905, 7.579637732889546, 0
8197, 0.06180702602162792, 7.694081503723452, 0
8198, 0.08883320456172235, 7.643079649863814, 0
8199, -0.12366689799638336, 7.7053567727903385, 0
8200, 0.254033325887116, 7.80426676969158, 0
8201, -0.18286755013224, 7.64592038263303, 0
8202, -0.19057240958131816, 7.712795802516401, 0
8203, -0.14454241211309668, 7.82219410269524, 0
8204, -0.2540333258871158, 7.779170172295313, 0
8205, -0.15138102599288925, 7.760688640691723, 0
8206, -0.043973821641186156, 7.779879259071189, 0
8207, -0.1978357736144074, 7.796986723124965, 0
8208, -0.10051508059955724, 7.7861659176165965, 0
8209, 0.254033325887116, 8.090666756253547, 0
8210, -0.23231127229780804, 7.64592038263303, 0
8211, -0.11710743130398729, 7.639622202779711, 0
8212, -0.1543809027387074, 7.596899103714583, 0
8213, -0.062059103297710014, 7.678309879941112, 0
8214, -0.0002449636306979773, 7.687129697025599, 0
8215, 0.03399613322848262, 7.644280045589612, 0
8216, 0.023562591999560963, 7.7550375579588025, 0
8217, -0.0373714435275387, 7.726308842385344, 0
8218, 0.13532094766728703, 7.836427735089503, 0
8219, 0.14572870365687676, 7.767795035052389, 0
8220, 0.12202829553679859, 7.702548889158053, 0
8221, 0.18770717018846755, 7.712508714440692, 0
8222, 0.08133331468684583, 7.7931353313450655, 0
8223, -0.08596856521379065, 7.7382772715425014, 0
8224, -0.035270181488439654, 7.832379488733109, 0
8225, 0.254033325887116, 7.899733431878902, 0
8226, 0.22343555999197276, 7.756533438597918, 0
8227, 0.19197510466395803, 7.81037352634654, 0
8228, 0.18904906312428688, 7.878634483717803, 0
8229, 0.04872727352153482, 7.889105316664093, 0
8230, 0.024354201151957647, 7.816687264144208, 0
8231, 0.23361396779256124, 7.852000100785241, 0
8232, 0.254033325887116, 7.995200094066225, 0
8233, 0.08245806790774682, 7.847041453492819, 0
8234, 0.20261806092269624, 7.947466762972564, 0
8235, 0.1618530933257133, 8.042933425159886, 0
8236, 0.12214952805809168, 7.927576053935008, 0
8237, 0.19937399877901146, 8.002518326289016, 0
8238, -0.2540333258871158, 8.22333613783625, 0
8239, 0.05763523688028351, 7.961403639698151, 0
8240, 0.11596572789668211, 7.9942156360191206, 0
8241, -0.05005551489341011, 8.087833585148472, 0
8242, 0.005092764195803755, 7.931179519010205, 0
8243, -0.03481583425792265, 7.889838660304446, 0
8244, -0.11226661516780048, 7.892655666094864, 0
8245, 0.006722749619731672, 7.862931854013685, 0
8246, -0.09048313924611404, 7.841166265886116, 0
8247, -0.007943302455190109, 8.014624514996743, 0
8248, 0.06743158972689804, 8.08589960721627, 0
8249, 0.06094311248418122, 8.023776761228897, 0
8250, 0.10819229803977007, 8.050242047451777, 0
8251, 0.14551526321864833, 8.123625445477492, 0
8252, -0.2540333258871158, 8.045669751619876, 0
8253, 0.010587541983390535, 8.202259480471518, 0
8254, 0.008456067081058269, 8.072774644747081, 0
8255, -0.0757526649465638, 7.967024004184909, 0
8256, -0.006009210744151533, 8.137772721652956, 0
8257, -0.12257089918118225, 8.202150940198349, 0
8258, -0.05597766408907413, 8.185012050348723, 0
8259, -0.05608974985769621, 8.322520145645004, 0
8260, -0.10479716529932429, 8.133267259624265, 0
8261, -0.0737884858755064, 8.253751625699538, 0
8262, -0.18964765269790504, 8.094060041713423, 0
8263, -0.13388366616438305, 8.04252670997203, 0
8264, -0.004411418428910964, 8.272558063509418, 0
8265, -0.2540333258871158, 8.401002524052625, 0
8266, -0.14945483884455707, 8.158479326008031, 0
8267, -0.18833722682805462, 8.212525641107268, 0
8268, -0.10108469551899998, 8.082045190602516, 0
8269, -0.06919837349591103, 8.028767638392805, 0
8270, -0.02651548851712525, 7.968982335920676, 0
8271, -0.13773477559156513, 8.265345987914364, 0
8272, 0.05877787676609707, 8.249290794277261, 0
8273, 0.06960028405681867, 8.40081995356774, 0
8274, 0.08257728046046198, 8.176700271542913, 0
8275, 0.016549927639707633, 8.34594726243572, 0
8276, 0.254033325887116, 8.281600080628193, 0
8277, -0.2540333258871158, 7.956836558511688, 0
8278, -0.18356039508702637, 7.882689723039238, 0
8279, -0.22652285492879254, 7.912419961957594, 0
8280, -0.1597938443551169, 7.96294133214497, 0
8281, -0.06658977631458152, 8.479406494161664, 0
8282, 0.0953667016476174, 8.322828628146615, 0
8283, 0.16022644116505363, 8.242354868674072, 0
8284, 0.09528649552875403, 8.127916860444353, 0
8285, 0.19507061382449584, 8.091659006807038, 0
8286, 0.254033325887116, 8.186133418440871, 0
8287, 0.2002411743816974, 8.154068897044672, 0
8288, 0.20396858056608258, 8.208969431128134, 0
8289, 0.14798518283425122, 8.18359551629822, 0
8290, -0.11660497797278886, 7.940933871460606, 0
8291, -0.11916958525305399, 7.993725920012337, 0
8292, -0.19463351109341018, 8.018294299517235, 0
8293, -0.2540333258871158, 8.134502944728062, 0
8294, -0.0417145741122389, 8.402276786660611, 0
8295, 0.04627695793074921, 8.301381959963944, 0
8296, 0.254033325887116, 8.377066742815515, 0
8297, 0.10809655075673028, 8.22526365263598, 0
8298, 0.013942854972289887, 8.401548370114176, 0
8299, -0.05755538394684384, 8.761918170564673, 0
8300, 0.04245389230230093, 8.453319622461148, 0
8301, 0.12857096903217197, 8.464580588568566, 0
8302, -0.007960236856633301, 8.483533351639059, 0
8303, 0.25403332588711613, 8.85440005375213, 0
8304, 0.25403332588711613, 9.23626670250142, 0
8305, -0.14628591281874076, 8.570144837854063, 0
8306, -0.044172656650523764, 8.579463626066334, 0
8307, 0.04268360229493352, 8.510869868703304, 0
8308, -0.14792771465501264, 8.410597969317068, 0
8309, 0.12261814020858157, 8.375083792193507, 0
8310, 0.17265337376346976, 8.317568554403962, 0
8311, 0.19208564066578193, 8.456196733596641, 0
8312, 0.25403332588711613, 8.758933391564806, 0
8313, 0.09829307709691598, 8.698460661249715, 0
8314, 0.13861076996249683, 8.747598316604021, 0
8315, 0.10433651099965739, 8.552288841825632, 0
8316, -0.09311011614487309, 8.428277264252394, 0
8317, -0.10309851181120004, 8.365422754014146, 0
8318, -0.2540333258871158, 8.312169330944439, 0
8319, -0.109220610380432, 8.311509457949864, 0
8320, -0.1815701421862293, 8.324310157522515, 0
8321, -0.20970539262933752, 8.269916290230414, 0
8322, -0.22422643603256975, 8.356585927498532, 0
8323, 0.20206871691801143, 8.274075059271588, 0
8324, 0.15266285326543402, 8.68560989440625, 0
8325, -0.2540333258871158, 9.289334455134501, 0
8326, 0.16724743832070865, 8.512806849603018, 0
8327, 0.1882415978629064, 8.381651120391915, 0
8328, 0.20232529551157097, 8.711200060471146, 0
8329, -0.2540333258871158, 8.934001682701751, 0
8330, 0.25403332588711613, 8.568000067190162, 0
8331, -0.2540333258871158, 8.756335296485375, 0
8332, -0.11101081733218368, 8.618955155628589, 0
8333, 0.0140001654196103, 8.818032518005584, 0
8334, 0.12049570092999036, 8.626167780887592, 0
8335, 0.0068040300360110995, 8.546980510887181, 0
8336, -0.10420817517663224, 8.683863486500718, 0
8337, 0.18796510027142785, 8.642309015368895, 0
8338, -0.14448168994072913, 8.73521922002141, 0
8339, -0.015419485130783131, 8.665459993262719, 0
8340, 0.09334787861566565, 8.502050389804502, 0
8341, 0.25403332588711613, 8.663466729377484, 0
8342, -0.20477086738399727, 8.159693152557638, 0
8343, -0.09183424395863482, 8.537602112911665, 0
8344, -0.156951181429096, 8.490472706112543, 0
8345, -0.03972911165522257, 8.526341012134576, 0
8346, -0.2540333258871158, 8.489835717160812, 0
8347, -0.20449424340489147, 8.444654695909488, 0
8348, -0.2031030585269558, 8.537200719410638, 0
8349, 0.22649191389875883, 8.329333411721855, 0
8350, 0.03444617262779405, 8.589726670215835, 0
8351, 0.1620830714668022, 8.806666722658468, 0
8352, 0.1994401936143682, 8.766198916149028, 0
8353, 0.08726265331581991, 8.80220062360545, 0
8354, 0.060771121085699174, 8.647381019874745, 0
8355, -0.05823479956661253, 8.631970393225457, 0
8356, -0.00889411497582248, 8.615473171154427, 0
8357, 0.25403332588711613, 8.949866715939452, 0
8358, 0.036416754510559576, 8.744337899403288, 0
8359, 0.07170029671651976, 8.907613374748667, 0
8360, -0.007162500580053674, 8.771338539642537, 0
8361, 0.030984556332809707, 8.6914362012436, 0
8362, 0.059678773562388966, 8.851983475236064, 0
8363, 0.12732281550369684, 8.866479581826095, 0
8364, 0.19096588196168454, 8.863458868882905, 0
8365, 0.25403332588711613, 9.045333378126774, 0
8366, 0.216430801787157, 8.816678478936293, 0
8367, 0.12862493583733345, 8.926414584065615, 0
8368, 0.07056308113744554, 9.006632834638967, 0
8369, 0.22870528361913336, 8.90213338484579, 0
8370, -0.1090780976399133, 8.90129864555498, 0
8371, -0.0532414831888842, 8.70637039812322, 0
8372, 0.16487374065677896, 9.01377308585921, 0
8373, -0.1221183042794772, 8.817265209369502, 0
8374, -0.10734542404506618, 8.7691677418085, 0
8375, -0.05413566943649943, 8.83123749697329, 0
8376, -0.0070547134177962115, 8.895518328785517, 0
8377, -0.11477863762690768, 8.961201788937235, 0
8378, -0.2540333258871158, 8.845168489593563, 0
8379, 0.023873767450508246, 8.956580358403368, 0
8380, -0.2540333258871158, 9.111668068918126, 0
8381, -0.054689596424747265, 8.958009631262058, 0
8382, -0.05887749705643556, 8.884092610401204, 0
8383, -0.14227666152667037, 8.863421858594545, 0
8384, -0.174059779446738, 8.950875658599335, 0
8385, -0.08096623765484112, 9.030532112178285, 0
8386, -0.003562411931380422, 9.028975329701334, 0
8387, -0.20315122575572603, 8.890800696411123, 0
8388, -0.19038618667125556, 8.791802274160045, 0
8389, 0.08367478708674474, 9.184267407749136, 0
8390, -0.2540333258871158, 9.022834875809938, 0
8391, 0.057343932212932255, 9.096909769535639, 0
8392, -0.22163805104899464, 8.978418279255845, 0
8393, -0.16046880532619312, 9.029218929764411, 0
8394, 0.042805146377653897, 9.048674571736385, 0
8395, -0.1229674390979846, 9.166089823685752, 0
8396, -0.12174667411637216, 9.092182383610346, 0
8397, -0.03315332394101783, 9.130609524902484, 0
8398, -0.18403192170078475, 9.128117390031733, 0
8399, -0.06591463916515325, 9.084801309392772, 0
8400, -0.22753720714999073, 9.156084665472221, 0
8401, -0.20737872505352342, 9.070298629484968, 0
8402, -0.2540333258871158, 9.200501262026314, 0
8403, 0.11991196486289693, 8.981229817032796, 0
8404, 0.1880501147309875, 8.952956364024612, 0
8405, 0.2232044861075986, 8.997600047033114, 0
8406, 0.25403332588711613, 9.140800040314097, 0
8407, 0.11401627399821858, 9.059101936180872, 0
8408, 0.1684277627921739, 9.06895520139291, 0
8409, 0.11433199721595133, 9.120953829289025, 0
8410, 0.026972629901742057, 9.153711188292757, 0
8411, -0.026990434148382175, 9.321736906779742, 0
8412, -0.035436325904627454, 9.226346192075452, 0
8413, 0.02872573089840945, 9.218346277819942, 0
8414, 0.10892509797802213, 9.231614904670748, 0
8415, 0.002715669389214876, 9.271037472147688, 0
8416, 0.07785047908775597, 9.27536112422939, 0
8417, 0.16212597585320687, 9.238617065634184, 0
8418, 0.1458406965880824, 9.17832896493015, 0
8419, -0.06646152386557747, 9.177710789412744, 0
8420, 0.2540333258871162, 9.618133351250709, 0
8421, 0.2540333258871162, 9.427200026876065, 0
8422, -0.13735843973111367, 9.283439630650747, 0
8423, -0.10619112567686582, 9.22770447113203, 0
8424, -0.06984549297434041, 9.277462035847936, 0
8425, -0.1815881609525335, 9.222124181348791, 0
8426, -0.19606031884142894, 9.279173845502507, 0
8427, -0.2540333258871158, 9.64466722756725, 0
8428, -0.2540333258871158, 9.467000841350876, 0
8429, -0.2540333258871158, 9.378167648242687, 0
8430, 0.2099854821908615, 9.188533371407757, 0
8431, 0.18646110239862004, 9.12969845348292, 0
8432, 0.22717747454597986, 9.093066709220436, 0
8433, 0.25403332588711613, 9.331733364688741, 0
8434, -0.17239205386508916, 9.359506568718981, 0
8435, -0.22123245340693803, 9.333751051688594, 0
8436, -0.09784207660787492, 9.347740465350213, 0
8437, -0.20092748705989955, 9.42258424479678, 0
8438, -0.13460765966180788, 9.555834034459064, 0
8439, -0.18369932500901837, 9.497138540658375, 0
8440, -0.012747979389160169, 9.47006935330473, 0
8441, -0.10910993127839143, 9.440634560393796, 0
8442, -0.1502797016604746, 9.407503226504478, 0
8443, -0.2540333258871158, 9.555834034459064, 0
8444, -0.039283870275364556, 9.397767270175674, 0
8445, -0.12463884960781729, 9.497618972869875, 0
8446, -0.05498816162226161, 9.539507097642955, 0
8447, 0.05909994245648863, 9.374666009458712, 0
8448, -0.05796339940706652, 9.445643488425548, 0
8449, -0.08843279548651546, 9.396012221822428, 0
8450, 0.0979556048850784, 9.58497884981241, 0
8451, -0.23144165971588637, 9.51141743790497, 0
8452, 0.0051474859736869785, 9.36594237526784, 0
8453, -0.07452854117903382, 9.493147519652176, 0
8454, 0.027471750512399445, 9.54210230073139, 0
8455, 0.10076602563077708, 9.819315573087538, 0
8456, 0.037726645087032315, 9.317623968391565, 0
8457, 0.08027950142150853, 9.465372140854706, 0
8458, -0.07356427876873091, 9.65121792036189, 0
8459, 0.08574898481051317, 9.525673319937797, 0
8460, 0.2540333258871162, 9.522666689063387, 0
8461, 0.034925816969301395, 9.490695454753052, 0
8462, -0.08575035560354055, 9.591791627996894, 0
8463, -0.011343612123943712, 9.607496226352694, 0
8464, 0.04318394337090106, 9.595645093471331, 0
8465, 0.21393811442015706, 9.609466362344453, 0
8466, 0.03325652365560484, 9.681335964557432, 0
8467, 0.1069746820264371, 9.66093440702178, 0
8468, 2.220446049250313e-16, 10.0, 0
8469, -0.019110690659488172, 9.662577032176623, 0
8470, 0.0618384149908154, 9.641226731803174, 0
8471, 0.17323352173871456, 9.614553484705787, 0
8472, 0.25403332588711625, 9.809066675625354, 0
8473, -0.015253549011288357, 9.718641030491451, 0
8474, 0.15500076195094922, 9.550370520859323, 0
8475, 0.213449130399681, 9.568448030175665, 0
8476, 0.16134095297863113, 9.809022131956146, 0
8477, 0.052988051487927866, 9.757186933464013, 0
8478, 0.16597192343005157, 9.674698188169332, 0
8479, 0.14175003479038703, 9.750785780095262, 0
8480, -0.02576954616778282, 9.867188212151145, 0
8481, 0.25403332588711625, 9.713600013438032, 0
8482, 0.25403332588711625, 9.904533337812676, 0
8483, -0.01251915470789949, 9.79348042122324, 0
8484, 0.03638799366527333, 9.840317322401892, 0
8485, 0.12701666294355823, 10.0, 0
8486, -0.15652736078245605, 9.874190862142502, 0
8487, -0.1270166629435578, 10.0, 0
8488, 0.035745745059400855, 9.924158299188589, 0
8489, -0.2540333258871158, 9.822333613783625, 0
8490, -0.03390876718356425, 9.937673403518653, 0
8491, -0.06350833147177878, 10.0, 0
8492, -0.09096984935883812, 9.81742230337729, 0
8493, -0.07298378658053317, 9.897448716254715, 0
8494, -0.10672179930893377, 9.945182851934621, 0
8495, -0.1905249944153368, 10.0, 0
8496, 0.06350833147177923, 10.0, 0
8497, -0.2540333258871158, 9.911166806891814, 0
8498, -0.10851402745794375, 9.86339978959133, 0
8499, -0.1734493368882919, 9.78841114477858, 0
8500, -0.16412012142268093, 9.932484621806193, 0
8501, -0.21601940344209536, 9.95110819896314, 0
8502, -0.19992519661438227, 9.838193081465665, 0
8503, -0.2540333258871158, 9.733500420675437, 0
8504, -0.10716446277784059, 9.731712759265735, 0
8505, -0.22529888369788198, 9.77791701722953, 0
8506, -0.06446603451437677, 9.702275832457554, 0
8507, -0.06323591134514195, 9.767797303307482, 0
8508, -0.12388768148904225, 9.779257310251168, 0
8509, -0.18084151266944515, 9.712673800054999, 0
8510, -0.15520793187562448, 9.634995786667973, 0
8511, -0.2271130033541011, 9.689083824121344, 0
8512, -0.12141902019985315, 9.678502497111344, 0
8513, -0.19432049277446184, 9.582556238531463, 0
8514, 0.13740831851691016, 9.296943495255672, 0
8515, 0.09222416113059637, 9.329729329903191, 0
8516, 0.1440991123290581, 9.40264474723573, 0
8517, 0.20289335205663162, 9.290294179137428, 0
8518, 0.19192055801096125, 9.356111107615305, 0
8519, 0.19972540291914717, 9.411971215050507, 0
8520, 0.1604448419273681, 9.475703627869441, 0
8521, 0.19929316255582158, 9.51501987439074, 0
8522, 0.031803842664347555, 9.428865293176262, 0
8523, 0.2074628169838273, 9.76109316745225, 0
8524, 0.22244857984067273, 9.665975403022609, 0
8525, 0.09472557016741533, 9.717330477712009, 0
8526, 0.14647539835536572, 9.90492383021925, 0
8527, 0.08571730524819225, 9.882357713785423, 0
8528, 0.09725176748219916, 9.944378833733627, 0
8529, 0.09307290510829885, 9.414559185079797, 0
8530, 0.20766419029787012, 9.856800006719016, 0
8531, 0.19052499441533724, 10.0, 0
8532, 0.15877082867944775, 9.956969613709099, 0
8533, 0.22227916015122673, 9.952266668906338, 0
8534, 0.19775932163977916, 9.907168373153633, 0
8535, -0.25403332588711613, -5.71207094956989, 0
8536, -0.21680560854410977, -5.670971087555364, 0
8537, -0.2175322789640997, -5.7531708115844165, 0
8538, -5.712070949569892, 0.25403332588711586, 0
8539, -5.670971087555365, 0.2168056085441132, 0
8540, -5.753170811584418, 0.21753227896409658, 0
8541, -8.294705686031692, 0.04757879616172875, 0
8542, -8.242620618243443, 0.022079107734870602, 0
8543, -8.257686121644406, 0.1488720499029217, 0
8544, -8.188419318418008, 0.1441712879988339, 0
8545, -8.219438942142002, 0.19977151377663094, 0
8546, -8.167777700840022, 0.09877316037502651, 0
8547, -8.386510603646245, -0.029156289266212332, 0
8548, -8.325589649193986, -0.0660476998616289, 0
8549, -8.329612434420547, -0.003943880001916575, 0
8550, -8.349251721269344, 0.04694783333441335, 0
8551, -8.250554841087528, 0.08885440434754047, 0
8552, -8.316869762546863, 0.11309046562635133, 0
8553, -8.377066742815515, 0.254033325887116, 0
8554, -8.271815906874254, 0.20250573756548165, 0
8555, -8.373930763491416, 0.1720461529356102, 0
8556, -8.317571737663565, 0.16950249636407444, 0
8557, -8.424800073909177, 0.21115398195717994, 0
8558, -8.541582912371036, -0.07069421439426836, 0
8559, -8.56344918921038, 0.07675465517084509, 0
8560, -8.438784013284376, 0.13738771868924682, 0
8561, -9.289334455134501, -0.25403332588711575, 0
8562, -9.23626670250142, 0.25403332588711613, 0
8563, -8.536548700637422, 0.025525873641208074, 0
8564, -8.402717364216183, -0.12502779461257493, 0
8565, -8.46065269551574, -0.00014689601013889025, 0
8566, -8.40992934141697, 0.03517370689053017, 0
8567, -8.463001476236528, 0.05730795157714415, 0
8568, -8.471295288473101, -0.13659792108908242, 0
8569, -8.445233793077398, -0.06999005484285659, 0
8570, -8.493267619761252, -0.08959841966091472, 0
8571, -8.427043289069422, -0.18986531652673236, 0
8572, -8.372646212237687, -0.17722311369715654, 0
8573, -8.37583096129626, -0.08026724972949416, 0
8574, -8.489835717160812, -0.2540333258871157, 0
8575, -8.663466729377484, 0.25403332588711613, 0
8576, -8.511028649216616, -0.024051067664572934, 0
8577, -8.574751978544894, -0.02071707848664695, 0
8578, -8.724949038815106, 0.08730878529515385, 0
8579, -8.934001682701751, -0.25403332588711575, 0
8580, -8.546627057574403, -0.14650732940985914, 0
8581, -8.486636061217203, -0.19435721784111448, 0
8582, -8.85440005375213, 0.25403332588711613, 0
8583, -8.68889210133871, -0.0592737800289888, 0
8584, -8.632215820452078, 0.1548111317775372, 0
8585, -8.667502103377188, -0.2540333258871157, 0
8586, -8.577962500881485, -0.10634809798892861, 0
8587, -8.544697465126259, -0.20561943296142274, 0
8588, -8.756335296485375, -0.2540333258871157, 0
8589, -8.61579057491374, 0.05208881472039399, 0
8590, -8.900192338225663, 0.0848610105629687, 0
8591, -8.65077086961296, -0.00017616073792447312, 0
8592, -8.504233076489072, 0.11347884492603083, 0
8593, -8.493211992846096, 0.1848451282760446, 0
8594, -8.564738846052451, 0.14493793004015962, 0
8595, -8.568000067190162, 0.25403332588711613, 0
8596, -8.591327424480433, 0.19873955200227766, 0
8597, -8.5202667360965, 0.23061535117752255, 0
8598, -8.62099941516391, -0.04093420320372012, 0
8599, -8.329333411721853, 0.2244268068960447, 0
8600, -8.675390000773769, 0.054139540681648224, 0
8601, -8.64396815454578, 0.10025758693964426, 0
8602, -8.744271868037032, 0.004829688159838391, 0
8603, -8.825258268959004, -0.12110881116929542, 0
8604, -8.812265869170512, 0.06426199572588503, 0
8605, -8.766193641807185, -0.0700821605962587, 0
8606, -8.762487860216515, 0.05260022929738552, 0
8607, -8.82033140876353, -0.013576139525235939, 0
8608, -8.739324212688192, -0.16088191690608944, 0
8609, -8.820024415894169, -0.0674694087381369, 0
8610, -8.955090919700872, -0.04129128069757196, 0
8611, -8.893944196414282, -0.08733174943214901, 0
8612, -8.86654017118627, 0.030548924698533028, 0
8613, -8.935687591674608, 0.025286283218813925, 0
8614, -8.878939779254404, -0.02869418572041634, 0
8615, -9.140800040314097, 0.25403332588711613, 0
8616, -9.043666397890846, 0.13445352817715284, 0
8617, -8.950780531797573, 0.07464040440071247, 0
8618, -8.77329555969893, -0.12155923116244574, 0
8619, -8.845168489593563, -0.2540333258871157, 0
8620, -8.894576776458859, -0.17534333064009905, 0
8621, -8.95361825287618, -0.10296038599141238, 0
8622, -9.043034101922794, -0.0742435125305638, 0
8623, -9.111668068918126, -0.25403332588711575, 0
8624, -8.873011548668758, -0.1314902660048647, 0
8625, -9.022834875809938, -0.25403332588711575, 0
8626, -8.828327145105748, -0.1886025294439567, 0
8627, -8.889585086147658, -0.22706548670142082, 0
8628, -8.933811449975845, -0.20490739351667792, 0
8629, -8.938705205326318, -0.15106709094036078, 0
8630, -9.01134961061399, -0.1291530677511114, 0
8631, -9.112288042694699, -0.15080139010963262, 0
8632, -9.07594857711099, 0.028952213036539456, 0
8633, -9.065311050577348, -0.12369423011757887, 0
8634, -9.130808918791859, -0.06444512826873308, 0
8635, -9.102174247510845, -0.20235847986140987, 0
8636, -9.200501262026314, -0.25403332588711575, 0
8637, -9.00572045975235, 0.030854433729421295, 0
8638, -9.039583151990698, -0.016295895037968466, 0
8639, -9.183892665798203, -0.12099425165881944, 0
8640, -9.64466722756725, -0.2540333258871158, 0
8641, -9.24961035898557, -0.14292932668958303, 0
8642, -9.252581679320024, -0.02461426865133573, 0
8643, -9.107683322710441, -0.015218008317967581, 0
8644, -9.26920401234568, -0.08422655507228351, 0
8645, -9.358267400988687, -0.027268420532439705, 0
8646, -9.322453088289, -0.06937854425471285, 0
8647, -9.467000841350876, -0.2540333258871158, 0
8648, -9.198470944197847, -0.18673054515893237, 0
8649, -9.256757132767712, -0.20302754228594178, 0
8650, -9.310150187677403, -0.16620408572077144, 0
8651, -9.195686860780269, -0.05673288700928558, 0
8652, -9.15457996656242, 0.012328449316156564, 0
8653, -9.151204319110388, 0.20165233967458832, 0
8654, -9.347811332284952, -0.11339856088817918, 0
8655, -9.378167648242687, -0.25403332588711575, 0
8656, -9.045333378126774, 0.25403332588711613, 0
8657, -9.618133351250709, 0.2540333258871162, 0
8658, -8.875650167849347, 0.20060900353545458, 0
8659, -9.11311391893045, 0.10346522296434991, 0
8660, -9.236547351886903, 0.08131076126135886, 0
8661, -9.405221855559155, -0.07666836590092571, 0
8662, -9.263212894195515, 0.031171131591786562, 0
8663, -9.432478597016447, -0.13491328069079062, 0
8664, -9.620905680847367, -0.08885087358410682, 0
8665, -9.499456587555697, 0.05991636299648509, 0
8666, -9.555834034459064, -0.2540333258871158, 0
8667, -9.486727151214678, -0.13739198408690204, 0
8668, -9.644887847099216, -0.01999184452955302, 0
8669, -9.042090738988152, 0.07628175097506679, 0
8670, -9.187687841162008, 0.11836365783214542, 0
8671, -9.203172559215622, 0.18935117085886904, 0
8672, -9.183122343036057, 0.061602846517104654, 0
8673, -9.623231075817955, -0.16172955852489065, 0
8674, -9.573810646823567, -0.14451745198411714, 0
8675, -8.758933391564806, 0.25403332588711613, 0
8676, -8.690760521455847, 0.13319497532555827, 0
8677, -8.646028162524543, -0.11250459327094234, 0
8678, -8.703832610178145, -0.115178006172446, 0
8679, -8.621694570437171, -0.18771711546143524, 0
8680, -8.679661091021089, -0.17058106822731572, 0
8681, -8.711918699931282, -0.2178929100324515, 0
8682, -8.836581621807918, 0.1584263734836463, 0
8683, -9.122001381454734, 0.052507259692823084, 0
8684, -9.142809705853, 0.14891196422913977, 0
8685, -8.775192559427843, -0.20246069251308943, 0
8686, -8.998269691843706, -0.19332431106691833, 0
8687, -9.049340121856968, -0.20798377912108387, 0
8688, -9.457034708760991, -0.19235913843793534, 0
8689, -9.389497190146741, -0.187257713276751, 0
8690, -9.524946417684426, -0.19354075156216435, 0
8691, -9.582128617611295, -0.20247534126342553, 0
8692, -9.188533371407757, 0.25403332588711613, 0
8693, -9.359379842156788, 0.09720814865850579, 0
8694, -9.547620471876122, -0.024721401876263642, 0
8695, -9.438009160731681, 0.0015108244931785336, 0
8696, -9.822333613783625, -0.2540333258871158, 0
8697, -9.427200026876065, 0.2540333258871162, 0
8698, -9.243713525056638, 0.14150093227439214, 0
8699, -9.59720891701389, -0.04199202494186824, 0
8700, -9.662454025717802, -0.12400160085254114, 0
8701, -9.295957577627773, 0.1047591311990471, 0
8702, -9.25828377084673, 0.2019611931243538, 0
8703, -9.31985065311417, 0.03531816362525732, 0
8704, -9.295103925223964, 0.15905974162651437, 0
8705, -9.384430559300183, 0.03763957631961725, 0
8706, -9.305662283501551, -0.016474637957941737, 0
8707, -9.331733364688741, 0.25403332588711613, 0
8708, -9.433329803864869, 0.09325510702621376, 0
8709, -9.400254611332832, 0.16818537432607594, 0
8710, -9.522666689063387, 0.2540333258871162, 0
8711, -9.488226885020083, 0.11989245493080487, 0
8712, -9.458084163500333, 0.16925662225283222, 0
8713, -9.582537865591755, 0.10651154550787836, 0
8714, -9.534407839086061, -0.09037090033483605, 0
8715, -9.47086470336616, -0.07362170611743589, 0
8716, -9.49606162615652, 0.0019615004924939186, 0
8717, -9.348813676870025, 0.15055126246567607, 0
8718, -8.668479916544701, 0.19792190583797298, 0
8719, -8.76274710265768, 0.151150615206344, 0
8720, -8.803410728476436, 0.11677030577728341, 0
8721, -8.79482958409516, 0.20385190538551182, 0
8722, -8.898891318302248, 0.14802027381601154, 0
8723, -8.949866715939452, 0.25403332588711613, 0
8724, -9.333751051688594, -0.21817885333962087, 0
8725, -10.0, 2.220446049250313e-16, 0
8726, -9.593546893315445, 0.033320611535715035, 0
8727, -9.551534908075084, 0.06442480053536276, 0
8728, -9.699344400984872, 0.0866575924531055, 0
8729, -9.655643862871013, 0.041743819236852164, 0
8730, -9.641405196598983, 0.0993147873593117, 0
8731, -9.620824603404712, 0.17532865231021738, 0
8732, -9.715978240294213, 0.026756151001177134, 0
8733, -9.809066675625354, 0.25403332588711625, 0
8734, -9.904533337812676, 0.25403332588711625, 0
8735, -9.784098068526916, 0.05083619122831014, 0
8736, -9.56839996766494, 0.159436296356716, 0
8737, -9.78911966119583, 0.14745769102087045, 0
8738, -9.6639503538674, 0.14621184953403235, 0
8739, -9.756685869960737, 0.09866874679188847, 0
8740, -9.715738515285189, 0.1512719773824354, 0
8741, -9.823412116857222, 0.0894857398137308, 0
8742, -9.713600013438032, 0.25403332588711625, 0
8743, -9.803974070676668, -0.0005868244409158729, 0
8744, -9.879503870585946, 0.05219720530662464, 0
8745, -9.82373976774711, 0.19613257724113925, 0
8746, -9.758556483203792, 0.20584506205360803, 0
8747, -9.722371265503117, -0.060393943349040816, 0
8748, -9.669553461547878, -0.06718812367067672, 0
8749, -9.694888481058184, -0.01860045188266771, 0
8750, -9.751419194561821, -0.01445355704335996, 0
8751, -9.765298625976369, -0.1608550208342736, 0
8752, -9.72191682864427, -0.11999016815639814, 0
8753, -9.379466695782403, 0.2218628592514974, 0
8754, -8.728946961628047, 0.2014097332608864, 0
8755, -9.673656874624122, 0.20708427031725007, 0
8756, -9.93030455533364, 0.10482186289038023, 0
8757, -10.0, 0.12701666294355823, 0
8758, -10.0, -0.1270166629435578, 0
8759, -9.803285167004569, -0.08522120012083695, 0
8760, -9.845350747719511, -0.04324361233886574, 0
8761, -9.888229843663323, -0.004756539452942299, 0
8762, -9.942621172052434, 0.03272217420003645, 0
8763, -9.895406458695271, -0.13546992245563116, 0
8764, -10.0, 0.06350833147177923, 0
8765, -10.0, 0.19052499441533724, 0
8766, -9.829921938316684, -0.14595546992865632, 0
8767, -9.879932642299899, 0.1538739163474461, 0
8768, -9.808059386103382, -0.19872578644728625, 0
8769, -9.733500420675437, -0.2540333258871158, 0
8770, -9.690935917260793, -0.1928646737517657, 0
8771, -9.911166806891814, -0.2540333258871158, 0
8772, -9.876511614105858, 0.2078150334855841, 0
8773, -9.952266668906338, 0.23468432267207637, 0
8774, -9.941608525921925, 0.16681966307600798, 0
8775, -10.0, -0.06350833147177878, 0
8776, -9.887850859906564, -0.07987372258800945, 0
8777, -9.947365102592078, -0.09526249720766829, 0
8778, -9.945170423250012, -0.03212443614031826, 0
8779, -10.0, -0.1905249944153368, 0
8780, -9.949928007306799, -0.15877082867944728, 0
8781, -9.949846570091612, -0.2142546818917406, 0
8782, 9.022834875809938, 0.25403332588711447, 0
8783, 9.140800040314097, -0.254033325887117, 0
8784, 9.069098750020766, -0.18247554761883578, 0
8785, 0.19139268323041647, 7.598417636347751, 0
8786, 0.254033325887116, 7.613333445316934, 0
8787, 0.2180975704483784, 7.661066776410596, 0
8788, 0.2050161857004008, 7.544380218872301, 0
8789, 0.18787770566185985, 7.4978453068772914, 0
8790, -0.19207760082018832, 7.253019019725857, 0
8791, -0.20359306862503476, 8.723284075419082, 0
8792, -0.17112532610449593, 8.625247991030147, 0
8793, -0.16013679288875013, 8.68147313348076, 0
8794, -0.2540333258871158, 8.667502103377188, 0
8795, -0.2244488543686035, 8.623085506823095, 0
8796, 0.16739988371730763, 8.579190742600822, 0
8797, 0.23289757616677254, 8.615733398283824, 0
8798, 0.22344673261280493, 8.5202667360965, 0
8799, -8.97157338251307, 0.14437986519581195, 0
8800, -8.996010272361353, 0.09912456664578005, 0
8801, -8.937658620633655, 0.19464142506699797, 0
8802, -9.003531677100895, 0.20251725081452815, 0
8803, -9.081390676719991, 0.1937291577588372, 0
8804, -9.570400020157049, 0.21875670387381765, 0
8805, -9.515606772686686, 0.19091019746954133, 0
8806, -9.474933357969725, 0.2274156249516313, 0
8807, -9.874527951150647, -0.1985744465874612, 0
8808, 9.149640448438282, 0.14884049830416501, 0
8809, 8.960337568471159, 0.19274708774356947, 0
8810, 9.094718723408004, 0.18846494608907935, 0
8811, 9.123547965812492, 0.0989117083738737, 0
8812, 9.029608351899837, 0.18927121833550295, 0
8813, 9.17744179398827, -0.05072160945184016, 0
8814, 9.08747034316863, -0.08277659140301115, 0
8815, 9.088921546270628, -0.017519935606949352, 0
8816, 9.145073223518043, -0.002416248937493981, 0
8817, 9.033671000457407, -0.06913072630386619, 0
8818, 9.06244097055672, -0.1297065631888427, 0
8819, 9.144693044978423, -0.10109566540220338, 0
8820, 9.618133351250709, -0.254033325887117, 0
8821, 9.205334931040198, -0.10468745219417824, 0
8822, 9.292853004760868, -0.028304330607731534, 0
8823, 9.237896469311393, -0.05366604775673627, 0
8824, 9.24375585221495, 0.0058609688705936885, 0
8825, 9.64466722756725, 0.25403332588711425, 0
8826, 9.280561738168247, 0.058752769171750034, 0
8827, 9.26557884825628, 0.15726318502226458, 0
8828, 9.289900648486066, 0.11056778113467691, 0
8829, 9.342035201845615, 0.07442216999507768, 0
8830, 9.331733364688741, -0.254033325887117, 0
8831, 9.32077627477961, 0.1950139427741015, 0
8832, 9.400697410087394, -0.046062057324104316, 0
8833, 9.404468320059786, 0.06316949881397094, 0
8834, 9.200501262026314, 0.25403332588711436, 0
8835, 9.242088220157662, 0.21173311524524963, 0
8836, 9.184615238143556, 0.1968221955677524, 0
8837, 9.343421702925983, 0.13209287960997879, 0
8838, 9.34244423051338, -0.0634856389175204, 0
8839, 9.312808438887206, 0.01890933145386406, 0
8840, 9.26459207382087, -0.17392868116169896, 0
8841, 9.467000841350876, 0.2540333258871143, 0
8842, 9.330229341940049, -0.11997657461504865, 0
8843, 9.427200026876065, -0.254033325887117, 0
8844, 9.389928621407073, -0.11615045308106255, 0
8845, 9.285141212564103, -0.08381734469765165, 0
8846, 9.378167648242687, 0.25403332588711436, 0
8847, 9.421969192116523, -0.18146839180533472, 0
8848, 9.575311841969278, -0.16504938036105257, 0
8849, 9.522666689063387, -0.254033325887117, 0
8850, 9.503118618602963, -0.09767013490292283, 0
8851, 9.47720693517966, -0.15376880048561833, 0
8852, 9.443519936013015, -0.08851304675009541, 0
8853, 9.487404139688659, -0.0014206111068913868, 0
8854, 9.379466695782403, -0.22100317836279393, 0
8855, 9.363178767419528, -0.16642971808192408, 0
8856, 9.252986893695851, -0.12388351853622669, 0
8857, 9.202760909758773, -0.16686727757457676, 0
8858, 9.284000033595081, -0.22585173836892708, 0
8859, 9.373845832353686, 0.00954578537434736, 0
8860, 9.430484540384354, 0.0026082562770176967, 0
8861, 9.474933357969727, -0.21523758392919437, 0
8862, 9.528869893124565, -0.197638223523871, 0
8863, 9.636231836229387, -0.19052842600490474, 0
8864, 9.637203354535686, -0.026370773366930444, 0
8865, 9.66586668234437, -0.23330559053996752, 0
8866, 9.55807412928847, -0.039290053303190416, 0
8867, 9.508232064787203, -0.04742767352986704, 0
8868, 9.566424474735264, -0.10220652136776906, 0
8869, 9.635412345123548, -0.12449997833346024, 0
8870, 9.809066675625354, -0.254033325887117, 0
8871, 9.70479421011022, -0.07668535760544798, 0
8872, 9.613307242982879, -0.07501557928339919, 0
8873, 9.578586303599202, 0.08386375926637714, 0
8874, 9.713600013438032, -0.254033325887117, 0
8875, 9.724059199676073, -0.16462139913338864, 0
8876, 9.779482060371661, -0.16156098879384512, 0
8877, 9.54745285479495, 0.0257641312919847, 0
8878, 9.609787333897968, 0.02975282961572394, 0
8879, 9.71153485776046, 0.0446977666795258, 0
8880, 9.663042877828595, 0.02100974502869362, 0
8881, 9.489038422523128, 0.09445771984522336, 0
8882, 9.687928778589672, -0.12645853248919955, 0
8883, 9.761333344531693, -0.21429934474383244, 0
8884, 9.896116180388713, 0.008850159951461531, 0
8885, 9.700428207745325, 0.20475802790950315, 0
8886, 10.0, -0.12701666294355923, 0
8887, 9.555834034459064, 0.25403332588711425, 0
8888, 9.426472113272217, 0.1336325799274934, 0
8889, 9.485684657960244, 0.1586512787193496, 0
8890, 9.758510994649567, -0.04383941945713206, 0
8891, 9.904533337812676, -0.254033325887117, 0
8892, 9.754926243733683, -0.11178075709118085, 0
8893, 9.682424896060422, 0.14820975625374735, 0
8894, 10.0, -1.4432899320127035e-15, 0
8895, 9.699820019583662, -0.021042094177554663, 0
8896, 9.822333613783625, 0.2540333258871142, 0
8897, 9.434135606243624, 0.198074598363864, 0
8898, 9.511417437904969, 0.21321287241932613, 0
8899, 9.56063015352877, 0.15665382588595023, 0
8900, 9.536525945852864, 0.11209792034976512, 0
8901, 9.624396093734143, 0.13377408627929388, 0
8902, 9.662404128668072, 0.08379554779085499, 0
8903, 9.642344773460216, 0.19258671242906622, 0
8904, 9.821923216389505, -0.10967880672468809, 0
8905, 9.807009991911045, -0.003687260626993566, 0
8906, 9.822445541967946, -0.1967063846267943, 0
8907, 9.754274866211869, 0.010643884611238769, 0
8908, 9.739439969910865, 0.13018167202768083, 0
8909, 9.831939274886786, -0.054224593634862164, 0
8910, 9.80064641442614, 0.07708810835904457, 0
8911, 9.749262374749915, 0.07967869173113284, 0
8912, 9.846291782901453, 0.0400457540490816, 0
8913, 9.854436963163483, 0.09672702151996351, 0
8914, 10.0, 0.12701666294355635, 0
8915, 9.890520791049077, 0.14119124768808053, 0
8916, 9.812661908505861, 0.16750209566792545, 0
8917, 9.788341115334056, 0.12472879954115082, 0
8918, 9.733500420675437, 0.25403332588711425, 0
8919, 9.911166806891814, 0.25403332588711414, 0
8920, 9.866750210337718, 0.205262702104976, 0
8921, 9.587346749553781, 0.20677752609922503, 0
8922, 9.953091561510188, 0.06350833147177747, 0
8923, 9.853297870120908, -0.1530058574883132, 0
8924, 9.761078602863192, 0.19978739024220263, 0
8925, 9.948629713665975, 0.01113483775827711, 0
8926, 9.926108347567963, -0.0758660322730471, 0
8927, 9.943401138647722, 0.11974374824244459, 0
8928, 9.96307251020639, 0.19052499441533524, 0
8929, 9.898227380518392, 0.06367395607524626, 0
8930, 10.0, -0.19052499441533813, 0
8931, 9.952266668906338, -0.254033325887117, 0
8932, 9.928400003359506, -0.18640243587750568, 0
8933, 9.87685069232978, -0.20623756355661138, 0
8934, 9.907821131227406, -0.13153712259814584, 0
8935, 10.0, -0.06350833147178034, 0
8936, 9.957692329195565, -0.037626561285019955, 0
8937, 9.884071484564245, -0.04308121318787426, 0
8938, 9.871688299396332, -0.09382223337903413, 0
8939, 9.209739746575284, 0.1237310099291831, 0
8940, 9.377901606485233, 0.18003787337930044, 0
8941, 4.120766875837264, -0.7338546920005612, 0
8942, 0.25403332588711497, -5.114174379049689, 0
8943, 0.13347360899763833, -5.070249940771962, 0
8944, 0.18170087932091328, -5.0268180574437675, 0
8945, 0.2187589158085108, -5.0697577824955955, 0
8946, 0.18451127438531045, -5.1331715646001745, 0
8947, 0.22881378780106065, -5.158590975603782, 0
8948, 0.19931478879580525, -5.202225195585821, 0
8949, -5.114174379049689, -0.25403332588711547, 0
8950, -5.070249940771972, -0.1334736089976859, 0
8951, -5.026818057443863, -0.18170087932099113, 0
8952, -5.069757782495595, -0.2187589158086074, 0
8953, -5.133171564600178, -0.18451127438521206, 0
8954, -5.158590975603782, -0.22881378780099948, 0
8955, -5.202225195585539, -0.19931478879526632, 0
8956, 9.13515494080601, -0.16803561322888655, 0
8957, 9.093066709220436, -0.23016095390832686, 0
8958, 9.188533371407757, -0.22235888362688314, 0
*ELEMENT, TYPE=CPS3
1, 1035, 1036, 3241
2, 2078, 1885, 1717
3, 2776, 3241, 1036
4, 1724, 1897, 1723
5, 1730, 2538, 2041
6, 1777, 392, 3348
7, 1380, 2595, 2462
8, 3341, 3343, 2199
9, 3645, 3791, 1031
10, 1666, 2377, 2378
11, 3341, 2985, 3639
12, 1846, 1867, 1703
13, 2074, 1873, 1707
14, 1032, 3641, 3645
15, 718, 1861, 717
16, 3791, 3965, 3917
17, 2736, 1038, 2731
18, 1482, 1879, 1878
19, 2732, 1039, 1040
20, 1490, 1915, 1737
21, 1042, 1843, 1041
22, 1529, 1933, 941
23, 1660, 2058, 1844
24, 2733, 1041, 1843
25, 1413, 1919, 1741
26, 391, 390, 2602
27, 979, 980, 1555
28, 4007, 4008, 3916
29, 1440, 1526, 1597
30, 3646, 3640, 3641
31, 3341, 2199, 3346
32, 1467, 4119, 141
33, 3961, 3914, 3915
34, 1940, 1765, 2485
35, 238, 1890, 239
36, 1039, 2731, 1038
37, 1908, 1909, 1734
38, 3964, 3791, 3644
39, 4646, 1024, 4644
40, 2085, 2136, 1730
41, 5415, 5409, 5065
42, 2444, 2915, 2441
43, 2732, 1040, 2733
44, 1025, 4066, 4081
45, 1638, 2327, 3232
46, 4041, 4036, 4063
47, 4678, 1020, 1021
48, 2104, 2151, 2181
49, 1022, 4657, 4670
50, 4320, 2532, 4318
51, 4653, 1023, 4651
52, 4672, 4676, 1021
53, 1873, 2009, 3317
54, 4686, 1020, 4678
55, 4035, 4037, 4034
56, 2020, 1815, 2019
57, 2293, 2292, 1393
58, 4042, 4067, 4064
59, 2271, 1454, 1384
60, 4039, 4044, 4035
61, 4012, 3916, 4008
62, 1504, 1743, 1744
63, 4063, 4076, 4041
64, 1474, 1945, 1769
65, 814, 815, 1563
66, 4672, 1021, 1022
67, 2073, 1447, 1870
68, 1024, 4651, 1023
69, 4647, 4646, 4644
70, 2077, 2134, 1882
71, 4657, 1022, 1023
72, 1384, 2412, 2413
73, 467, 1490, 1737
74, 4074, 4647, 4644
75, 4033, 4034, 4056
76, 169, 2394, 1922
77, 1366, 1336, 1696
78, 1851, 1849, 881
79, 3271, 2345, 2849
80, 1444, 2461, 1891
81, 2849, 2200, 3271
82, 481, 480, 2436
83, 1150, 1151, 2009
84, 2876, 2789, 2878
85, 1519, 1102, 1886
86, 3349, 410, 409
87, 1868, 1703, 1867
88, 1847, 2473, 1661
89, 2787, 2312, 2785
90, 26, 25, 2085
91, 2788, 1049, 1050
92, 2312, 1615, 2785
93, 1337, 1734, 1909
94, 2603, 3349, 2987
95, 3349, 409, 2987
96, 1899, 612, 611
97, 3354, 3356, 3358
98, 1862, 1861, 1670
99, 3814, 3921, 3813
100, 880, 1849, 1848
101, 1042, 1043, 1844
102, 412, 3816, 3815
103, 1205, 1206, 1856
104, 3796, 3806, 3813
105, 1330, 2297, 2298
106, 3349, 3354, 410
107, 1434, 1376, 2368
108, 3816, 3653, 3359
109, 3802, 3655, 3800
110, 1424, 1372, 2782
111, 3358, 3359, 3653
112, 1509, 2071, 1590
113, 2857, 1582, 1399
114, 3357, 3356, 2988
115, 1868, 1046, 1047
116, 4262, 4263, 4265
117, 397, 1400, 398
118, 295, 294, 1991
119, 1423, 2268, 2269
120, 1347, 2456, 400
121, 1315, 793, 1655
122, 1045, 1046, 1867
123, 2372, 2270, 1931
124, 2264, 1323, 1347
125, 813, 814, 1357
126, 392, 1777, 393
127, 2328, 1119, 1120
128, 1777, 2781, 2309
129, 395, 1423, 396
130, 1318, 1657, 4111
131, 1371, 1423, 2778
132, 1677, 1676, 1342
133, 2832, 2339, 1652
134, 1044, 1845, 1043
135, 1415, 1503, 1743
136, 1424, 2782, 2783
137, 242, 1719, 243
138, 405, 1778, 406
139, 2875, 2874, 1778
140, 327, 1508, 328
141, 1778, 405, 2311
142, 2786, 3244, 2787
143, 1649, 1296, 1308
144, 399, 398, 2264
145, 2352, 2118, 1131
146, 1347, 1323, 2349
147, 2454, 2350, 1703
148, 1640, 3297, 2056
149, 400, 399, 1347
150, 977, 978, 1402
151, 1123, 6912, 6921
152, 402, 1424, 403
153, 2874, 407, 406
154, 2872, 1538, 1604
155, 1360, 1332, 1686
156, 149, 1919, 150
157, 2092, 1932, 1753
158, 2938, 1472, 2939
159, 1973, 1787, 1972
160, 4845, 4844, 4846
161, 4346, 4352, 4349
162, 4841, 4350, 5283
163, 1924, 1771, 1747
164, 2781, 1777, 3347
165, 5076, 5077, 5078
166, 1716, 2968, 2567
167, 2483, 1535, 1451
168, 2991, 369, 368
169, 1011, 2989, 1010
170, 4339, 4344, 4338
171, 4265, 1414, 1560
172, 654, 1771, 1513
173, 4357, 4343, 4348
174, 1621, 2100, 4328
175, 4692, 4690, 4691
176, 780, 781, 1940
177, 5083, 4696, 5420
178, 653, 1513, 7689
179, 952, 953, 1683
180, 1687, 1332, 8941
181, 4088, 4353, 4349
182, 4837, 4838, 4836
183, 1720, 1718, 1719
184, 4842, 4837, 4836
185, 368, 2992, 2991
186, 2256, 1138, 1359
187, 1840, 318, 317
188, 4113, 644, 4115
189, 2997, 3362, 3656
190, 2989, 2990, 1010
191, 2339, 1648, 2449
192, 367, 2993, 368
193, 618, 1543, 619
194, 4355, 369, 2991
195, 5420, 5419, 374
196, 365, 364, 3373
197, 2293, 2295, 2292
198, 2990, 3659, 3360
199, 2995, 1006, 1007
200, 1008, 2994, 1007
201, 1316, 794, 795
202, 362, 2998, 363
203, 3373, 3374, 2996
204, 611, 610, 2081
205, 2755, 2757, 3235
206, 1953, 1521, 1952
207, 1007, 2994, 2995
208, 3364, 1006, 2995
209, 1693, 1692, 1365
210, 2176, 2595, 2175
211, 1004, 1005, 2999
212, 1657, 2843, 2343
213, 2998, 3001, 2611
214, 2927, 1358, 2470
215, 3370, 3002, 3005
216, 2913, 1912, 2087
217, 1112, 1113, 2354
218, 82, 81, 1368
219, 358, 2613, 359
220, 2205, 2616, 3379
221, 2478, 1349, 1324
222, 361, 360, 2616
223, 2789, 2312, 2788
224, 1002, 2617, 1001
225, 978, 1585, 1402
226, 3007, 1000, 1001
227, 3009, 2615, 3011
228, 305, 1597, 1526
229, 2615, 3007, 3010
230, 1294, 1304, 2051
231, 3382, 3381, 2613
232, 3005, 3004, 3003
233, 1426, 1514, 1748
234, 1601, 1573, 1530
235, 137, 136, 2075
236, 2576, 1991, 2575
237, 998, 2618, 997
238, 3016, 357, 356
239, 3386, 2790, 996
240, 1699, 1336, 1697
241, 462, 461, 4312
242, 354, 3248, 355
243, 3887, 1320, 3888
244, 2553, 2793, 3251
245, 335, 1567, 1429
246, 3616, 2791, 3247
247, 1431, 1775, 1951
248, 2791, 2555, 2556
249, 993, 1958, 1957
250, 177, 1603, 1448
251, 995, 996, 2790
252, 2297, 1330, 2255
253, 2793, 2553, 2554
254, 4831, 4830, 2766
255, 351, 350, 1956
256, 2859, 2856, 2857
257, 993, 1957, 992
258, 1597, 304, 1571
259, 1724, 614, 613
260, 1962, 349, 348
261, 1583, 7, 1554
262, 352, 351, 2552
263, 1782, 1962, 1963
264, 1595, 1433, 1375
265, 1883, 2973, 344
266, 1271, 1592, 1270
267, 1539, 2871, 2872
268, 1883, 1716, 2973
269, 175, 174, 1602
270, 1963, 1783, 2097
271, 4380, 19, 18
272, 2552, 2553, 352
273, 2931, 144, 2930
274, 343, 1883, 344
275, 2027, 133, 2028
276, 992, 1957, 1959
277, 2830, 2338, 2832
278, 990, 1960, 989
279, 2167, 2168, 1373
280, 4132, 4130, 4131
281, 1961, 990, 991
282, 1889, 1718, 1888
283, 157, 156, 2067
284, 1884, 342, 1514
285, 4304, 2302, 2774
286, 2134, 984, 985
287, 1428, 1517, 1750
288, 2384, 2355, 1682
289, 2400, 1425, 2167
290, 1906, 1731, 1905
291, 989, 1966, 988
292, 1743, 2852, 1415
293, 1585, 1555, 1488
294, 982, 1517, 981
295, 2762, 2775, 2761
296, 1373, 2397, 1750
297, 4132, 3264, 1295
298, 981, 1517, 1584
299, 341, 1514, 342
300, 1549, 1472, 1771
301, 1537, 1452, 1937
302, 1349, 2265, 1324
303, 1487, 1401, 2277
304, 1756, 1531, 1447
305, 1519, 1431, 1929
306, 1349, 2730, 976
307, 975, 976, 2730
308, 2405, 1596, 1438
309, 976, 977, 2265
310, 1578, 1543, 1459
311, 339, 1515, 340
312, 1588, 1561, 1507
313, 343, 1884, 1883
314, 1154, 2010, 1153
315, 1810, 2014, 2015
316, 616, 1579, 1460
317, 1956, 2096, 2552
318, 2773, 1947, 1512
319, 3801, 3804, 3806
320, 2411, 1755, 2410
321, 4962, 5805, 5350
322, 3257, 2323, 2810
323, 5347, 4968, 5805
324, 2195, 2182, 2183
325, 1989, 1988, 1794
326, 420, 4966, 5350
327, 3318, 2924, 1807
328, 5047, 5062, 5053
329, 417, 416, 4539
330, 3221, 2727, 3220
331, 4960, 5340, 4948
332, 5807, 5806, 421
333, 2394, 169, 168
334, 4550, 4046, 4047
335, 7693, 2539, 7692
336, 5341, 5346, 4965
337, 5059, 5062, 5047
338, 2535, 2023, 1816
339, 5046, 5045, 5056
340, 346, 345, 2974
341, 3926, 1071, 3924
342, 2938, 1771, 1472
343, 1466, 1546, 1940
344, 4048, 4020, 5049
345, 3348, 2986, 3347
346, 3826, 3825, 3828
347, 3665, 3389, 3818
348, 1422, 1513, 1924
349, 1076, 1077, 3018
350, 1910, 1911, 2927
351, 660, 2135, 1901
352, 3666, 3389, 3665
353, 149, 148, 1920
354, 3828, 3830, 3826
355, 1759, 1534, 501
356, 5051, 5052, 5055
357, 2944, 2574, 2145
358, 3023, 1077, 1078
359, 4298, 1106, 1107
360, 4966, 4963, 4961
361, 1941, 778, 779
362, 4640, 5045, 4050
363, 3927, 4048, 3925
364, 1694, 4262, 1335
365, 1876, 1877, 1712
366, 2414, 1144, 1762
367, 1416, 2362, 2852
368, 3812, 4531, 3811
369, 1938, 1464, 1764
370, 4540, 3919, 4543
371, 4546, 4547, 4549
372, 2845, 4, 3
373, 4015, 3807, 3810
374, 457, 456, 1568
375, 1145, 1937, 1144
376, 419, 4957, 4958
377, 649, 650, 1698
378, 3924, 1072, 3828
379, 2478, 2479, 2481
380, 3020, 3391, 3668
381, 2621, 3019, 3020
382, 1700, 1276, 1277
383, 3822, 3819, 3391
384, 1366, 1698, 1697
385, 2055, 1129, 2118
386, 1079, 3021, 1078
387, 1657, 1318, 1302
388, 3026, 1081, 1082
389, 3027, 2626, 3030
390, 1647, 1306, 1295
391, 3397, 2626, 3028
392, 2265, 977, 1402
393, 3025, 2621, 4383
394, 2456, 2455, 401
395, 3967, 3926, 3825
396, 2255, 813, 1357
397, 3017, 3666, 3387
398, 3803, 3805, 3809
399, 3022, 1080, 3393
400, 1104, 1105, 2369
401, 3671, 3669, 3401
402, 879, 1848, 1850
403, 2088, 1367, 7688
404, 3029, 3399, 3400
405, 716, 1862, 1863
406, 3404, 2628, 437
407, 240, 239, 1890
408, 2625, 3033, 3027
409, 3408, 3406, 2210
410, 2629, 3411, 3414
411, 1555, 1585, 979
412, 1558, 944, 945
413, 3406, 3035, 3405
414, 2333, 1643, 2442
415, 435, 3027, 436
416, 2622, 3021, 3022
417, 2627, 3672, 3402
418, 1332, 1701, 8941
419, 2355, 1678, 1682
420, 1364, 1692, 1693
421, 4139, 4131, 4130
422, 2165, 1675, 2189
423, 1899, 1898, 2466
424, 3035, 3408, 3409
425, 2629, 440, 439
426, 2086, 1860, 719
427, 2858, 2342, 2842
428, 2079, 1851, 882
429, 1090, 3037, 1089
430, 2629, 2211, 3411
431, 3286, 2053, 3282
432, 2630, 1087, 3418
433, 3302, 3300, 3305
434, 2629, 3405, 2211
435, 1990, 1991, 294
436, 2943, 3043, 2507
437, 1662, 1892, 1891
438, 3039, 3038, 3415
439, 2569, 3325, 2142
440, 3038, 443, 442
441, 445, 444, 2880
442, 1557, 946, 947
443, 1092, 2507, 1091
444, 1901, 1902, 659
445, 1574, 175, 1602
446, 1093, 1971, 1092
447, 448, 1968, 449
448, 2143, 2098, 2571
449, 325, 324, 1589
450, 1325, 1556, 1350
451, 449, 1968, 1970
452, 1604, 494, 1575
453, 1092, 1971, 2507
454, 1771, 654, 655
455, 1787, 2143, 2572
456, 2008, 1808, 2517
457, 2783, 403, 1424
458, 935, 936, 1796
459, 1978, 1098, 1979
460, 1095, 1972, 1094
461, 2029, 2030, 1821
462, 2572, 2143, 2975
463, 2570, 1787, 2573
464, 1603, 1532, 4274
465, 2298, 2771, 2387
466, 1597, 1527, 2409
467, 1101, 1928, 1100
468, 2508, 1978, 1790
469, 1100, 1928, 1927
470, 1974, 452, 451
471, 4198, 3266, 1296
472, 2145, 1788, 1975
473, 1594, 1608, 2305
474, 1519, 1101, 1102
475, 1579, 1461, 1605
476, 2455, 402, 401
477, 2124, 157, 2067
478, 14, 13, 1606
479, 1516, 1427, 2279
480, 1684, 1329, 1683
481, 1429, 2280, 336
482, 2356, 1326, 1677
483, 1691, 1695, 2361
484, 1427, 1515, 2279
485, 1326, 1351, 1676
486, 1425, 2077, 2167
487, 334, 333, 1518
488, 1887, 1328, 1888
489, 331, 1486, 332
490, 2361, 2392, 1694
491, 1378, 1754, 1439
492, 1567, 1374, 1429
493, 1475, 2137, 2136
494, 336, 335, 1429
495, 1872, 823, 824
496, 331, 330, 2277
497, 1724, 2080, 1461
498, 1869, 1976, 1704
499, 455, 454, 2072
500, 453, 1869, 454
501, 3301, 2056, 3297
502, 770, 2029, 2031
503, 1433, 2072, 2138
504, 929, 930, 1992
505, 1401, 1486, 2277
506, 2311, 405, 404
507, 1100, 1927, 1099
508, 2488, 1502, 1414
509, 1520, 457, 1568
510, 2192, 186, 185
511, 2830, 1652, 1296
512, 1402, 1585, 1608
513, 1970, 450, 449
514, 1440, 1598, 1526
515, 1586, 1500, 4304
516, 972, 973, 1370
517, 2458, 1881, 1493
518, 1671, 1338, 1293
519, 2494, 2495, 1473
520, 1480, 324, 323
521, 969, 970, 1671
522, 2471, 2472, 2928
523, 2259, 971, 972
524, 1708, 2813, 1388
525, 1304, 964, 965
526, 1423, 1371, 2268
527, 1595, 1568, 1433
528, 2595, 1705, 2462
529, 968, 2351, 2117
530, 2052, 966, 2117
531, 1383, 1936, 1760
532, 966, 967, 2117
533, 1671, 2351, 969
534, 2549, 1606, 1415
535, 1293, 1338, 1865
536, 2423, 562, 561
537, 1589, 324, 1480
538, 2546, 3781, 2960
539, 1850, 1662, 1891
540, 1590, 1418, 1508
541, 2049, 2045, 666
542, 2429, 1877, 322
543, 2905, 320, 1832
544, 2112, 135, 134
545, 320, 319, 1832
546, 1631, 2925, 3323
547, 1337, 2066, 1905
548, 1876, 2431, 1396
549, 1104, 2369, 4310
550, 1876, 1396, 1480
551, 1861, 1862, 717
552, 1865, 1370, 1702
553, 326, 325, 1562
554, 4239, 4247, 4226
555, 4918, 1321, 4917
556, 338, 2279, 339
557, 1751, 2089, 1930
558, 1567, 1430, 2762
559, 618, 617, 1577
560, 656, 657, 1770
561, 1105, 1106, 1434
562, 2369, 1434, 2368
563, 165, 164, 1587
564, 1519, 1885, 1431
565, 1108, 1109, 1492
566, 1871, 821, 822
567, 1886, 1102, 1103
568, 2285, 1525, 301
569, 1110, 1111, 1350
570, 1110, 1350, 1556
571, 1146, 1147, 1761
572, 1556, 1492, 1109
573, 179, 178, 1600
574, 1108, 1492, 4299
575, 1678, 2354, 1351
576, 1744, 12, 11
577, 1299, 1910, 1912
578, 1599, 308, 1572
579, 1121, 1644, 1306
580, 2780, 395, 394
581, 1421, 2301, 2299
582, 1112, 2354, 1680
583, 1342, 1116, 1117
584, 2939, 2494, 2496
585, 2130, 1873, 2074
586, 2381, 2380, 559
587, 1306, 1120, 1121
588, 1995, 234, 233
589, 2072, 454, 1869
590, 1117, 1118, 2329
591, 1122, 1644, 1121
592, 1114, 1115, 1351
593, 980, 981, 1584
594, 1351, 2354, 1114
595, 2066, 1670, 1861
596, 458, 1520, 1570
597, 459, 1570, 1569
598, 1569, 460, 459
599, 2905, 2427, 2429
600, 1700, 1360, 1276
601, 463, 462, 1522
602, 1688, 1361, 1564
603, 2355, 2384, 1681
604, 1491, 4280, 4122
605, 1403, 1737, 1915
606, 1752, 464, 463
607, 1946, 1456, 1385
608, 1383, 1760, 1453
609, 466, 465, 4123
610, 1514, 341, 1749
611, 1520, 458, 457
612, 614, 1724, 1544
613, 4329, 936, 937
614, 1489, 469, 468
615, 1915, 2475, 1403
616, 469, 1489, 1913
617, 2384, 2386, 1681
618, 2033, 132, 131
619, 467, 466, 1490
620, 2014, 2011, 1155
621, 2385, 471, 1736
622, 1847, 474, 473
623, 1205, 1856, 1855
624, 1042, 1844, 1843
625, 2473, 2474, 1914
626, 1119, 2328, 2329
627, 1328, 1721, 1892
628, 1881, 1880, 311
629, 1306, 2328, 1120
630, 1048, 2787, 3244
631, 1847, 2915, 2444
632, 3901, 3774, 3900
633, 2330, 1117, 2329
634, 2969, 2970, 2971
635, 1911, 1910, 1339
636, 456, 1433, 1568
637, 1886, 4310, 1885
638, 1912, 1910, 1735
639, 6951, 6943, 6954
640, 1558, 1494, 1407
641, 2372, 1435, 2371
642, 1304, 3296, 964
643, 982, 1750, 1517
644, 7008, 7000, 7011
645, 3051, 919, 3430
646, 2362, 1696, 1336
647, 1675, 2126, 1344
648, 276, 275, 3419
649, 1343, 2336, 2337
650, 2128, 1370, 1348
651, 916, 3054, 915
652, 241, 1720, 242
653, 3050, 917, 918
654, 2813, 1209, 1210
655, 3051, 3050, 3429
656, 3052, 917, 3050
657, 2917, 2459, 4379
658, 274, 3049, 275
659, 921, 3437, 920
660, 555, 1462, 1726
661, 921, 922, 2640
662, 1678, 1326, 1682
663, 2377, 2864, 1725
664, 1313, 2352, 1299
665, 3062, 3439, 2643
666, 3065, 2645, 2644
667, 1703, 2350, 1846
668, 923, 924, 3065
669, 307, 1598, 1572
670, 277, 276, 3046
671, 1115, 1116, 1676
672, 2642, 3061, 3060
673, 3060, 280, 279
674, 1911, 1136, 1358
675, 277, 3046, 3048
676, 1859, 2068, 2127
677, 3441, 3062, 2643
678, 2640, 3437, 921
679, 3887, 2340, 2835
680, 1929, 1928, 1519
681, 909, 4553, 4970
682, 1756, 1447, 4270
683, 3681, 3841, 911
684, 1591, 2771, 2297
685, 2383, 1732, 1731
686, 3929, 910, 3840
687, 1504, 1744, 11
688, 3057, 3058, 3435
689, 4697, 5432, 5084
690, 2499, 2498, 1616
691, 4698, 4976, 5089
692, 2493, 1468, 2491
693, 4698, 5090, 5086
694, 5090, 4698, 5089
695, 1322, 4115, 2855
696, 5096, 905, 5094
697, 3057, 913, 914
698, 1452, 2141, 2870
699, 4926, 3775, 4918
700, 2638, 3837, 3424
701, 1304, 1294, 3296
702, 3679, 3070, 3434
703, 272, 3433, 273
704, 3312, 2433, 3628
705, 3431, 3053, 3057
706, 555, 1726, 556
707, 789, 790, 1689
708, 5129, 5432, 4697
709, 3615, 810, 811
710, 4970, 4971, 4556
711, 4970, 4553, 3842
712, 1510, 1563, 815
713, 5128, 5093, 5088
714, 2365, 2366, 1701
715, 182, 4118, 183
716, 271, 270, 3070
717, 3047, 2213, 3833
718, 553, 552, 2321
719, 658, 1551, 657
720, 1785, 1969, 2098
721, 939, 1437, 938
722, 1399, 1582, 1484
723, 622, 621, 1772
724, 1432, 1951, 1952
725, 1524, 1436, 2284
726, 1755, 2411, 1933
727, 1507, 3614, 3755
728, 296, 2092, 297
729, 1793, 2511, 1984
730, 1421, 1511, 1564
731, 1530, 1573, 1600
732, 1415, 1606, 1503
733, 1990, 294, 293
734, 1792, 1984, 2511
735, 1430, 1566, 1594
736, 4328, 2100, 1796
737, 2766, 2578, 2577
738, 4127, 1612, 1610
739, 946, 1494, 945
740, 1440, 3316, 3315
741, 325, 1589, 1562
742, 4312, 461, 4311
743, 949, 1353, 948
744, 1407, 1494, 1557
745, 1759, 501, 500
746, 3632, 2921, 2920
747, 942, 1529, 941
748, 1940, 781, 1765
749, 1524, 2092, 2171
750, 944, 1439, 943
751, 2798, 244, 1442
752, 1439, 1754, 943
753, 1540, 1772, 1946
754, 1754, 1529, 942
755, 950, 951, 2358
756, 3632, 3631, 1407
757, 1785, 1968, 1969
758, 1436, 1524, 2171
759, 928, 929, 2417
760, 158, 157, 2124
761, 564, 563, 2018
762, 31, 2047, 32
763, 286, 2794, 287
764, 2417, 929, 1992
765, 2334, 1652, 1307
766, 1797, 2882, 2417
767, 2216, 2645, 3445
768, 3441, 2643, 3440
769, 2216, 3440, 2643
770, 926, 927, 3071
771, 2764, 2765, 2763
772, 167, 166, 1588
773, 3074, 284, 283
774, 2859, 1322, 2855
775, 1983, 931, 932
776, 875, 2557, 874
777, 147, 146, 1764
778, 289, 1981, 290
779, 1988, 292, 291
780, 290, 1980, 291
781, 1398, 1581, 1482
782, 3231, 492, 3230
783, 1981, 1982, 1791
784, 4278, 1419, 4276
785, 1746, 328, 1508
786, 285, 284, 3073
787, 2509, 1794, 1980
788, 2794, 2314, 4309
789, 303, 1596, 1571
790, 2968, 1884, 1426
791, 933, 1986, 1984
792, 2395, 1417, 2396
793, 819, 820, 1757
794, 1988, 1989, 292
795, 1991, 1753, 1932
796, 139, 4302, 140
797, 1613, 1605, 1461
798, 2280, 337, 336
799, 24, 23, 2291
800, 1599, 1528, 2919
801, 1791, 2945, 2946
802, 5112, 5111, 5105
803, 5367, 261, 4989
804, 4985, 5427, 5367
805, 2015, 1156, 1157
806, 1626, 2181, 2151
807, 5362, 5352, 4983
808, 2316, 246, 245
809, 2034, 129, 2035
810, 4578, 4052, 4053
811, 3860, 3854, 3856
812, 258, 257, 4567
813, 2450, 317, 316
814, 3625, 2827, 1651
815, 3855, 3857, 3852
816, 31, 2046, 2047
817, 904, 5097, 5100
818, 1815, 2020, 2108
819, 5104, 5107, 5105
820, 1405, 1556, 2476
821, 1516, 338, 337
822, 1446, 1601, 4124
823, 260, 4980, 4981
824, 4989, 4986, 4984
825, 1268, 1269, 1593
826, 5428, 5118, 5120
827, 4568, 3931, 4571
828, 83, 1733, 1732
829, 2275, 4302, 4303
830, 1917, 486, 1739
831, 3847, 3857, 3864
832, 3862, 3863, 4559
833, 2095, 1949, 1457
834, 3861, 4021, 3858
835, 1477, 1394, 2815
836, 4574, 4575, 4577
837, 5422, 4090, 5129
838, 3851, 3853, 3692
839, 2447, 314, 313
840, 3455, 3454, 3076
841, 3276, 3278, 2219
842, 251, 250, 3447
843, 1531, 821, 1871
844, 2125, 1690, 2126
845, 3452, 3454, 3456
846, 1667, 1857, 1858
847, 987, 988, 1967
848, 3276, 3277, 3278
849, 2460, 2923, 1889
850, 887, 2800, 886
851, 1333, 2063, 4283
852, 502, 1894, 503
853, 2890, 2888, 2801
854, 1888, 1663, 1889
855, 253, 3867, 3866
856, 1480, 323, 1877
857, 3456, 3457, 3690
858, 1416, 1505, 1950
859, 182, 181, 1446
860, 4316, 2495, 2936
861, 2649, 3447, 3075
862, 3075, 3447, 250
863, 2744, 2267, 2746
864, 3452, 251, 3447
865, 1358, 1331, 2470
866, 2079, 2460, 1889
867, 1889, 1379, 2375
868, 1662, 2059, 1892
869, 248, 247, 2886
870, 2393, 1501, 1413
871, 2738, 3252, 2797
872, 1495, 1738, 1916
873, 2282, 2399, 2281
874, 3690, 3457, 3867
875, 3933, 3864, 3865
876, 2086, 1669, 1860
877, 2743, 1331, 2256
878, 1044, 1846, 1845
879, 246, 1798, 247
880, 1666, 1855, 1856
881, 2341, 2836, 3784
882, 1317, 1657, 2343
883, 243, 1442, 244
884, 1442, 2796, 2798
885, 2255, 2744, 1356
886, 2316, 1798, 246
887, 169, 1922, 170
888, 1663, 2059, 1849
889, 1298, 2054, 2056
890, 1311, 1310, 804
891, 240, 1354, 241
892, 241, 1354, 1720
893, 1328, 1887, 1354
894, 1849, 1662, 1848
895, 1351, 1326, 1678
896, 2887, 2886, 1798
897, 238, 237, 4116
898, 960, 6916, 6978
899, 1338, 1671, 970
900, 1133, 1134, 1339
901, 236, 1443, 237
902, 1354, 1721, 1328
903, 2052, 965, 966
904, 879, 880, 1848
905, 1380, 2461, 4116
906, 2353, 791, 792
907, 1353, 2296, 948
908, 1739, 2928, 2472
909, 2515, 3078, 1624
910, 3458, 3082, 2651
911, 1510, 815, 816
912, 1993, 235, 234
913, 1363, 1334, 1691
914, 236, 235, 1994
915, 1277, 1369, 1700
916, 230, 3077, 231
917, 1916, 1738, 2388
918, 2595, 2597, 1705
919, 1994, 2175, 1443
920, 1994, 1799, 2147
921, 1728, 2380, 2381
922, 2467, 720, 721
923, 2596, 2557, 875
924, 2471, 1912, 1735
925, 1718, 1887, 1888
926, 2600, 2984, 873
927, 873, 2984, 872
928, 4335, 4334, 4330
929, 2073, 1870, 1706
930, 1712, 2907, 2431
931, 3081, 2220, 3080
932, 2077, 1882, 1715
933, 879, 1850, 878
934, 1534, 1450, 2463
935, 5134, 4832, 4337
936, 456, 455, 1433
937, 1202, 1203, 2379
938, 1405, 2476, 4281
939, 5131, 226, 4700
940, 4702, 4708, 4701
941, 1411, 2865, 4301
942, 4702, 4701, 4707
943, 4712, 4713, 4714
944, 4717, 4712, 4714
945, 2452, 2449, 2448
946, 1858, 1857, 1207
947, 5433, 865, 4724
948, 4720, 866, 5135
949, 5437, 865, 5433
950, 3283, 3778, 4527
951, 4722, 4720, 4092
952, 1867, 1846, 1045
953, 938, 1437, 4829
954, 3081, 2650, 4854
955, 2650, 3080, 2652
956, 2190, 1837, 2124
957, 4270, 4269, 1449
958, 1745, 1495, 1922
959, 1746, 1923, 2481
960, 152, 1921, 1742
961, 2043, 1826, 2540
962, 1920, 1741, 1919
963, 1420, 2271, 2273
964, 958, 1649, 1308
965, 3316, 3631, 3632
966, 1308, 957, 958
967, 957, 1308, 2334
968, 332, 1486, 1566
969, 959, 1649, 958
970, 1383, 1453, 2129
971, 2296, 1327, 1557
972, 1325, 2475, 1915
973, 2075, 136, 1874
974, 1877, 323, 322
975, 954, 955, 2335
976, 1343, 953, 954
977, 1579, 615, 1544
978, 951, 952, 1355
979, 2336, 954, 2335
980, 7696, 625, 624
981, 2443, 476, 475
982, 315, 314, 1852
983, 4313, 2446, 2447
984, 2335, 956, 2334
985, 2076, 1875, 774
986, 1863, 1670, 1908
987, 312, 1880, 4313
988, 2079, 882, 883
989, 1962, 1964, 349
990, 310, 309, 1493
991, 1493, 1881, 310
992, 312, 311, 1880
993, 2020, 608, 607
994, 1999, 2104, 2152
995, 1881, 2458, 1880
996, 289, 1982, 1981
997, 2540, 1826, 2541
998, 2451, 1852, 2440
999, 316, 315, 2451
1000, 308, 307, 1572
1001, 2007, 2009, 1151
1002, 1596, 302, 1525
1003, 303, 1571, 304
1004, 1526, 1598, 306
1005, 1503, 12, 1744
1006, 1904, 1337, 1905
1007, 1525, 302, 301
1008, 2375, 1719, 1718
1009, 3299, 2547, 2433
1010, 2767, 1525, 2285
1011, 2284, 299, 298
1012, 300, 299, 1523
1013, 1334, 1363, 1689
1014, 1329, 1355, 1683
1015, 2285, 300, 1523
1016, 1303, 2351, 1293
1017, 1690, 2359, 1334
1018, 305, 304, 1597
1019, 1314, 1658, 1300
1020, 2735, 2268, 2734
1021, 823, 1872, 2457
1022, 2120, 8941, 1665
1023, 1342, 2330, 2331
1024, 1446, 1381, 4117
1025, 2487, 2489, 2490
1026, 4273, 1448, 1382
1027, 2178, 2148, 2177
1028, 2095, 1512, 1947
1029, 4117, 4118, 1446
1030, 1965, 347, 346
1031, 2896, 2893, 550
1032, 183, 1445, 184
1033, 2549, 1415, 1699
1034, 1996, 825, 826
1035, 4125, 1446, 4124
1036, 2410, 1755, 1377
1037, 305, 1526, 306
1038, 3886, 1481, 1397
1039, 1328, 2059, 1888
1040, 2824, 1647, 1295
1041, 1916, 172, 171
1042, 1453, 1761, 1147
1043, 171, 1495, 1916
1044, 1969, 448, 447
1045, 931, 1983, 1985
1046, 1409, 1496, 2387
1047, 1948, 1773, 1459
1048, 168, 1506, 2394
1049, 177, 1448, 178
1050, 1332, 1700, 1701
1051, 174, 1496, 1602
1052, 1462, 1387, 2376
1053, 1737, 1489, 468
1054, 1603, 177, 176
1055, 2910, 2434, 2436
1056, 1591, 2297, 1563
1057, 1495, 1745, 1408
1058, 1515, 1749, 340
1059, 2837, 2838, 2839
1060, 453, 452, 1976
1061, 3268, 2837, 2840
1062, 1894, 1893, 503
1063, 612, 1899, 1897
1064, 1841, 1653, 2840
1065, 310, 1881, 311
1066, 160, 1841, 161
1067, 165, 1561, 166
1068, 4284, 1820, 4287
1069, 4112, 3887, 1311
1070, 1846, 1044, 1045
1071, 164, 163, 1481
1072, 3757, 1345, 3226
1073, 1833, 2051, 2052
1074, 168, 167, 1506
1075, 1654, 1297, 2835
1076, 1207, 1208, 1858
1077, 2517, 1808, 2518
1078, 805, 806, 4112
1079, 2463, 1894, 1534
1080, 1591, 1563, 1419
1081, 1752, 1522, 1435
1082, 1495, 171, 170
1083, 812, 813, 2255
1084, 1599, 1406, 1493
1085, 2744, 2255, 1330
1086, 1576, 1540, 7695
1087, 944, 1558, 1439
1088, 820, 821, 1531
1089, 1466, 1767, 1941
1090, 818, 1934, 817
1091, 1533, 1934, 818
1092, 2085, 1552, 2136
1093, 1533, 819, 1757
1094, 1696, 1346, 2363
1095, 1429, 2281, 2280
1096, 173, 1496, 174
1097, 1470, 1391, 2753
1098, 1481, 1587, 164
1099, 1534, 1894, 502
1100, 2920, 2918, 2919
1101, 1310, 803, 804
1102, 4282, 1577, 1460
1103, 1310, 1311, 1297
1104, 1402, 1608, 1324
1105, 1421, 2303, 2301
1106, 1345, 1320, 4114
1107, 1396, 2908, 2069
1108, 3229, 4301, 2273
1109, 802, 1310, 4110
1110, 1489, 1737, 1403
1111, 811, 1356, 3615
1112, 1293, 1865, 1866
1113, 802, 803, 1310
1114, 809, 3227, 808
1115, 811, 812, 1356
1116, 2863, 2367, 2862
1117, 4028, 4003, 3960
1118, 1600, 178, 1448
1119, 1905, 1669, 1906
1120, 1870, 1871, 2457
1121, 5434, 5436, 864
1122, 1603, 176, 1574
1123, 1529, 1441, 1755
1124, 327, 326, 1590
1125, 5442, 5453, 5449
1126, 5444, 5452, 5443
1127, 1468, 1943, 2491
1128, 5443, 5440, 5439
1129, 5519, 5520, 5522
1130, 2269, 397, 396
1131, 4262, 1694, 2393
1132, 4300, 4298, 4299
1133, 5138, 4727, 5523
1134, 5515, 5523, 5514
1135, 309, 308, 1599
1136, 175, 1574, 176
1137, 3238, 2282, 2761
1138, 5475, 5468, 5506
1139, 846, 3083, 845
1140, 2053, 2051, 1833
1141, 2121, 633, 2061
1142, 1654, 1310, 1297
1143, 203, 3089, 204
1144, 206, 205, 3093
1145, 2547, 3330, 3780
1146, 3093, 2659, 3100
1147, 212, 211, 5140
1148, 1913, 470, 469
1149, 1890, 238, 1444
1150, 1340, 2257, 2729
1151, 3086, 208, 207
1152, 210, 209, 3102
1153, 645, 2363, 4115
1154, 3102, 4363, 4856
1155, 206, 3465, 207
1156, 2472, 2927, 2470
1157, 1410, 2866, 1497
1158, 5526, 4727, 5138
1159, 2903, 1828, 2565
1160, 863, 5438, 5440
1161, 220, 5469, 5463
1162, 5444, 5443, 5439
1163, 1728, 2381, 1900
1164, 5480, 5482, 5485
1165, 5506, 5476, 5467
1166, 127, 2977, 128
1167, 2519, 4317, 2107
1168, 5475, 5454, 5459
1169, 5504, 5482, 5491
1170, 5521, 5503, 5505
1171, 1797, 1985, 2514
1172, 1798, 1623, 2887
1173, 5489, 5512, 5513
1174, 2184, 2182, 1804
1175, 5496, 5487, 5492
1176, 2023, 2535, 2957
1177, 983, 984, 2401
1178, 4396, 4394, 4878
1179, 3103, 3104, 3694
1180, 4392, 4397, 4391
1181, 1477, 84, 1732
1182, 2388, 1496, 173
1183, 5142, 852, 853
1184, 1503, 1744, 1743
1185, 1959, 2940, 1781
1186, 5490, 5493, 5491
1187, 5148, 4094, 5147
1188, 5495, 5515, 5492
1189, 2414, 1454, 1143
1190, 1710, 1875, 2076
1191, 5144, 4877, 5143
1192, 2854, 2362, 2853
1193, 1533, 1756, 1449
1194, 848, 3103, 847
1195, 3103, 848, 4390
1196, 2569, 2142, 2172
1197, 3095, 2659, 3089
1198, 5436, 5438, 864
1199, 191, 2001, 192
1200, 1432, 1595, 1951
1201, 190, 2000, 191
1202, 1902, 658, 659
1203, 946, 1557, 1494
1204, 2001, 191, 2000
1205, 3231, 493, 492
1206, 188, 1999, 189
1207, 194, 2580, 2582
1208, 1457, 1763, 1541
1209, 2186, 193, 192
1210, 489, 1918, 2391
1211, 2184, 1804, 2185
1212, 194, 193, 2580
1213, 2760, 1831, 3237
1214, 1805, 2003, 2106
1215, 2103, 2149, 1802
1216, 165, 1587, 1561
1217, 2377, 1666, 2864
1218, 2102, 2177, 2179
1219, 1352, 1680, 2354
1220, 825, 1998, 824
1221, 1706, 2457, 1872
1222, 1672, 1299, 2352
1223, 1625, 2177, 2102
1224, 2058, 2349, 1323
1225, 562, 1814, 563
1226, 830, 2155, 2003
1227, 2830, 1296, 3266
1228, 2598, 1804, 2182
1229, 828, 829, 2004
1230, 1301, 1316, 2960
1231, 830, 2003, 829
1232, 1799, 1993, 1995
1233, 1096, 1097, 1977
1234, 1999, 188, 2149
1235, 1447, 1531, 1870
1236, 1548, 1580, 1606
1237, 3474, 3468, 3097
1238, 647, 2364, 2363
1239, 2664, 200, 199
1240, 1418, 4288, 1923
1241, 627, 626, 1586
1242, 3105, 3475, 3478
1243, 1344, 1689, 790
1244, 2664, 199, 3108
1245, 3085, 845, 3083
1246, 3097, 3099, 3098
1247, 2222, 3096, 3467
1248, 3092, 843, 844
1249, 4283, 1728, 1900
1250, 2863, 1664, 2841
1251, 3091, 842, 843
1252, 1720, 1354, 1887
1253, 197, 3107, 198
1254, 85, 84, 1477
1255, 167, 1588, 1506
1256, 2225, 3481, 2665
1257, 1600, 1573, 179
1258, 2582, 3336, 195
1259, 2668, 2667, 3109
1260, 1564, 1511, 1272
1261, 3106, 3698, 3481
1262, 1540, 3239, 7695
1263, 3090, 841, 842
1264, 3099, 3472, 3096
1265, 1458, 2306, 1542
1266, 1654, 2836, 2341
1267, 1485, 1554, 1582
1268, 3477, 837, 3476
1269, 1569, 1570, 1521
1270, 1566, 1486, 2304
1271, 2663, 838, 839
1272, 1509, 1589, 2069
1273, 667, 2049, 666
1274, 3476, 2663, 3475
1275, 2976, 196, 195
1276, 2376, 1726, 1462
1277, 2165, 1864, 2126
1278, 2399, 2397, 2398
1279, 459, 458, 1570
1280, 2434, 1834, 1640
1281, 800, 801, 4110
1282, 1355, 2358, 951
1283, 4205, 4197, 4196
1284, 2258, 2730, 4315
1285, 474, 2444, 475
1286, 1464, 1920, 1545
1287, 1488, 1555, 1584
1288, 1527, 1571, 1596
1289, 1037, 2776, 1036
1290, 711, 2821, 710
1291, 520, 3114, 521
1292, 1164, 1165, 2669
1293, 1317, 4111, 1657
1294, 2669, 3493, 3490
1295, 2528, 2803, 2526
1296, 1430, 1518, 1566
1297, 327, 1590, 1508
1298, 620, 1578, 1456
1299, 1161, 1162, 2673
1300, 3499, 1161, 2673
1301, 1599, 1572, 1528
1302, 3703, 3326, 3499
1303, 1163, 1164, 3490
1304, 1532, 1574, 1602
1305, 3515, 1167, 1168
1306, 1335, 1365, 1692
1307, 1169, 3126, 1168
1308, 2158, 2132, 2131
1309, 2567, 1715, 3333
1310, 3515, 2676, 3516
1311, 2170, 2091, 2594
1312, 1171, 3129, 1170
1313, 329, 1487, 330
1314, 3123, 2675, 3121
1315, 950, 2358, 2357
1316, 517, 3121, 518
1317, 2671, 520, 519
1318, 940, 2411, 939
1319, 3121, 2675, 2674
1320, 1674, 1341, 1300
1321, 2676, 3127, 3505
1322, 2671, 3117, 3114
1323, 1806, 2516, 2005
1324, 2954, 514, 2952
1325, 2006, 506, 505
1326, 4156, 4130, 1122
1327, 2023, 1256, 1257
1328, 2004, 1804, 2002
1329, 1155, 1156, 2014
1330, 2008, 2517, 3319
1331, 4198, 4196, 4197
1332, 4317, 1810, 2521
1333, 1149, 1873, 2130
1334, 1680, 1679, 1350
1335, 2967, 2347, 1641
1336, 1334, 1689, 1690
1337, 1935, 2093, 4314
1338, 1152, 2007, 1151
1339, 1850, 1891, 2462
1340, 1149, 1150, 1873
1341, 2008, 1153, 2010
1342, 1980, 290, 1981
1343, 2419, 511, 510
1344, 2526, 2522, 3120
1345, 512, 511, 2802
1346, 2803, 513, 512
1347, 945, 1494, 1558
1348, 1943, 1767, 2489
1349, 2952, 2953, 2954
1350, 1737, 468, 467
1351, 1604, 1575, 1539
1352, 2005, 507, 506
1353, 508, 507, 2012
1354, 508, 2013, 509
1355, 4825, 1920, 1464
1356, 1551, 1474, 1769
1357, 510, 2016, 2419
1358, 1521, 2373, 4311
1359, 1590, 326, 1562
1360, 1810, 2015, 2521
1361, 1324, 1608, 1594
1362, 2005, 506, 2006
1363, 816, 1758, 1510
1364, 1688, 1686, 1361
1365, 4994, 4995, 4993
1366, 1464, 1545, 1764
1367, 5153, 4730, 4997
1368, 2022, 2534, 1816
1369, 1779, 1956, 1964
1370, 4992, 3873, 4579
1371, 1549, 1770, 1769
1372, 5531, 4096, 4730
1373, 1173, 3132, 1172
1374, 1388, 1463, 2382
1375, 3521, 528, 527
1376, 329, 1746, 1487
1377, 464, 1752, 1491
1378, 3708, 3133, 3519
1379, 1734, 1479, 1908
1380, 3710, 3872, 3934
1381, 4097, 4732, 5536
1382, 1758, 1419, 1510
1383, 5543, 5546, 534
1384, 1621, 2146, 2100
1385, 5573, 5546, 5547
1386, 2464, 2924, 3633
1387, 1629, 2809, 1812
1388, 5544, 5551, 5554
1389, 2002, 827, 828
1390, 5583, 7710, 5563
1391, 1327, 2922, 2918
1392, 5547, 5543, 5158
1393, 1188, 5033, 5034
1394, 1824, 2041, 2538
1395, 2725, 3216, 3612
1396, 7711, 7713, 5586
1397, 5563, 5582, 5583
1398, 5023, 5025, 5016
1399, 2424, 1818, 2898
1400, 5541, 5543, 5545
1401, 1619, 2139, 2169
1402, 5157, 5541, 533
1403, 1545, 1920, 148
1404, 3512, 3706, 3870
1405, 2749, 2750, 1140
1406, 3134, 4883, 4882
1407, 4731, 4887, 4998
1408, 1844, 2058, 1659
1409, 527, 526, 3135
1410, 786, 1693, 785
1411, 3900, 3774, 3775
1412, 3497, 522, 521
1413, 4112, 807, 4114
1414, 3702, 3497, 3498
1415, 523, 3130, 524
1416, 1661, 2915, 1847
1417, 3114, 3116, 3497
1418, 1659, 1843, 1844
1419, 394, 393, 2309
1420, 3130, 3131, 3518
1421, 146, 145, 1465
1422, 5537, 5540, 531
1423, 1567, 334, 1518
1424, 150, 1919, 1501
1425, 5565, 5564, 5556
1426, 715, 1711, 714
1427, 4732, 5541, 5157
1428, 1756, 1757, 1531
1429, 1670, 1909, 1908
1430, 1186, 5594, 5596
1431, 2482, 2398, 1926
1432, 5023, 5016, 5020
1433, 5024, 5018, 5014
1434, 1586, 626, 1559
1435, 5032, 1189, 5036
1436, 1948, 4282, 4306
1437, 5563, 5580, 5582
1438, 1450, 1534, 1759
1439, 5155, 4731, 5538
1440, 1683, 953, 1343
1441, 5039, 5038, 5027
1442, 3132, 3705, 1172
1443, 2362, 3272, 2852
1444, 2406, 2403, 1438
1445, 1312, 1127, 1128
1446, 1611, 4126, 1607
1447, 4300, 4299, 1492
1448, 1766, 1502, 2488
1449, 1672, 1339, 1299
1450, 1137, 1358, 1136
1451, 1565, 1592, 2299
1452, 1398, 2913, 2087
1453, 3311, 1312, 1298
1454, 1521, 1570, 1952
1455, 1442, 1379, 2796
1456, 1362, 1727, 1333
1457, 1482, 483, 482
1458, 1132, 1133, 1672
1459, 2496, 2494, 1473
1460, 1384, 1454, 2412
1461, 1911, 1134, 1135
1462, 1129, 2055, 1128
1463, 1142, 1143, 1454
1464, 2549, 1699, 2551
1465, 1583, 1554, 1485
1466, 1414, 1502, 1560
1467, 1145, 1146, 1537
1468, 1760, 1936, 1452
1469, 1386, 1460, 1605
1470, 1145, 1537, 1937
1471, 1497, 488, 487
1472, 1567, 1518, 1430
1473, 1932, 296, 295
1474, 4267, 4269, 1382
1475, 490, 1498, 491
1476, 2271, 2272, 1454
1477, 2287, 2094, 2768
1478, 2256, 1331, 1358
1479, 1141, 1142, 2272
1480, 4173, 4181, 4160
1481, 1367, 1697, 1698
1482, 1137, 1138, 2256
1483, 1878, 1398, 1482
1484, 481, 2436, 1879
1485, 1482, 1581, 483
1486, 1581, 1553, 484
1487, 2047, 2116, 2565
1488, 3298, 3779, 4528
1489, 1483, 1581, 2087
1490, 1849, 1851, 1663
1491, 1731, 1904, 1905
1492, 479, 478, 1834
1493, 1835, 2056, 2054
1494, 2438, 1398, 1878
1495, 2188, 1710, 2157
1496, 1720, 1887, 1718
1497, 1132, 1672, 2352
1498, 2081, 1899, 611
1499, 715, 1863, 1711
1500, 2118, 1129, 1130
1501, 2852, 1504, 1416
1502, 2750, 1139, 1140
1503, 3230, 491, 1498
1504, 492, 491, 3230
1505, 1893, 504, 503
1506, 1442, 243, 1719
1507, 488, 1918, 489
1508, 1394, 1477, 2383
1509, 2105, 2001, 1803
1510, 1553, 485, 484
1511, 1497, 1918, 488
1512, 1553, 1739, 485
1513, 1547, 1942, 1468
1514, 2506, 1960, 1781
1515, 1411, 3228, 2389
1516, 1982, 2945, 1791
1517, 941, 1933, 940
1518, 493, 1575, 494
1519, 495, 494, 1604
1520, 1899, 1723, 1897
1521, 1760, 1761, 1453
1522, 1312, 3311, 1127
1523, 4313, 3270, 2446
1524, 500, 499, 1535
1525, 501, 1534, 502
1526, 1894, 1722, 1893
1527, 309, 1599, 1493
1528, 1925, 1924, 1747
1529, 498, 1536, 2286
1530, 1200, 2804, 1199
1531, 1683, 1355, 952
1532, 495, 1538, 496
1533, 1935, 1383, 2093
1534, 1761, 1537, 1146
1535, 1309, 4110, 1654
1536, 1340, 2861, 2366
1537, 1451, 2286, 1536
1538, 1671, 1293, 2351
1539, 1647, 2824, 2826
1540, 2464, 4314, 1707
1541, 620, 1456, 621
1542, 2365, 1701, 1700
1543, 1577, 1543, 618
1544, 2356, 1661, 2473
1545, 3225, 2734, 1371
1546, 1577, 617, 1460
1547, 1689, 1363, 789
1548, 1772, 621, 1456
1549, 623, 622, 1576
1550, 1537, 1761, 1760
1551, 1576, 622, 1772
1552, 1490, 1404, 2477
1553, 2376, 2377, 1725
1554, 2299, 2301, 2773
1555, 1514, 1749, 1748
1556, 1499, 1586, 1412
1557, 1456, 1578, 1773
1558, 1640, 2435, 2434
1559, 1457, 1541, 1593
1560, 1385, 1773, 1949
1561, 629, 628, 2163
1562, 1833, 2430, 2428
1563, 1275, 1276, 1360
1564, 1811, 2013, 2156
1565, 2883, 2882, 1622
1566, 1412, 2119, 1499
1567, 2031, 769, 770
1568, 1853, 631, 630
1569, 633, 632, 2061
1570, 1895, 1893, 1722
1571, 1360, 1700, 1332
1572, 2072, 1869, 1704
1573, 1856, 1857, 1667
1574, 2122, 2061, 632
1575, 1493, 1406, 2458
1576, 2121, 634, 633
1577, 627, 1499, 628
1578, 1844, 1845, 1660
1579, 1341, 1280, 1281
1580, 2257, 1280, 1341
1581, 1879, 482, 481
1582, 2257, 1369, 1278
1583, 1278, 1279, 2257
1584, 1769, 1770, 1551
1585, 1564, 1273, 1688
1586, 1109, 1110, 1556
1587, 242, 1720, 1719
1588, 1281, 1673, 1341
1589, 1451, 1535, 2286
1590, 1282, 1283, 1314
1591, 1513, 653, 654
1592, 1595, 1432, 1568
1593, 2344, 1658, 1314
1594, 1673, 1300, 1341
1595, 2808, 554, 553
1596, 1284, 4920, 1283
1597, 783, 784, 1560
1598, 1559, 626, 625
1599, 1975, 2099, 2145
1600, 635, 1836, 636
1601, 2289, 1542, 1265
1602, 1742, 2392, 2065
1603, 504, 1895, 505
1604, 1911, 1339, 1134
1605, 1507, 3756, 3614
1606, 2391, 1498, 490
1607, 3980, 4629, 4632
1608, 2342, 3269, 2847
1609, 4024, 3977, 3979
1610, 1641, 2347, 2346
1611, 1669, 2066, 1861
1612, 3978, 3981, 3983
1613, 1850, 1848, 1662
1614, 3935, 1194, 3716
1615, 1385, 1456, 1773
1616, 3979, 3981, 3978
1617, 1418, 1923, 1746
1618, 3716, 3970, 3935
1619, 1193, 1194, 3984
1620, 181, 180, 1601
1621, 3972, 3976, 3977
1622, 2922, 4379, 2459
1623, 3717, 3718, 3715
1624, 2305, 1430, 1594
1625, 2232, 3522, 3524
1626, 1998, 1800, 2102
1627, 2894, 3877, 2805
1628, 1716, 1883, 1884
1629, 1890, 1721, 1354
1630, 2682, 2896, 3136
1631, 1713, 2912, 2438
1632, 1199, 3255, 1198
1633, 2740, 1201, 2739
1634, 1199, 2804, 3255
1635, 2379, 1203, 2378
1636, 1395, 2757, 2469
1637, 471, 2385, 1914
1638, 2739, 1201, 1202
1639, 1729, 2770, 2294
1640, 1666, 2378, 1855
1641, 4128, 2465, 1776
1642, 2682, 3522, 2232
1643, 2432, 2908, 2431
1644, 1733, 1731, 1732
1645, 971, 2259, 1338
1646, 2420, 2893, 2896
1647, 1504, 2852, 1743
1648, 551, 1812, 552
1649, 2806, 1387, 1462
1650, 785, 1693, 1365
1651, 1629, 1812, 2892
1652, 1921, 152, 151
1653, 1310, 1654, 4110
1654, 554, 1462, 555
1655, 2333, 1647, 2826
1656, 1725, 1333, 1727
1657, 558, 557, 1362
1658, 1839, 477, 476
1659, 1727, 1726, 1725
1660, 1554, 6, 1582
1661, 2809, 2321, 1812
1662, 970, 971, 1338
1663, 1314, 1673, 1282
1664, 1362, 1333, 1900
1665, 1362, 1900, 2381
1666, 1928, 1929, 1751
1667, 2089, 1431, 1609
1668, 1207, 1857, 1206
1669, 1667, 2063, 1856
1670, 561, 560, 1463
1671, 1851, 881, 882
1672, 2422, 2423, 1463
1673, 1350, 1679, 1325
1674, 2811, 1212, 1213
1675, 2018, 563, 1814
1676, 2062, 2122, 1853
1677, 2530, 2018, 2529
1678, 4942, 4955, 4522
1679, 1708, 1388, 2548
1680, 804, 805, 1311
1681, 1855, 1204, 1205
1682, 819, 1533, 818
1683, 1918, 1740, 2391
1684, 1911, 1135, 1136
1685, 1209, 1708, 1208
1686, 2063, 1666, 1856
1687, 1210, 1211, 2812
1688, 2866, 1918, 1497
1689, 470, 1913, 1736
1690, 1212, 2810, 1211
1691, 1519, 1928, 1101
1692, 4324, 4326, 2421
1693, 1400, 397, 2269
1694, 4326, 567, 566
1695, 978, 979, 1585
1696, 4733, 4742, 4743
1697, 4742, 4744, 4734
1698, 1687, 1361, 1686
1699, 4364, 568, 3138
1700, 2812, 2813, 1210
1701, 2810, 1212, 2811
1702, 2407, 1378, 2409
1703, 565, 2017, 2421
1704, 1551, 658, 1902
1705, 2530, 2531, 1813
1706, 1444, 1721, 1890
1707, 1426, 1884, 1514
1708, 565, 564, 2017
1709, 1899, 2466, 1723
1710, 4737, 5159, 4739
1711, 4756, 4757, 4755
1712, 1998, 825, 1996
1713, 4758, 4757, 1219
1714, 2086, 719, 720
1715, 1665, 1701, 2366
1716, 4743, 4759, 4760
1717, 1866, 2070, 2069
1718, 567, 3138, 568
1719, 1482, 482, 1879
1720, 2322, 2533, 2531
1721, 1479, 2468, 1908
1722, 4746, 571, 4745
1723, 2276, 2754, 2755
1724, 4747, 4749, 4748
1725, 461, 460, 4311
1726, 5173, 574, 5169
1727, 575, 5176, 5179
1728, 3228, 3229, 2751
1729, 5168, 4761, 5161
1730, 1746, 1508, 1418
1731, 1465, 2752, 1389
1732, 5607, 5842, 5841
1733, 1378, 2407, 2408
1734, 5853, 579, 5851
1735, 5876, 580, 5855
1736, 620, 619, 1578
1737, 5847, 5850, 578
1738, 1913, 1489, 2386
1739, 5179, 5605, 5610
1740, 4276, 1758, 4268
1741, 574, 5173, 5176
1742, 3038, 3273, 443
1743, 5178, 5603, 5605
1744, 2325, 87, 86
1745, 2041, 27, 1903
1746, 5611, 5605, 5608
1747, 2566, 634, 2121
1748, 5845, 5848, 5875
1749, 6088, 6086, 581
1750, 578, 5850, 5851
1751, 5619, 5620, 5623
1752, 1895, 504, 1893
1753, 827, 2002, 1997
1754, 5624, 5621, 6181
1755, 2893, 2420, 2892
1756, 5619, 5630, 5622
1757, 1257, 2021, 2023
1758, 5170, 573, 5160
1759, 4747, 4765, 5168
1760, 1710, 2166, 2132
1761, 1849, 880, 881
1762, 1569, 4311, 460
1763, 1927, 1928, 1751
1764, 1692, 1694, 1335
1765, 609, 608, 2019
1766, 947, 948, 2296
1767, 2559, 1816, 2534
1768, 1934, 1533, 4268
1769, 1515, 1748, 1749
1770, 2026, 606, 2560
1771, 1455, 2871, 2413
1772, 2026, 2109, 1819
1773, 1613, 1461, 2080
1774, 1960, 990, 1961
1775, 3324, 3634, 2925
1776, 1507, 1561, 1587
1777, 1483, 1553, 1581
1778, 2082, 1898, 2081
1779, 1613, 1612, 1605
1780, 2019, 2082, 609
1781, 2899, 2898, 2900
1782, 814, 1563, 1357
1783, 601, 3139, 602
1784, 79, 1907, 80
1785, 2902, 3528, 1253
1786, 2281, 1516, 2280
1787, 1251, 1252, 3141
1788, 2966, 3331, 2563
1789, 4276, 4268, 4267
1790, 2901, 2902, 3281
1791, 933, 934, 1986
1792, 1257, 1258, 2021
1793, 1255, 1256, 2025
1794, 2025, 2424, 1255
1795, 1254, 1255, 2424
1796, 189, 2152, 190
1797, 2560, 2561, 2109
1798, 2727, 3613, 3224
1799, 5923, 5924, 5727
1800, 2562, 1632, 2956
1801, 1665, 1853, 2120
1802, 2024, 2022, 1259
1803, 1267, 1268, 1541
1804, 665, 2044, 664
1805, 2306, 4306, 1612
1806, 1511, 1592, 1271
1807, 1592, 1511, 2299
1808, 14, 1606, 1580
1809, 1723, 1896, 2080
1810, 1511, 1271, 1272
1811, 333, 332, 1566
1812, 1360, 1686, 1688
1813, 1600, 1448, 4273
1814, 1274, 1688, 1273
1815, 2303, 1361, 2774
1816, 1932, 2092, 296
1817, 1360, 1688, 1275
1818, 2288, 1538, 2287
1819, 6, 5, 1582
1820, 615, 614, 1544
1821, 1509, 2070, 2071
1822, 1612, 1386, 1605
1823, 4277, 1496, 1409
1824, 1261, 1262, 1954
1825, 1955, 1261, 1954
1826, 1438, 1596, 1525
1827, 1610, 4128, 4127
1828, 2775, 1585, 1488
1829, 1428, 1584, 1517
1830, 1541, 1763, 1267
1831, 1578, 1459, 1773
1832, 2289, 1265, 1266
1833, 1264, 1265, 1542
1834, 307, 306, 1598
1835, 4129, 1542, 4127
1836, 2304, 1486, 1401
1837, 1335, 1560, 1365
1838, 1605, 1460, 1579
1839, 1817, 2534, 2022
1840, 2986, 3648, 3346
1841, 3287, 3285, 3290
1842, 2801, 2317, 2800
1843, 587, 586, 5180
1844, 1933, 1529, 1755
1845, 1469, 2930, 143
1846, 1478, 4121, 78
1847, 5188, 4771, 5880
1848, 5881, 4771, 4101
1849, 2731, 2732, 2260
1850, 5186, 5181, 5617
1851, 1242, 3142, 1241
1852, 3270, 2367, 2863
1853, 2257, 1340, 1369
1854, 1685, 2862, 4379
1855, 589, 588, 3150
1856, 3533, 3729, 3150
1857, 4265, 1560, 1335
1858, 590, 4414, 3532
1859, 2689, 4365, 4859
1860, 3902, 3776, 4588
1861, 1551, 1770, 657
1862, 4769, 5183, 5184
1863, 1234, 5183, 1233
1864, 5886, 5885, 4769
1865, 450, 1970, 1975
1866, 2505, 2501, 2504
1867, 5184, 1234, 5282
1868, 1896, 1610, 1613
1869, 1368, 81, 1907
1870, 1239, 1240, 3147
1871, 3147, 3149, 1239
1872, 1237, 4415, 1236
1873, 4269, 4267, 4268
1874, 4288, 2071, 2128
1875, 5185, 5281, 4100
1876, 2743, 2390, 1331
1877, 1938, 1465, 1389
1878, 4101, 5618, 5622
1879, 5618, 4101, 4771
1880, 1240, 1241, 3144
1881, 2238, 3537, 2693
1882, 1141, 2272, 2749
1883, 784, 785, 1365
1884, 1867, 1046, 1868
1885, 1247, 2694, 3538
1886, 597, 596, 2693
1887, 1147, 1148, 1453
1888, 3153, 3152, 2691
1889, 2059, 1662, 1849
1890, 3141, 1252, 3528
1891, 2348, 1300, 2346
1892, 2692, 3153, 3151
1893, 3151, 1248, 1249
1894, 1742, 2065, 2123
1895, 599, 598, 2690
1896, 1352, 1679, 1680
1897, 595, 594, 3157
1898, 3527, 599, 2690
1899, 3156, 1244, 1245
1900, 2264, 398, 1400
1901, 3143, 1243, 3530
1902, 3142, 3143, 2686
1903, 1707, 2924, 2464
1904, 2968, 2133, 2567
1905, 3144, 1241, 3142
1906, 3541, 2697, 3160
1907, 3545, 3731, 3728
1908, 3539, 2238, 2693
1909, 651, 1698, 650
1910, 1364, 2361, 1692
1911, 2131, 1391, 1470
1912, 4283, 1900, 1333
1913, 3902, 4588, 1317
1914, 1974, 1976, 452
1915, 3544, 3161, 3543
1916, 1687, 1686, 1332
1917, 1752, 1435, 1931
1918, 3157, 2697, 3162
1919, 805, 4112, 1311
1920, 4505, 3353, 1053
1921, 2511, 1793, 2512
1922, 1439, 1558, 3631
1923, 328, 1746, 329
1924, 1272, 1273, 1564
1925, 1979, 1927, 1790
1926, 5042, 4631, 5043
1927, 1375, 2138, 2090
1928, 7216, 7430, 7195
1929, 1668, 2125, 2068
1930, 1519, 1886, 1885
1931, 2359, 1690, 2125
1932, 1863, 1862, 1670
1933, 878, 1850, 1705
1934, 2127, 2067, 156
1935, 2075, 1874, 1709
1936, 1344, 1690, 1689
1937, 1694, 2392, 2393
1938, 1636, 2565, 2116
1939, 1695, 2392, 2361
1940, 2183, 2103, 2150
1941, 2089, 1751, 1929
1942, 1501, 1921, 151
1943, 1388, 2422, 1463
1944, 155, 154, 1859
1945, 2341, 1309, 1654
1946, 150, 1501, 151
1947, 1465, 1764, 146
1948, 781, 1766, 1765
1949, 1919, 1413, 1501
1950, 2869, 2359, 1668
1951, 1824, 2537, 2039
1952, 147, 1764, 1545
1953, 1441, 1529, 1754
1954, 1502, 1766, 782
1955, 142, 4119, 1469
1956, 2179, 1706, 1872
1957, 141, 140, 1467
1958, 472, 471, 1914
1959, 1863, 1908, 2469
1960, 143, 142, 1469
1961, 153, 152, 1742
1962, 2930, 2929, 2274
1963, 1379, 1442, 2375
1964, 1545, 148, 147
1965, 1778, 1615, 2875
1966, 2932, 1469, 4120
1967, 1103, 1104, 4310
1968, 1837, 159, 158
1969, 497, 1536, 498
1970, 1315, 792, 793
1971, 1315, 2353, 792
1972, 2405, 2407, 2409
1973, 1316, 1655, 794
1974, 1897, 613, 612
1975, 1412, 4304, 2774
1976, 1301, 1315, 1655
1977, 1752, 463, 1522
1978, 788, 789, 1363
1979, 2360, 1363, 1691
1980, 2838, 163, 162
1981, 1580, 1607, 15
1982, 149, 1920, 1919
1983, 791, 1344, 790
1984, 795, 796, 2961
1985, 1750, 982, 983
1986, 2360, 1693, 786
1987, 942, 943, 1754
1988, 784, 1365, 1560
1989, 1560, 1502, 783
1990, 2283, 1523, 1436
1991, 787, 2360, 786
1992, 2484, 1935, 2483
1993, 1942, 778, 1767
1994, 1389, 1939, 1938
1995, 7696, 624, 7695
1996, 1546, 779, 780
1997, 1546, 1941, 779
1998, 484, 483, 1581
1999, 781, 782, 1766
2000, 1269, 1565, 1593
2001, 782, 783, 1502
2002, 1758, 816, 817
2003, 788, 1363, 2360
2004, 1592, 1565, 1270
2005, 778, 1942, 777
2006, 3330, 2547, 2963
2007, 1891, 1892, 1721
2008, 1656, 2847, 1842
2009, 1484, 5, 4
2010, 2846, 2844, 2845
2011, 1857, 1856, 1206
2012, 2453, 1868, 3243
2013, 1842, 2, 1
2014, 3270, 4313, 1714
2015, 2427, 1832, 1639
2016, 2855, 1346, 2854
2017, 8, 7, 1583
2018, 7, 6, 1554
2019, 1796, 2100, 1987
2020, 2156, 1628, 2527
2021, 1322, 2858, 2860
2022, 1633, 2110, 4284
2023, 1657, 1302, 2842
2024, 1845, 1844, 1043
2025, 1755, 2402, 1377
2026, 3269, 2844, 2847
2027, 1541, 1268, 1593
2028, 1318, 639, 640
2029, 639, 1318, 4111
2030, 1953, 2370, 2374
2031, 640, 641, 1318
2032, 496, 2288, 497
2033, 1302, 1318, 1319
2034, 4127, 1542, 2306
2035, 15, 14, 1580
2036, 1587, 1481, 3886
2037, 647, 648, 2364
2038, 646, 2363, 645
2039, 1752, 1931, 4280
2040, 1484, 1582, 5
2041, 1921, 1501, 2393
2042, 643, 4113, 642
2043, 4111, 637, 638
2044, 2278, 9, 1505
2045, 1390, 2492, 2491
2046, 2824, 2332, 2826
2047, 1504, 11, 10
2048, 9, 2278, 10
2049, 1452, 1537, 1760
2050, 1540, 1576, 1772
2051, 1715, 1882, 1967
2052, 133, 2027, 134
2053, 136, 135, 1874
2054, 1985, 930, 931
2055, 2075, 2131, 1470
2056, 1528, 1572, 1598
2057, 1607, 1580, 1548
2058, 2112, 2111, 1709
2059, 1954, 4128, 1776
2060, 138, 137, 1470
2061, 2482, 1515, 1427
2062, 1470, 2753, 4303
2063, 1682, 1326, 2356
2064, 1471, 4126, 1392
2065, 17, 16, 1471
2066, 4876, 2937, 4380
2067, 2365, 1369, 1340
2068, 1639, 2428, 2427
2069, 1606, 13, 1503
2070, 1897, 1724, 613
2071, 1676, 1351, 1115
2072, 2937, 1473, 4380
2073, 1550, 2495, 20
2074, 19, 1550, 20
2075, 1652, 2830, 2832
2076, 2346, 1658, 3901
2077, 2496, 2937, 1392
2078, 2337, 1684, 1343
2079, 1503, 13, 12
2080, 1275, 1688, 1274
2081, 4316, 21, 2495
2082, 1603, 1574, 1532
2083, 1298, 1312, 2054
2084, 1631, 2534, 2925
2085, 1733, 1904, 1731
2086, 132, 2028, 133
2087, 4282, 1460, 1386
2088, 776, 777, 1547
2089, 1396, 1589, 1480
2090, 2076, 775, 1944
2091, 774, 1875, 773
2092, 2856, 1950, 1485
2093, 776, 1547, 1944
2094, 1375, 1609, 1595
2095, 1607, 1548, 1611
2096, 2029, 771, 2030
2097, 2508, 1790, 2170
2098, 2037, 2036, 768
2099, 769, 2031, 2037
2100, 1724, 1461, 1544
2101, 770, 771, 2029
2102, 4124, 1601, 1530
2103, 773, 1875, 2113
2104, 187, 186, 1802
2105, 130, 129, 2034
2106, 1590, 1562, 1509
2107, 2036, 2038, 767
2108, 1496, 4277, 1602
2109, 3315, 1598, 1440
2110, 131, 130, 2032
2111, 1550, 1473, 2495
2112, 767, 768, 2036
2113, 766, 767, 2038
2114, 2586, 2592, 2038
2115, 124, 3165, 125
2116, 1942, 1943, 1468
2117, 2284, 1436, 1523
2118, 2161, 2587, 2584
2119, 1518, 333, 1566
2120, 3553, 123, 3167
2121, 1588, 166, 1561
2122, 130, 2034, 2032
2123, 2028, 2033, 1820
2124, 606, 2026, 607
2125, 2328, 1647, 1305
2126, 2038, 2584, 2586
2127, 794, 1655, 793
2128, 764, 2981, 763
2129, 761, 762, 2699
2130, 97, 5910, 5936
2131, 2981, 764, 2983
2132, 1677, 1326, 1676
2133, 8151, 8142, 8152
2134, 1375, 1930, 1609
2135, 1350, 1111, 1680
2136, 759, 760, 2701
2137, 2701, 3554, 3556
2138, 1282, 1673, 1281
2139, 1208, 1708, 1858
2140, 1685, 1329, 2862
2141, 2701, 3548, 3547
2142, 88, 87, 1830
2143, 3549, 2700, 3167
2144, 1584, 1555, 980
2145, 2258, 1370, 973
2146, 2476, 1556, 1325
2147, 3554, 2701, 3547
2148, 120, 3569, 2702
2149, 1299, 1339, 1910
2150, 120, 3570, 3569
2151, 1691, 1334, 1695
2152, 3173, 3557, 2703
2153, 755, 3172, 754
2154, 3565, 3880, 2244
2155, 135, 2112, 1874
2156, 2453, 1372, 2454
2157, 754, 3172, 3174
2158, 1366, 649, 1698
2159, 3177, 117, 3175
2160, 121, 2702, 3550
2161, 2980, 2979, 3337
2162, 1966, 1967, 988
2163, 1696, 2362, 2854
2164, 303, 302, 1596
2165, 3175, 117, 116
2166, 4920, 4919, 1321
2167, 1866, 2069, 2908
2168, 2334, 956, 957
2169, 2704, 3563, 2243
2170, 3174, 753, 754
2171, 1506, 1588, 3755
2172, 3566, 115, 114
2173, 113, 112, 3181
2174, 1736, 471, 470
2175, 2119, 2163, 1499
2176, 1675, 1344, 2353
2177, 4438, 4439, 4436
2178, 4430, 4434, 4428
2179, 3227, 3615, 2746
2180, 2707, 3182, 4421
2181, 560, 2380, 1463
2182, 3736, 3178, 3737
2183, 6115, 6116, 6112
2184, 180, 179, 1573
2185, 24, 2291, 1552
2186, 1456, 1946, 1772
2187, 98, 97, 5936
2188, 5929, 98, 5936
2189, 986, 1882, 2134
2190, 6114, 5675, 5676
2191, 5190, 4772, 5192
2192, 83, 1732, 84
2193, 1443, 4116, 237
2194, 615, 1579, 616
2195, 5652, 5654, 5649
2196, 2270, 2748, 4298
2197, 2865, 2390, 2266
2198, 5633, 4103, 4772
2199, 5670, 6092, 6093
2200, 4279, 4274, 4275
2201, 1416, 1504, 2278
2202, 4436, 4439, 4434
2203, 1354, 240, 1890
2204, 752, 753, 3561
2205, 3568, 751, 752
2206, 3183, 2708, 4425
2207, 1410, 1497, 1739
2208, 82, 1733, 83
2209, 3183, 4425, 749
2210, 557, 1727, 1362
2211, 1531, 1757, 820
2212, 747, 748, 4426
2213, 745, 4892, 4442
2214, 4442, 4894, 4441
2215, 2078, 1431, 1885
2216, 1472, 1549, 1769
2217, 4102, 4439, 4441
2218, 2289, 1763, 1458
2219, 2708, 3184, 3573
2220, 1922, 1495, 170
2221, 5643, 5638, 5639
2222, 1471, 4876, 17
2223, 6093, 5660, 5671
2224, 6109, 6111, 5674
2225, 2050, 667, 668
2226, 2583, 1822, 2035
2227, 5941, 5946, 5945
2228, 5659, 5665, 5658
2229, 742, 5750, 5752
2230, 5666, 5643, 5647
2231, 935, 1796, 1987
2232, 1973, 1095, 1096
2233, 5645, 5647, 5648
2234, 5650, 5642, 5646
2235, 508, 2012, 2013
2236, 832, 2558, 831
2237, 5654, 5656, 7719
2238, 2191, 2557, 2964
2239, 1260, 1261, 1955
2240, 5291, 743, 5292
2241, 5637, 5634, 5636
2242, 1780, 1959, 1957
2243, 97, 5756, 5910
2244, 2706, 118, 3564
2245, 1749, 341, 340
2246, 1835, 2054, 2055
2247, 2855, 4115, 1346
2248, 1309, 3911, 3993
2249, 649, 1366, 648
2250, 1563, 1510, 1419
2251, 1428, 3238, 1584
2252, 2767, 2283, 1438
2253, 1336, 1366, 1697
2254, 7688, 651, 652
2255, 2402, 1755, 1441
2256, 1698, 651, 7688
2257, 1422, 2088, 7688
2258, 1549, 1771, 655
2259, 500, 1535, 1759
2260, 1457, 1949, 2497
2261, 2293, 2769, 1474
2262, 656, 1549, 655
2263, 1944, 1547, 2933
2264, 1392, 4126, 4266
2265, 1483, 2928, 1553
2266, 648, 1366, 2364
2267, 1901, 659, 660
2268, 1352, 2355, 1679
2269, 1699, 1697, 1367
2270, 2357, 1353, 949
2271, 24, 1552, 25
2272, 4316, 23, 22
2273, 5765, 5331, 5766
2274, 1902, 1474, 1551
2275, 663, 2042, 662
2276, 1300, 1673, 1314
2277, 1858, 2064, 1667
2278, 2331, 1677, 1342
2279, 2040, 29, 28
2280, 2044, 2043, 664
2281, 1586, 1559, 1500
2282, 1901, 2135, 2568
2283, 4222, 4196, 959
2284, 2291, 1476, 2290
2285, 2824, 1295, 3264
2286, 2045, 1829, 2543
2287, 495, 1604, 1538
2288, 1903, 26, 2085
2289, 26, 1903, 27
2290, 2040, 28, 2041
2291, 1432, 1520, 1568
2292, 627, 1586, 1499
2293, 2039, 29, 2040
2294, 2299, 1511, 1421
2295, 1579, 1544, 1461
2296, 29, 2039, 30
2297, 2046, 31, 30
2298, 32, 2048, 33
2299, 1505, 1583, 1950
2300, 1520, 1432, 1570
2301, 2048, 2425, 33
2302, 2287, 1538, 1455
2303, 25, 1552, 2085
2304, 1405, 1492, 1556
2305, 2959, 1829, 2050
2306, 1259, 1260, 2024
2307, 2192, 185, 2198
2308, 1098, 1099, 1979
2309, 669, 670, 3185
2310, 2049, 2050, 1829
2311, 16, 1607, 1471
2312, 3584, 3586, 3583
2313, 2290, 1476, 2292
2314, 2425, 3583, 34
2315, 36, 3188, 37
2316, 3190, 3579, 2713
2317, 1739, 486, 485
2318, 2167, 2077, 2133
2319, 3195, 39, 38
2320, 1578, 619, 1543
2321, 2709, 3186, 3576
2322, 3187, 2050, 3581
2323, 2043, 2540, 7694
2324, 172, 1916, 2388
2325, 181, 1601, 1446
2326, 1958, 1780, 1957
2327, 2247, 3577, 3578
2328, 1509, 1562, 1589
2329, 1459, 1543, 1577
2330, 1597, 1571, 1527
2331, 674, 675, 2714
2332, 3192, 2711, 3191
2333, 1565, 1512, 1593
2334, 2712, 3193, 2713
2335, 81, 80, 1907
2336, 39, 3193, 40
2337, 1278, 1369, 1277
2338, 2717, 43, 3596
2339, 678, 3598, 4297
2340, 1301, 1675, 1315
2341, 2715, 42, 41
2342, 808, 3227, 4114
2343, 2248, 2714, 3593
2344, 672, 673, 3191
2345, 4297, 3202, 4293
2346, 1595, 1609, 1951
2347, 1364, 1693, 2360
2348, 2817, 85, 1477
2349, 1846, 1660, 1845
2350, 3199, 2717, 3201
2351, 8, 1583, 1505
2352, 3741, 3598, 2718
2353, 680, 3203, 679
2354, 44, 3199, 45
2355, 681, 682, 3208
2356, 1782, 1963, 2097
2357, 1721, 1444, 1891
2358, 3209, 3208, 3602
2359, 1633, 4284, 2536
2360, 3207, 3601, 3205
2361, 556, 1726, 1727
2362, 4296, 4292, 4291
2363, 1612, 1613, 1610
2364, 1652, 1308, 1296
2365, 641, 642, 1319
2366, 3600, 46, 45
2367, 1676, 1116, 1342
2368, 47, 3601, 48
2369, 3212, 49, 48
2370, 4919, 1284, 1285
2371, 46, 3205, 47
2372, 973, 974, 2258
2373, 2396, 2747, 1745
2374, 2723, 4861, 4860
2375, 334, 1567, 335
2376, 4773, 5681, 5193
2377, 5684, 55, 5685
2378, 1727, 557, 556
2379, 4869, 4867, 4104
2380, 1111, 1112, 1680
2381, 50, 3214, 51
2382, 878, 1705, 877
2383, 3748, 3605, 3752
2384, 1733, 1368, 1904
2385, 4865, 4862, 3885
2386, 2090, 1930, 1375
2387, 1533, 1757, 1756
2388, 3884, 3940, 3750
2389, 1417, 2395, 1506
2390, 5000, 4866, 688
2391, 5195, 5691, 4774
2392, 5194, 5680, 5683
2393, 5690, 4105, 5683
2394, 2078, 1953, 1775
2395, 4381, 2940, 1959
2396, 5683, 5687, 5690
2397, 656, 1770, 1549
2398, 5697, 5693, 5695
2399, 1267, 1763, 1266
2400, 3744, 3209, 3603
2401, 3210, 3211, 2721
2402, 1339, 1672, 1133
2403, 1618, 2098, 2143
2404, 7688, 7689, 1422
2405, 1301, 1655, 1316
2406, 617, 616, 1460
2407, 2741, 721, 722
2408, 1639, 3282, 2053
2409, 8796, 8326, 8798
2410, 2051, 2053, 1294
2411, 718, 719, 1860
2412, 1733, 82, 1368
2413, 2440, 1852, 2841
2414, 1368, 1337, 1904
2415, 4443, 726, 727
2416, 2258, 1348, 1370
2417, 1138, 1139, 1359
2418, 1684, 1683, 1343
2419, 1830, 87, 2325
2420, 2820, 2326, 2819
2421, 642, 4113, 1319
2422, 1830, 3216, 88
2423, 2817, 1477, 2815
2424, 1355, 1329, 1685
2425, 77, 1478, 78
2426, 1319, 1318, 641
2427, 2910, 479, 1834
2428, 4123, 1491, 4122
2429, 3220, 3237, 1831
2430, 1395, 2468, 4121
2431, 1644, 1295, 1306
2432, 2760, 2759, 76
2433, 4121, 79, 78
2434, 7430, 7214, 7498
2435, 1906, 1394, 2383
2436, 1860, 1669, 1861
2437, 2550, 1548, 2549
2438, 1747, 4266, 1925
2439, 1368, 1734, 1337
2440, 1861, 718, 1860
2441, 75, 74, 1831
2442, 1907, 79, 1479
2443, 15, 1607, 16
2444, 2066, 1909, 1670
2445, 4468, 95, 4912
2446, 1925, 2088, 1422
2447, 775, 776, 1944
2448, 3226, 1417, 3614
2449, 4461, 4368, 4458
2450, 4458, 4462, 4463
2451, 987, 1882, 986
2452, 4912, 94, 4469
2453, 2452, 2440, 1664
2454, 4903, 4898, 4901
2455, 4900, 4899, 4897
2456, 4898, 4903, 4908
2457, 2123, 154, 153
2458, 2164, 2060, 2120
2459, 4106, 4462, 4458
2460, 2474, 473, 472
2461, 4456, 4449, 4459
2462, 4468, 4470, 5296
2463, 3612, 3620, 2253
2464, 723, 724, 2819
2465, 2467, 2926, 1906
2466, 2816, 2742, 3258
2467, 2438, 2439, 2913
2468, 1479, 1734, 1907
2469, 2086, 2467, 1906
2470, 661, 2084, 2135
2471, 822, 823, 2457
2472, 90, 3215, 91
2473, 4447, 3218, 4443
2474, 2724, 3215, 2725
2475, 2079, 1663, 1851
2476, 343, 342, 1884
2477, 1637, 2326, 3259
2478, 322, 321, 2429
2479, 3320, 1806, 3321
2480, 3215, 4368, 4874
2481, 2737, 884, 885
2482, 1865, 1338, 2259
2483, 486, 1917, 487
2484, 1452, 1936, 2141
2485, 5901, 5895, 5896
2486, 1573, 1601, 180
2487, 1491, 465, 464
2488, 297, 1524, 298
2489, 5198, 5700, 5695
2490, 5708, 58, 5698
2491, 1389, 2486, 2485
2492, 5710, 5711, 59
2493, 4916, 5297, 4915
2494, 1938, 1764, 1465
2495, 662, 2042, 2084
2496, 1408, 2772, 1495
2497, 5760, 699, 700
2498, 5302, 5311, 5306
2499, 1594, 2304, 2479
2500, 5305, 5304, 5308
2501, 5978, 5976, 61
2502, 2194, 2198, 1445
2503, 1811, 2527, 2419
2504, 60, 5895, 5901
2505, 5706, 5709, 5705
2506, 5710, 59, 58
2507, 2512, 2513, 2146
2508, 1993, 1994, 235
2509, 5982, 5981, 6118
2510, 2186, 192, 2001
2511, 2340, 3268, 2840
2512, 4916, 4503, 4500
2513, 5308, 5310, 5305
2514, 5317, 5310, 5306
2515, 2034, 2035, 1822
2516, 2541, 2544, 2116
2517, 5759, 6117, 699
2518, 1835, 2437, 2435
2519, 3324, 2925, 1817
2520, 5695, 5698, 57
2521, 56, 5197, 5693
2522, 4913, 4488, 4493
2523, 71, 3219, 72
2524, 2401, 1425, 2400
2525, 1270, 1565, 1269
2526, 1679, 1681, 1325
2527, 4483, 4486, 4478
2528, 4473, 4476, 4369
2529, 623, 1576, 7695
2530, 3222, 2728, 2726
2531, 3237, 3220, 1638
2532, 717, 1862, 716
2533, 716, 1863, 715
2534, 1711, 2755, 714
2535, 2386, 1489, 1403
2536, 1739, 1497, 1917
2537, 3234, 3235, 1478
2538, 1426, 1748, 1926
2539, 4489, 4478, 4486
2540, 1448, 1603, 1382
2541, 3222, 2726, 4476
2542, 707, 4471, 4472
2543, 4481, 705, 4482
2544, 4496, 4489, 4494
2545, 1853, 1665, 2062
2546, 1859, 1668, 2068
2547, 4497, 4499, 4502
2548, 1866, 1865, 1702
2549, 712, 713, 2754
2550, 3236, 711, 712
2551, 1895, 1806, 2006
2552, 1901, 1729, 1902
2553, 3263, 710, 2821
2554, 3263, 709, 710
2555, 1480, 1877, 1876
2556, 3335, 2973, 1716
2557, 708, 4373, 4372
2558, 2460, 883, 884
2559, 1531, 1871, 1870
2560, 4494, 4488, 4109
2561, 1404, 4122, 4280
2562, 1907, 1734, 1368
2563, 2445, 2442, 2441
2564, 1505, 9, 8
2565, 1878, 1879, 1713
2566, 1422, 1924, 1925
2567, 2482, 1926, 1748
2568, 509, 2016, 510
2569, 1917, 1497, 487
2570, 1771, 1924, 1513
2571, 2091, 1927, 1751
2572, 4281, 2476, 2477
2573, 1751, 1930, 2091
2574, 2481, 1487, 1746
2575, 4268, 1533, 1449
2576, 817, 1934, 1758
2577, 1450, 1759, 1935
2578, 1759, 1535, 2483
2579, 2484, 1383, 1935
2580, 2870, 2094, 2287
2581, 2413, 1937, 1452
2582, 1937, 1762, 1144
2583, 1389, 2485, 1939
2584, 4263, 4825, 4264
2585, 1765, 2488, 1939
2586, 1414, 4263, 4264
2587, 780, 1940, 1546
2588, 2485, 1765, 1939
2589, 1466, 1941, 1546
2590, 778, 1941, 1767
2591, 777, 1942, 1547
2592, 1943, 1942, 1767
2593, 2489, 1767, 1466
2594, 1943, 1390, 2491
2595, 2933, 1547, 1468
2596, 1944, 1768, 2076
2597, 1945, 2769, 2494
2598, 1769, 1945, 2939
2599, 1947, 1946, 1385
2600, 1946, 1947, 3240
2601, 1949, 1947, 1385
2602, 1593, 2095, 1457
2603, 4282, 1948, 1459
2604, 1458, 1763, 2497
2605, 1773, 1948, 1949
2606, 1948, 4306, 2497
2607, 1485, 1950, 1583
2608, 1950, 1774, 2853
2609, 1431, 1951, 1609
2610, 1951, 1775, 1952
2611, 1432, 1952, 1570
2612, 1953, 1952, 1775
2613, 2370, 1717, 2368
2614, 2373, 2374, 2371
2615, 4128, 1262, 1263
2616, 1954, 1776, 1955
2617, 2465, 2466, 3634
2618, 1955, 1817, 2024
2619, 350, 349, 1964
2620, 1956, 1779, 2096
2621, 1958, 993, 994
2622, 2502, 4381, 2499
2623, 3616, 3247, 995
2624, 2498, 1958, 2556
2625, 1961, 1959, 1781
2626, 992, 1959, 991
2627, 1781, 2505, 2506
2628, 1966, 1960, 1784
2629, 1959, 1961, 991
2630, 1960, 1961, 1781
2631, 348, 347, 1963
2632, 1964, 1962, 1782
2633, 348, 1963, 1962
2634, 1965, 1963, 347
2635, 1964, 1782, 2503
2636, 1964, 1956, 350
2637, 2974, 345, 2973
2638, 1963, 1965, 1783
2639, 1960, 1966, 989
2640, 1967, 1966, 1784
2641, 1967, 1784, 2970
2642, 1967, 1882, 987
2643, 1969, 1968, 448
2644, 1970, 1968, 1785
2645, 1969, 2172, 2142
2646, 1785, 2098, 1618
2647, 2099, 1785, 1618
2648, 1974, 451, 1975
2649, 1093, 1094, 2572
2650, 2941, 2507, 1971
2651, 1973, 1972, 1095
2652, 2572, 1972, 1787
2653, 1977, 1973, 1096
2654, 1973, 1789, 2573
2655, 451, 450, 1975
2656, 1976, 1974, 1788
2657, 2099, 1970, 1785
2658, 1788, 1974, 1975
2659, 1976, 1788, 2169
2660, 1976, 1869, 453
2661, 1097, 1098, 1978
2662, 1973, 1977, 1789
2663, 1789, 1977, 1978
2664, 1978, 1977, 1097
2665, 1927, 1979, 1099
2666, 1978, 1979, 1790
2667, 2509, 1980, 1791
2668, 1988, 1980, 1794
2669, 1982, 289, 288
2670, 1980, 1981, 1791
2671, 1982, 4309, 4307
2672, 1620, 2946, 2947
2673, 932, 933, 1984
2674, 1985, 1983, 1792
2675, 1792, 1983, 1984
2676, 1984, 1983, 932
2677, 2514, 1985, 2947
2678, 1985, 1797, 1992
2679, 934, 935, 1987
2680, 1984, 1986, 1793
2681, 1793, 1986, 1987
2682, 1987, 1986, 934
2683, 1980, 1988, 291
2684, 1794, 2948, 2173
2685, 1990, 1989, 1795
2686, 292, 1989, 293
2687, 1989, 1990, 293
2688, 1991, 1990, 1795
2689, 1991, 1795, 2575
2690, 1991, 1932, 295
2691, 1985, 1992, 930
2692, 2417, 1992, 1797
2693, 1995, 1993, 234
2694, 1994, 1993, 1799
2695, 2147, 1799, 2174
2696, 1994, 1443, 236
2697, 232, 3458, 3079
2698, 2515, 1995, 3078
2699, 826, 827, 1997
2700, 1998, 1996, 1800
2701, 1800, 1996, 1997
2702, 1997, 1996, 826
2703, 1800, 2195, 2102
2704, 824, 1998, 1872
2705, 188, 187, 2149
2706, 2104, 1999, 1801
2707, 2000, 190, 2152
2708, 2001, 2000, 1803
2709, 1803, 2181, 2105
2710, 2001, 2196, 2186
2711, 2004, 829, 2003
2712, 1997, 2002, 1804
2713, 2155, 830, 831
2714, 2185, 1805, 2153
2715, 828, 2004, 2002
2716, 1805, 2004, 2003
2717, 1806, 3320, 2516
2718, 2012, 2005, 1809
2719, 1895, 2006, 505
2720, 2005, 2006, 1806
2721, 2008, 1152, 1153
2722, 2009, 2007, 1807
2723, 1807, 2007, 2008
2724, 2008, 2007, 1152
2725, 2009, 1807, 2924
2726, 2009, 1873, 1150
2727, 1154, 1155, 2011
2728, 2008, 2010, 1808
2729, 1808, 2010, 2011
2730, 2011, 2010, 1154
2731, 2005, 2012, 507
2732, 2013, 2012, 1809
2733, 2156, 2013, 2520
2734, 2013, 1811, 2016
2735, 2015, 2014, 1156
2736, 2011, 2014, 1810
2737, 2524, 2950, 2522
2738, 2672, 3120, 2950
2739, 2013, 2016, 509
2740, 2419, 2016, 1811
2741, 2018, 2017, 564
2742, 2017, 1813, 4327
2743, 2529, 2018, 1814
2744, 2017, 2018, 1813
2745, 2020, 2019, 608
2746, 2019, 1815, 2082
2747, 2026, 2020, 607
2748, 1815, 2108, 1631
2749, 1258, 1259, 2022
2750, 2023, 2021, 1816
2751, 1816, 2021, 2022
2752, 2022, 2021, 1258
2753, 2535, 1816, 2559
2754, 2023, 1818, 2025
2755, 1955, 2024, 1260
2756, 2022, 2024, 1817
2757, 2023, 2025, 1256
2758, 2424, 2025, 1818
2759, 2560, 606, 605
2760, 2020, 2026, 1819
2761, 1820, 2110, 2027
2762, 2110, 2111, 2027
2763, 2033, 131, 2032
2764, 2027, 2028, 1820
2765, 2030, 771, 772
2766, 2029, 1821, 2031
2767, 772, 773, 2113
2768, 2113, 2188, 2030
2769, 2536, 4286, 1821
2770, 2160, 2037, 2115
2771, 2162, 1822, 2583
2772, 2032, 2114, 2033
2773, 132, 2033, 2028
2774, 1822, 2159, 2032
2775, 2035, 129, 128
2776, 2032, 2034, 1822
2777, 2585, 2589, 2586
2778, 2162, 2160, 1634
2779, 768, 769, 2037
2780, 2036, 1823, 2038
2781, 2115, 2037, 2031
2782, 1823, 2036, 2037
2783, 2160, 2161, 1823
2784, 2589, 2980, 2240
2785, 7693, 2537, 1824
2786, 2046, 2039, 1827
2787, 28, 27, 2041
2788, 2039, 2040, 1824
2789, 1730, 2041, 1903
2790, 1824, 2040, 2041
2791, 2043, 663, 664
2792, 7690, 2084, 1825
2793, 1825, 2042, 2043
2794, 2043, 2042, 663
2795, 665, 666, 2045
2796, 2043, 2044, 1826
2797, 1826, 2044, 2045
2798, 2045, 2044, 665
2799, 2039, 2046, 30
2800, 2047, 2046, 1827
2801, 2047, 1827, 2116
2802, 2047, 1828, 2048
2803, 2047, 2048, 32
2804, 2425, 2048, 1828
2805, 2050, 2049, 667
2806, 2045, 2049, 1829
2807, 3581, 2709, 3582
2808, 2425, 34, 33
2809, 2052, 2051, 1304
2810, 1833, 2428, 2053
2811, 2052, 1304, 965
2812, 1303, 2430, 2906
2813, 3896, 3286, 3282
2814, 3287, 2053, 3286
2815, 2055, 2054, 1312
2816, 1835, 2435, 2056
2817, 2055, 1312, 1128
2818, 1313, 2437, 2911
2819, 3891, 3301, 3297
2820, 3302, 2056, 3301
2821, 2960, 2961, 2546
2822, 3781, 3628, 3780
2823, 2349, 2058, 1660
2824, 2058, 1323, 2735
2825, 1888, 2059, 1663
2826, 1892, 2059, 1328
2827, 2119, 1412, 8941
2828, 630, 629, 2164
2829, 632, 631, 2122
2830, 2061, 1854, 2121
2831, 2366, 2062, 1665
2832, 2061, 2062, 1854
2833, 1667, 2064, 4283
2834, 2063, 1333, 2864
2835, 2548, 1858, 1708
2836, 2064, 2548, 2382
2837, 1668, 1859, 2065
2838, 1859, 154, 2123
2839, 1905, 2066, 1669
2840, 1909, 2066, 1337
2841, 156, 155, 2127
2842, 2124, 2067, 1864
2843, 1668, 2359, 2125
2844, 2067, 2068, 1864
2845, 1396, 2069, 1589
2846, 2070, 1866, 1702
2847, 2071, 2070, 1702
2848, 1509, 2069, 2070
2849, 2128, 2071, 1702
2850, 1590, 2071, 1418
2851, 1704, 2090, 2138
2852, 455, 2072, 1433
2853, 1706, 2179, 2180
2854, 2073, 1381, 4125
2855, 2074, 1707, 2093
2856, 2130, 2074, 1453
2857, 2075, 1709, 2131
2858, 137, 2075, 1470
2859, 775, 2076, 774
2860, 2076, 1768, 2166
2861, 2133, 2077, 1715
2862, 2134, 2077, 1425
2863, 1953, 2078, 1717
2864, 1431, 2078, 1775
2865, 2460, 2079, 883
2866, 2079, 1889, 1663
2867, 1723, 2080, 1724
2868, 1613, 2080, 1896
2869, 609, 2082, 610
2870, 1899, 2081, 1898
2871, 2082, 1815, 3323
2872, 2082, 2081, 610
2873, 661, 662, 2084
2874, 2538, 1730, 2539
2875, 1825, 2084, 2042
2876, 2084, 2083, 2135
2877, 2136, 1552, 1475
2878, 1730, 1903, 2085
2879, 2467, 2086, 720
2880, 2086, 1906, 1669
2881, 1398, 2087, 1581
2882, 2471, 2087, 1912
2883, 1925, 1611, 2550
2884, 1699, 1367, 2551
2885, 1431, 2089, 1929
2886, 1609, 1930, 2089
2887, 2139, 2090, 1704
2888, 2091, 1790, 1927
2889, 2090, 2594, 1930
2890, 2139, 2170, 2594
2891, 2171, 2092, 2578
2892, 297, 2092, 1524
2893, 2093, 1383, 2129
2894, 1450, 4314, 2463
2895, 2094, 2141, 2484
2896, 2768, 1536, 2287
2897, 1512, 2095, 1593
2898, 1949, 2095, 1947
2899, 2500, 1779, 2499
2900, 352, 2553, 353
2901, 2097, 1783, 3334
2902, 2097, 1617, 2504
2903, 2142, 2098, 1969
2904, 2570, 2143, 1787
2905, 2099, 1618, 2144
2906, 1975, 1970, 2099
2907, 1621, 2575, 2146
2908, 1987, 2100, 2513
2909, 876, 2597, 2596
2910, 2147, 2175, 1994
2911, 2178, 2177, 1625
2912, 1998, 2102, 2179
2913, 2150, 2103, 1802
2914, 1801, 1999, 2103
2915, 2104, 1801, 2151
2916, 1803, 2000, 2152
2917, 1626, 2153, 2105
2918, 2187, 2601, 2197
2919, 4508, 2106, 2558
2920, 193, 2186, 2580
2921, 1627, 2520, 2516
2922, 2518, 1808, 2519
2923, 2020, 1819, 2108
2924, 2956, 2965, 1819
2925, 2561, 605, 604
2926, 2956, 1632, 2957
2927, 4284, 2110, 1820
2928, 2111, 2110, 1633
2929, 2157, 2111, 1633
2930, 1709, 1874, 2112
2931, 134, 2027, 2112
2932, 2111, 2112, 2027
2933, 1710, 2113, 1875
2934, 772, 2113, 2030
2935, 4284, 4287, 4285
2936, 2033, 2114, 4287
2937, 4286, 4284, 4285
2938, 2160, 2115, 1634
2939, 1827, 2537, 2542
2940, 1826, 2045, 2544
2941, 968, 2117, 967
2942, 1303, 2052, 2117
2943, 1131, 2118, 1130
2944, 1313, 2055, 2118
2945, 8941, 1412, 1687
2946, 2164, 2163, 2060
2947, 2164, 1853, 630
2948, 2120, 2060, 8941
2949, 2851, 2347, 2121
2950, 635, 2566, 1836
2951, 1853, 2122, 631
2952, 2061, 2122, 2062
2953, 1742, 2123, 153
2954, 1859, 2123, 2065
2955, 1864, 2165, 2190
2956, 158, 2124, 1837
2957, 1690, 1344, 2126
2958, 1864, 2068, 2125
2959, 2165, 2126, 1675
2960, 1864, 2125, 2126
2961, 1859, 2127, 155
2962, 2067, 2127, 2068
2963, 1370, 2128, 1702
2964, 1348, 2480, 4288
2965, 1453, 2074, 2129
2966, 2093, 2129, 2074
2967, 1453, 1148, 2130
2968, 1149, 2130, 1148
2969, 2111, 2157, 2158
2970, 1710, 2076, 2166
2971, 1391, 2131, 2132
2972, 2131, 1709, 2158
2973, 2133, 1715, 2567
2974, 2168, 1426, 1926
2975, 984, 2134, 1425
2976, 986, 2134, 985
2977, 661, 2135, 660
2978, 2135, 2083, 2568
2979, 2770, 1475, 2295
2980, 2136, 2137, 2958
2981, 2568, 2137, 2770
2982, 2958, 7691, 2539
2983, 1433, 2138, 1375
2984, 1704, 2138, 2072
2985, 1704, 1976, 2169
2986, 2139, 1619, 2170
2987, 1753, 1991, 2576
2988, 1377, 2763, 2765
2989, 2141, 1936, 2484
2990, 2141, 2094, 2870
2991, 2172, 1969, 447
2992, 2569, 446, 445
2993, 2571, 2098, 2142
2994, 2975, 1971, 2572
2995, 1618, 2570, 2144
2996, 1789, 2508, 2944
2997, 2099, 2144, 2145
2998, 2145, 2144, 2944
2999, 1989, 2173, 1795
3000, 2512, 2948, 2949
3001, 1799, 2515, 2174
3002, 2147, 2101, 2175
3003, 2180, 2193, 1381
3004, 2180, 1381, 2073
3005, 1802, 2149, 187
3006, 1999, 2149, 2103
3007, 2178, 2150, 1802
3008, 2150, 1625, 2183
3009, 2151, 1801, 2182
3010, 2185, 1804, 2004
3011, 1999, 2152, 189
3012, 2152, 2104, 1803
3013, 2153, 1626, 2185
3014, 2154, 2186, 2196
3015, 2105, 2153, 2187
3016, 2187, 2197, 2154
3017, 2558, 2155, 831
3018, 2003, 2155, 2106
3019, 2520, 2013, 1809
3020, 1628, 2156, 2107
3021, 2157, 1633, 2536
3022, 2132, 2157, 1710
3023, 2111, 2158, 1709
3024, 2132, 2158, 2157
3025, 1634, 2114, 2159
3026, 2032, 2159, 2114
3027, 1634, 2159, 2162
3028, 2037, 2160, 1823
3029, 2587, 2588, 2585
3030, 2038, 1823, 2584
3031, 1822, 2162, 2159
3032, 2160, 2162, 2161
3033, 1499, 2163, 628
3034, 2060, 2163, 2119
3035, 2164, 629, 2163
3036, 1853, 2164, 2120
3037, 2189, 1675, 1301
3038, 2165, 1642, 2190
3039, 2493, 1768, 2933
3040, 2132, 2166, 2935
3041, 2168, 2167, 2133
3042, 2400, 2167, 1373
3043, 1426, 2168, 2133
3044, 1373, 2168, 1926
3045, 2169, 1788, 2574
3046, 1704, 2169, 2139
3047, 2170, 1619, 2508
3048, 2091, 2170, 1790
3049, 2578, 2092, 1753
3050, 2171, 2140, 2764
3051, 447, 446, 2172
3052, 2569, 2172, 446
3053, 1794, 2173, 1989
3054, 2575, 2173, 2146
3055, 2174, 1624, 2191
3056, 2147, 2174, 2964
3057, 2175, 2101, 2176
3058, 1380, 1443, 2175
3059, 2596, 2176, 2101
3060, 877, 2597, 876
3061, 1625, 2150, 2178
3062, 2179, 2177, 2148
3063, 1802, 186, 2192
3064, 2148, 2194, 2193
3065, 2179, 2148, 2180
3066, 2179, 1872, 1998
3067, 1706, 2180, 2073
3068, 2193, 2180, 2148
3069, 2105, 2181, 1626
3070, 2104, 2181, 1803
3071, 2103, 2183, 1801
3072, 1997, 2598, 1800
3073, 1625, 2102, 2195
3074, 1801, 2183, 2182
3075, 1626, 2151, 2184
3076, 2182, 2184, 2151
3077, 2185, 2004, 1805
3078, 1626, 2184, 2185
3079, 2196, 2105, 2187
3080, 2186, 2154, 2580
3081, 1805, 2601, 2153
3082, 2601, 2106, 2197
3083, 1710, 2188, 2113
3084, 2536, 2188, 2157
3085, 1301, 2960, 3330
3086, 2165, 2189, 2963
3087, 1837, 2190, 1642
3088, 1864, 2190, 2124
3089, 1624, 2599, 2984
3090, 874, 2600, 873
3091, 185, 184, 2198
3092, 1802, 2192, 2178
3093, 2194, 2148, 2178
3094, 2193, 1445, 4117
3095, 2192, 2194, 2178
3096, 1445, 2193, 2194
3097, 2195, 1800, 2598
3098, 1625, 2195, 2183
3099, 2105, 2196, 2001
3100, 2154, 2196, 2187
3101, 2155, 2558, 2106
3102, 2579, 2582, 2581
3103, 1445, 2198, 184
3104, 2192, 2198, 2194
3105, 3344, 2602, 390
3106, 3789, 3788, 2777
3107, 2874, 2879, 407
3108, 4505, 1053, 1054
3109, 2604, 2989, 4338
3110, 367, 366, 3365
3111, 3363, 3658, 3659
3112, 366, 365, 2996
3113, 3364, 1005, 1006
3114, 364, 363, 3000
3115, 358, 357, 3382
3116, 999, 1000, 2615
3117, 3008, 3663, 3378
3118, 3372, 3366, 3003
3119, 998, 999, 3009
3120, 3248, 3618, 355
3121, 430, 3019, 431
3122, 3387, 3018, 3017
3123, 433, 432, 3024
3124, 2623, 3024, 3025
3125, 435, 434, 3028
3126, 4388, 3399, 2623
3127, 1085, 2627, 1084
3128, 438, 437, 2628
3129, 1086, 1087, 2630
3130, 1088, 3418, 1087
3131, 3039, 2632, 3038
3132, 1088, 1089, 2633
3133, 3047, 2634, 3046
3134, 2636, 3050, 3051
3135, 3056, 2638, 3055
3136, 3431, 3054, 3053
3137, 3067, 922, 923
3138, 278, 2642, 279
3139, 924, 925, 2645
3140, 2645, 925, 3072
3141, 2646, 3070, 4360
3142, 3681, 3682, 3436
3143, 2885, 2884, 3626
3144, 2648, 3073, 3074
3145, 2886, 2891, 248
3146, 4506, 890, 891
3147, 4332, 4330, 4331
3148, 232, 231, 2652
3149, 2653, 3083, 3084
3150, 3087, 2654, 3086
3151, 3091, 2656, 3090
3152, 205, 204, 3094
3153, 3466, 3086, 3088
3154, 4390, 4391, 3104
3155, 202, 201, 2662
3156, 2664, 3479, 3480
3157, 199, 3484, 3108
3158, 836, 837, 2665
3159, 3488, 3112, 3487
3160, 834, 835, 3110
3161, 3115, 4403, 3117
3162, 3503, 518, 3122
3163, 1158, 1159, 3118
3164, 2672, 3118, 3119
3165, 3491, 1162, 1163
3166, 515, 2955, 3328
3167, 2676, 3126, 3127
3168, 522, 3702, 523
3169, 3133, 2679, 3132
3170, 3511, 3870, 3131
3171, 2682, 3136, 3525
3172, 3878, 3875, 3876
3173, 2421, 566, 565
3174, 4322, 1216, 4289
3175, 2899, 2901, 3281
3176, 2564, 2966, 2563
3177, 592, 591, 3145
3178, 2687, 3145, 3146
3179, 2689, 3150, 4365
3180, 4413, 3148, 4411
3181, 1249, 1250, 2692
3182, 1250, 1251, 3722
3183, 3159, 595, 3157
3184, 1248, 2694, 1247
3185, 594, 593, 3160
3186, 4406, 3543, 2687
3187, 2593, 2983, 2592
3188, 2978, 2979, 2590
3189, 3636, 763, 2981
3190, 2700, 3553, 3167
3191, 3546, 3548, 2699
3192, 120, 2702, 121
3193, 2703, 3172, 3173
3194, 3176, 2704, 3175
3195, 3880, 3879, 2244
3196, 119, 118, 2706
3197, 2707, 3181, 3182
3198, 750, 3183, 749
3199, 2709, 3185, 3186
3200, 3189, 2710, 3188
3201, 3188, 3190, 37
3202, 3578, 2711, 2247
3203, 2717, 3596, 2249
3204, 3193, 3194, 3592
3205, 44, 43, 2717
3206, 3597, 42, 2715
3207, 2718, 3203, 3204
3208, 3206, 2719, 3205
3209, 3208, 3209, 2720
3210, 683, 684, 3210
3211, 3606, 3212, 3213
3212, 3749, 3883, 3605
3213, 90, 89, 2725
3214, 1830, 3611, 3216
3215, 2822, 4371, 4373
3216, 73, 72, 2728
3217, 2255, 1356, 812
3218, 2297, 2255, 1357
3219, 2256, 1358, 1137
3220, 2743, 2256, 1359
3221, 1280, 2257, 1279
3222, 1674, 2729, 1341
3223, 2730, 974, 975
3224, 4315, 2478, 2480
3225, 972, 1370, 2259
3226, 1865, 2259, 1370
3227, 1371, 2778, 2779
3228, 3242, 2779, 2308
3229, 2738, 885, 886
3230, 2261, 2737, 2738
3231, 1387, 2806, 2807
3232, 3256, 2807, 2320
3233, 2742, 722, 723
3234, 2263, 2741, 2742
3235, 2264, 1347, 399
3236, 1400, 1323, 2264
3237, 2265, 1349, 976
3238, 1402, 1324, 2265
3239, 2743, 2750, 2266
3240, 2389, 2390, 2865
3241, 2744, 2745, 2267
3242, 2267, 3226, 2746
3243, 2734, 2732, 2733
3244, 1400, 2268, 2735
3245, 1423, 2269, 396
3246, 1400, 2269, 2268
3247, 4300, 4281, 2270
3248, 1376, 1434, 2748
3249, 2271, 1384, 2273
3250, 1420, 2749, 2272
3251, 1454, 2272, 1142
3252, 1420, 2272, 2271
3253, 2873, 1384, 2871
3254, 3228, 1498, 2389
3255, 2931, 2930, 2274
3256, 2487, 2929, 2932
3257, 2935, 1391, 2132
3258, 4302, 2275, 1467
3259, 76, 2759, 77
3260, 2327, 2756, 3232
3261, 331, 2277, 1486
3262, 330, 1487, 2277
3263, 2278, 1504, 10
3264, 1505, 1416, 2278
3265, 339, 2279, 1515
3266, 338, 1516, 2279
3267, 2281, 1429, 1374
3268, 337, 2280, 1516
3269, 2282, 2281, 1374
3270, 1516, 2281, 2399
3271, 2761, 2282, 1374
3272, 1428, 1750, 2397
3273, 1436, 2763, 2283
3274, 2283, 2763, 2404
3275, 299, 2284, 1523
3276, 298, 1524, 2284
3277, 300, 2285, 301
3278, 2767, 1523, 2283
3279, 1535, 499, 2286
3280, 498, 2286, 499
3281, 2287, 1455, 2870
3282, 2288, 1536, 497
3283, 1538, 2288, 496
3284, 1536, 2288, 2287
3285, 1763, 2289, 1266
3286, 1458, 1542, 2289
3287, 1476, 2936, 2292
3288, 1475, 1552, 2290
3289, 1476, 2291, 23
3290, 1552, 2291, 2290
3291, 2769, 2293, 1393
3292, 2290, 2292, 2295
3293, 1902, 2294, 1474
3294, 1729, 2294, 1902
3295, 2568, 2770, 1729
3296, 1474, 2294, 2293
3297, 2295, 1475, 2290
3298, 2293, 2294, 2295
3299, 1327, 2296, 1353
3300, 947, 2296, 1557
3301, 1563, 2297, 1357
3302, 2771, 1591, 4278
3303, 2772, 2298, 2387
3304, 2772, 2745, 2298
3305, 2301, 2302, 4305
3306, 1565, 2299, 1512
3307, 624, 623, 7695
3308, 1540, 3240, 3239
3309, 1564, 2303, 1421
3310, 2301, 2300, 2773
3311, 1687, 2774, 1361
3312, 2302, 4304, 4305
3313, 1361, 2303, 1564
3314, 2301, 2303, 2302
3315, 2479, 2304, 1401
3316, 1566, 2304, 1594
3317, 2775, 2305, 1608
3318, 1430, 2305, 2762
3319, 2497, 4306, 1458
3320, 4127, 2306, 1612
3321, 2736, 1037, 1038
3322, 1614, 2777, 3241
3323, 2308, 2780, 2309
3324, 2307, 2736, 3242
3325, 1777, 2309, 393
3326, 2780, 2308, 2778
3327, 2785, 2310, 2786
3328, 1778, 2784, 1615
3329, 2783, 2311, 404
3330, 2311, 2310, 2784
3331, 2789, 1050, 3246
3332, 1615, 2784, 2785
3333, 3664, 3384, 3015
3334, 3617, 3249, 2206
3335, 2795, 286, 285
3336, 4307, 2314, 1622
3337, 2796, 1379, 2797
3338, 1798, 2799, 1623
3339, 2798, 2316, 245
3340, 2316, 2315, 2799
3341, 2801, 887, 3254
3342, 1623, 2799, 3252
3343, 1628, 4317, 2521
3344, 2528, 513, 2803
3345, 2740, 1200, 1201
3346, 1629, 2805, 3255
3347, 2320, 2808, 2321
3348, 2319, 2740, 3256
3349, 1812, 2321, 552
3350, 2808, 2320, 2806
3351, 1213, 1214, 4318
3352, 2531, 2530, 1630
3353, 2897, 1630, 2529
3354, 2897, 2422, 2814
3355, 2815, 1394, 2816
3356, 1830, 2818, 1637
3357, 2817, 2325, 86
3358, 2325, 2324, 2818
3359, 2820, 724, 3261
3360, 1637, 2818, 3258
3361, 2754, 2756, 3236
3362, 1638, 2822, 3263
3363, 2328, 1305, 2329
3364, 1306, 1647, 2328
3365, 2330, 2329, 1305
3366, 1119, 2329, 1118
3367, 2330, 1305, 2331
3368, 1117, 2330, 1342
3369, 2331, 1305, 2333
3370, 1677, 2331, 2445
3371, 3986, 3987, 3893
3372, 2826, 2332, 3761
3373, 2914, 2442, 1643
3374, 1305, 1647, 2333
3375, 2334, 1307, 2335
3376, 1308, 1652, 2334
3377, 2336, 2335, 1307
3378, 956, 2335, 955
3379, 2336, 1307, 2337
3380, 954, 2336, 1343
3381, 2337, 1307, 2339
3382, 1684, 2337, 2452
3383, 3989, 3990, 3898
3384, 2832, 2338, 3769
3385, 2916, 2449, 1648
3386, 1307, 1652, 2339
3387, 1397, 1481, 2837
3388, 2835, 2340, 2836
3389, 4523, 3314, 1838
3390, 2445, 2915, 1661
3391, 1399, 1484, 2844
3392, 2842, 2342, 2843
3393, 2345, 3271, 2415
3394, 1415, 3272, 1699
3395, 1314, 1283, 4920
3396, 3774, 2344, 1321
3397, 2343, 2843, 3905
3398, 5762, 5319, 5763
3399, 2967, 1836, 2566
3400, 1300, 1658, 2346
3401, 2851, 2121, 1854
3402, 1300, 2348, 1674
3403, 2346, 2347, 2348
3404, 2851, 2348, 2347
3405, 2350, 1660, 1846
3406, 2350, 2454, 2456
3407, 2454, 1703, 2453
3408, 1660, 2350, 2349
3409, 2117, 2351, 1303
3410, 969, 2351, 968
3411, 2118, 2352, 1313
3412, 1132, 2352, 1131
3413, 791, 2353, 1344
3414, 1315, 1675, 2353
3415, 1114, 2354, 1113
3416, 1352, 2354, 1678
3417, 1679, 2355, 1681
3418, 1678, 2355, 1352
3419, 1661, 2356, 1677
3420, 2356, 1914, 2385
3421, 950, 2357, 949
3422, 1685, 1353, 2357
3423, 1355, 1685, 2358
3424, 2357, 2358, 1685
3425, 2869, 1668, 2065
3426, 1695, 1334, 2359
3427, 788, 2360, 787
3428, 1364, 2360, 1691
3429, 1692, 2361, 1694
3430, 1691, 2361, 1364
3431, 1336, 1699, 3272
3432, 2853, 2362, 1416
3433, 2363, 1346, 4115
3434, 647, 2363, 646
3435, 1366, 1696, 2364
3436, 2363, 2364, 1696
3437, 1369, 2365, 1700
3438, 2365, 1340, 2366
3439, 2861, 1340, 1674
3440, 2062, 2366, 1854
3441, 2863, 1329, 1684
3442, 2458, 2459, 2917
3443, 2370, 2368, 1376
3444, 4310, 2369, 2368
3445, 1434, 2369, 1105
3446, 4310, 2368, 1717
3447, 2371, 2370, 1376
3448, 1717, 2370, 1953
3449, 2372, 2371, 1376
3450, 2371, 1435, 2373
3451, 2372, 1376, 2748
3452, 1435, 2372, 1931
3453, 1435, 1522, 4312
3454, 2374, 1521, 1953
3455, 2371, 2374, 2370
3456, 1521, 2374, 2373
3457, 1719, 2375, 1442
3458, 1889, 2375, 1718
3459, 2376, 1387, 2377
3460, 1726, 2376, 1725
3461, 2379, 1387, 2262
3462, 2378, 1203, 1204
3463, 1855, 2378, 1204
3464, 2379, 2378, 2377
3465, 1387, 2379, 2377
3466, 2379, 2262, 2739
3467, 559, 2380, 560
3468, 2382, 2380, 1728
3469, 559, 558, 2381
3470, 1362, 2381, 558
3471, 2380, 2382, 1463
3472, 2064, 2382, 1728
3473, 1732, 2383, 1477
3474, 1906, 2383, 1731
3475, 2384, 1682, 2356
3476, 2386, 2384, 1736
3477, 1736, 2384, 2385
3478, 2356, 2385, 2384
3479, 1913, 2386, 1736
3480, 2386, 1403, 2475
3481, 2388, 2387, 1496
3482, 2387, 1738, 2772
3483, 172, 2388, 173
3484, 2387, 2388, 1738
3485, 2391, 2389, 1498
3486, 2389, 1740, 2390
3487, 1740, 2866, 2390
3488, 2866, 2867, 2390
3489, 489, 2391, 490
3490, 2389, 2391, 1740
3491, 1695, 2359, 2869
3492, 2393, 2392, 1742
3493, 1921, 2393, 1742
3494, 2393, 1413, 4262
3495, 2395, 2394, 1506
3496, 2394, 1745, 1922
3497, 1417, 3226, 2396
3498, 2394, 2395, 1745
3499, 2267, 2745, 2747
3500, 1745, 2395, 2396
3501, 2398, 2397, 1373
3502, 2282, 1428, 2397
3503, 1926, 2398, 1373
3504, 2399, 2398, 1427
3505, 2399, 1427, 1516
3506, 2397, 2399, 2282
3507, 1373, 1750, 2400
3508, 1750, 983, 2401
3509, 1425, 2401, 984
3510, 1750, 2401, 2400
3511, 2403, 2402, 1441
3512, 2406, 2283, 2404
3513, 1441, 1754, 2408
3514, 1596, 2405, 1527
3515, 1377, 2402, 2404
3516, 2402, 2403, 2406
3517, 1438, 2403, 2405
3518, 2407, 2405, 2403
3519, 2283, 2406, 1438
3520, 2402, 2406, 2404
3521, 2403, 1441, 2408
3522, 2409, 1378, 3316
3523, 1378, 2408, 1754
3524, 2403, 2408, 2407
3525, 1597, 2409, 1440
3526, 2405, 2409, 1527
3527, 2765, 2410, 1377
3528, 2411, 1437, 939
3529, 1933, 2411, 940
3530, 1437, 2411, 2410
3531, 2414, 2412, 1454
3532, 2413, 2412, 1762
3533, 1762, 1937, 2413
3534, 2872, 2871, 1455
3535, 1144, 2414, 1143
3536, 2412, 2414, 1762
3537, 3245, 1615, 2312
3538, 2603, 2879, 3271
3539, 2881, 3273, 3038
3540, 3040, 2633, 2631
3541, 2882, 1797, 1622
3542, 3626, 927, 928
3543, 3253, 1623, 2317
3544, 2649, 2891, 3276
3545, 1811, 2156, 2527
3546, 2802, 2419, 2318
3547, 2896, 550, 549
3548, 2894, 2895, 3877
3549, 2531, 4325, 4327
3550, 566, 2421, 4326
3551, 1388, 2813, 2814
3552, 2423, 1814, 562
3553, 1463, 2423, 561
3554, 1814, 2423, 2422
3555, 1818, 2957, 2898
3556, 2901, 2899, 2234
3557, 1636, 1829, 2959
3558, 3584, 3583, 2425
3559, 1648, 3769, 1840
3560, 5385, 3768, 3267
3561, 1639, 2053, 2428
3562, 2429, 2427, 1712
3563, 1833, 2052, 2906
3564, 2427, 2428, 2907
3565, 1877, 2429, 1712
3566, 2905, 321, 320
3567, 1303, 1293, 2432
3568, 2427, 2907, 1712
3569, 1712, 2431, 1876
3570, 2431, 2430, 2432
3571, 1303, 2432, 2430
3572, 2908, 1293, 1866
3573, 1643, 3761, 1839
3574, 5384, 3760, 3265
3575, 1640, 2056, 2435
3576, 2436, 2434, 1713
3577, 1835, 2055, 2911
3578, 2434, 2435, 2912
3579, 1879, 2436, 1713
3580, 2910, 480, 479
3581, 1313, 1299, 2439
3582, 2434, 2912, 1713
3583, 1713, 2438, 1878
3584, 2439, 2438, 2437
3585, 1313, 2439, 2437
3586, 2913, 1299, 1912
3587, 2451, 2440, 2448
3588, 3783, 3910, 3299
3589, 1643, 1839, 2914
3590, 1839, 476, 2443
3591, 2441, 2915, 2445
3592, 2331, 2333, 2442
3593, 2444, 2443, 475
3594, 2443, 2441, 2914
3595, 1847, 2444, 474
3596, 2443, 2444, 2441
3597, 1677, 2445, 1661
3598, 2331, 2442, 2445
3599, 2440, 2841, 1664
3600, 1852, 314, 2447
3601, 4313, 2447, 313
3602, 2447, 2446, 2841
3603, 1648, 1840, 2916
3604, 1840, 317, 2450
3605, 2448, 2440, 2452
3606, 2337, 2339, 2449
3607, 2451, 2450, 316
3608, 2450, 2448, 2916
3609, 1852, 2451, 315
3610, 2450, 2451, 2448
3611, 1684, 2452, 1664
3612, 2337, 2449, 2452
3613, 1372, 1424, 2454
3614, 1703, 1868, 2453
3615, 1424, 402, 2455
3616, 2456, 2349, 2350
3617, 401, 400, 2456
3618, 1424, 2455, 2454
3619, 2349, 2456, 1347
3620, 2454, 2455, 2456
3621, 1870, 2457, 1706
3622, 822, 2457, 1871
3623, 2458, 1406, 2459
3624, 1880, 2458, 1714
3625, 2918, 2459, 1406
3626, 1353, 2922, 1327
3627, 2737, 2460, 884
3628, 2923, 2460, 2261
3629, 2461, 1444, 4116
3630, 2462, 2461, 1380
3631, 1850, 2462, 1705
3632, 2461, 2462, 1891
3633, 1450, 1935, 4314
3634, 1722, 1894, 2463
3635, 1707, 3317, 2924
3636, 1722, 2463, 2464
3637, 1610, 1896, 2465
3638, 2466, 2465, 1896
3639, 1723, 2466, 1896
3640, 3322, 2466, 1898
3641, 2741, 2467, 721
3642, 2926, 2467, 2263
3643, 2468, 1479, 4121
3644, 2469, 2468, 1395
3645, 1863, 2469, 1711
3646, 2468, 2469, 1908
3647, 2390, 2867, 1331
3648, 2868, 1739, 2472
3649, 2471, 1735, 2472
3650, 2087, 2471, 1483
3651, 2927, 2472, 1735
3652, 2470, 2867, 2868
3653, 1847, 473, 2474
3654, 2356, 2473, 1914
3655, 1914, 2474, 472
3656, 1847, 2474, 2473
3657, 1325, 1681, 2475
3658, 2475, 1681, 2386
3659, 1325, 1915, 2476
3660, 2477, 2476, 1915
3661, 1490, 2477, 1915
3662, 2477, 1404, 4281
3663, 2479, 2478, 1324
3664, 2480, 2478, 1923
3665, 1594, 2479, 1324
3666, 2481, 2479, 1401
3667, 2480, 1923, 4288
3668, 4315, 1348, 2258
3669, 1487, 2481, 1401
3670, 2478, 2481, 1923
3671, 1515, 2482, 1748
3672, 2398, 2482, 1427
3673, 2484, 2483, 1451
3674, 1759, 2483, 1935
3675, 2484, 1451, 2094
3676, 2484, 1936, 1383
3677, 1389, 2752, 2486
3678, 1940, 2485, 1466
3679, 2486, 2274, 2487
3680, 2485, 2486, 2490
3681, 2929, 2487, 2274
3682, 1943, 2487, 1390
3683, 1766, 2488, 1765
3684, 4264, 2488, 1414
3685, 2490, 2489, 1466
3686, 2487, 1943, 2489
3687, 2485, 2490, 1466
3688, 2487, 2490, 2486
3689, 1390, 4120, 2492
3690, 2166, 1768, 2493
3691, 1467, 2275, 2492
3692, 2934, 2753, 2935
3693, 2492, 2934, 2491
3694, 2275, 2934, 2492
3695, 2495, 2494, 1393
3696, 1473, 2937, 2496
3697, 2936, 2495, 1393
3698, 21, 20, 2495
3699, 2938, 2496, 1392
3700, 2496, 2938, 2939
3701, 1457, 2497, 1763
3702, 1949, 1948, 2497
3703, 1616, 2500, 2499
3704, 1780, 1958, 2498
3705, 1779, 2502, 2499
3706, 1780, 2498, 2499
3707, 2554, 2500, 1616
3708, 1779, 2500, 2096
3709, 1779, 2503, 2502
3710, 2503, 1782, 2504
3711, 2503, 1779, 1964
3712, 2501, 2940, 4381
3713, 1782, 2097, 2504
3714, 2502, 2503, 2501
3715, 2505, 2504, 1617
3716, 2501, 2503, 2504
3717, 2505, 1617, 2506
3718, 2505, 1781, 2940
3719, 2506, 1617, 2971
3720, 1960, 2506, 1784
3721, 2941, 1971, 1786
3722, 2941, 2943, 2507
3723, 2574, 2944, 1619
3724, 1789, 1978, 2508
3725, 2946, 2509, 1791
3726, 2509, 1620, 2949
3727, 2945, 4307, 4308
3728, 2514, 1622, 1797
3729, 1793, 2513, 2512
3730, 1792, 2511, 1620
3731, 2146, 2173, 2948
3732, 1620, 2511, 2512
3733, 1987, 2513, 1793
3734, 2146, 2513, 2100
3735, 2947, 1985, 1792
3736, 4308, 2514, 2510
3737, 2174, 2515, 1624
3738, 1799, 1995, 2515
3739, 2520, 1627, 2518
3740, 1809, 2005, 2516
3741, 2011, 2519, 1808
3742, 1627, 3318, 3319
3743, 2520, 2518, 2107
3744, 1627, 2517, 2518
3745, 2011, 1810, 4317
3746, 2107, 2518, 2519
3747, 2156, 2520, 2107
3748, 2516, 2520, 1809
3749, 2524, 2521, 2015
3750, 2524, 2525, 2521
3751, 2015, 1157, 2950
3752, 2522, 2526, 2525
3753, 2419, 2523, 2318
3754, 1628, 2521, 2523
3755, 2950, 2524, 2015
3756, 2524, 2522, 2525
3757, 2318, 2523, 2525
3758, 2525, 2523, 2521
3759, 2526, 2228, 2528
3760, 2318, 2525, 2526
3761, 1628, 2523, 2527
3762, 2419, 2527, 2523
3763, 3501, 2228, 3500
3764, 514, 513, 2952
3765, 2529, 1814, 2897
3766, 2530, 2529, 1630
3767, 1630, 3257, 2531
3768, 1813, 2018, 2530
3769, 4319, 4318, 2532
3770, 2533, 2532, 4325
3771, 4320, 1214, 4321
3772, 2532, 4320, 4323
3773, 2322, 2811, 4319
3774, 4325, 2532, 4323
3775, 2925, 2534, 1817
3776, 2534, 1631, 2559
3777, 2535, 2965, 2956
3778, 2023, 2957, 1818
3779, 1821, 2030, 2536
3780, 2536, 2030, 2188
3781, 2542, 1635, 2541
3782, 1827, 2039, 2537
3783, 2136, 2958, 1730
3784, 1824, 2538, 7693
3785, 7691, 2958, 2137
3786, 2539, 7690, 7692
3787, 2543, 2544, 2045
3788, 1635, 7692, 7694
3789, 2542, 2116, 1827
3790, 1635, 2540, 2541
3791, 1635, 2542, 2537
3792, 2116, 2542, 2541
3793, 1829, 1636, 2543
3794, 1636, 2116, 2544
3795, 1826, 2544, 2541
3796, 1636, 2544, 2543
3797, 3581, 2050, 668
3798, 1828, 2903, 2425
3799, 2546, 2961, 3635
3800, 3911, 2341, 3955
3801, 2447, 2841, 1852
3802, 2963, 2547, 1642
3803, 2382, 2548, 1388
3804, 1858, 2548, 2064
3805, 2550, 2549, 2088
3806, 1606, 2549, 1548
3807, 1925, 2550, 2088
3808, 1548, 2550, 1611
3809, 1367, 2088, 2551
3810, 2549, 2551, 2088
3811, 1956, 2552, 351
3812, 2553, 2552, 2096
3813, 2554, 2096, 2500
3814, 2553, 2096, 2554
3815, 1616, 2555, 2554
3816, 2313, 3250, 2555
3817, 1616, 2498, 2556
3818, 2793, 3250, 2792
3819, 1958, 994, 3247
3820, 1616, 2556, 2555
3821, 2964, 2557, 2101
3822, 2600, 2557, 2191
3823, 4511, 832, 833
3824, 833, 834, 3109
3825, 1631, 2108, 2559
3826, 2108, 1819, 2965
3827, 2561, 2560, 605
3828, 2026, 2560, 2109
3829, 2966, 2564, 603
3830, 2109, 2561, 2562
3831, 2562, 2561, 2564
3832, 2563, 2900, 2562
3833, 604, 2564, 2561
3834, 2966, 603, 602
3835, 603, 2564, 604
3836, 2562, 2564, 2563
3837, 2903, 2565, 1636
3838, 2047, 2565, 1828
3839, 634, 2566, 635
3840, 2967, 2121, 2347
3841, 1967, 2970, 1715
3842, 3335, 3333, 2969
3843, 2568, 1729, 1901
3844, 2083, 7690, 7691
3845, 2880, 2569, 445
3846, 2569, 2416, 2942
3847, 1787, 1973, 2573
3848, 1618, 2143, 2570
3849, 2142, 1786, 2571
3850, 2975, 2571, 1786
3851, 1093, 2572, 1971
3852, 1972, 2572, 1094
3853, 2944, 2573, 1789
3854, 2570, 2573, 2144
3855, 2169, 2574, 1619
3856, 1788, 2145, 2574
3857, 2575, 1621, 2576
3858, 2173, 2575, 1795
3859, 2577, 2576, 1621
3860, 2171, 2578, 2140
3861, 4328, 1796, 4329
3862, 4830, 2765, 2766
3863, 1753, 2576, 2578
3864, 2577, 2578, 2576
3865, 3701, 4507, 3489
3866, 3109, 4511, 833
3867, 2581, 2580, 2154
3868, 2580, 2581, 2582
3869, 2197, 4509, 2154
3870, 2581, 2154, 4509
3871, 2579, 3701, 3336
3872, 195, 194, 2582
3873, 2583, 2035, 2588
3874, 2162, 2583, 2161
3875, 1823, 2161, 2584
3876, 2587, 2586, 2584
3877, 2588, 2587, 2161
3878, 2585, 2588, 2590
3879, 2585, 2980, 2589
3880, 2592, 766, 2038
3881, 2161, 2583, 2588
3882, 2585, 2586, 2587
3883, 2977, 2035, 128
3884, 2588, 2977, 2590
3885, 2589, 2240, 3637
3886, 2592, 2589, 2593
3887, 127, 126, 2978
3888, 126, 125, 2979
3889, 3636, 2982, 763
3890, 2983, 764, 765
3891, 766, 2592, 765
3892, 2586, 2589, 2592
3893, 2589, 2591, 2593
3894, 2981, 2983, 2591
3895, 1930, 2594, 2091
3896, 2139, 2594, 2090
3897, 2175, 2595, 1380
3898, 2597, 2595, 2176
3899, 2557, 2596, 2101
3900, 876, 2596, 875
3901, 1705, 2597, 877
3902, 2596, 2597, 2176
3903, 1804, 2598, 1997
3904, 2195, 2598, 2182
3905, 4362, 2599, 1624
3906, 4332, 4331, 872
3907, 2557, 2600, 874
3908, 2984, 2600, 2191
3909, 2153, 2601, 2187
3910, 2106, 2601, 1805
3911, 3344, 389, 2985
3912, 3341, 3346, 2602
3913, 2879, 408, 407
3914, 3350, 3349, 2603
3915, 4338, 1011, 4339
3916, 3361, 2990, 2604
3917, 2604, 4338, 4341
3918, 4340, 4345, 4347
3919, 2997, 3365, 2996
3920, 4342, 2992, 2606
3921, 3659, 2990, 3363
3922, 3376, 2995, 2607
3923, 3375, 3373, 2611
3924, 2201, 3362, 3361
3925, 2616, 2205, 3372
3926, 2609, 3005, 3002
3927, 3002, 2203, 3001
3928, 3002, 2610, 3660
3929, 3000, 2998, 2611
3930, 3001, 3375, 2611
3931, 2612, 3007, 2617
3932, 3381, 3378, 2613
3933, 2619, 3383, 3382
3934, 3010, 3008, 3378
3935, 3011, 3012, 2614
3936, 2618, 2614, 3014
3937, 2615, 1000, 3007
3938, 2615, 3010, 3011
3939, 3380, 3008, 3379
3940, 3003, 3004, 3372
3941, 3367, 3366, 3368
3942, 3013, 2617, 2205
3943, 2618, 998, 3009
3944, 2618, 3014, 3384
3945, 2792, 3618, 3248
3946, 3383, 3014, 3012
3947, 1078, 3021, 3023
3948, 4386, 4384, 4385
3949, 3392, 430, 429
3950, 3025, 4386, 4388
3951, 1079, 1080, 3022
3952, 4387, 3394, 4385
3953, 432, 431, 3395
3954, 3396, 2209, 3030
3955, 3831, 1082, 1083
3956, 3034, 2625, 3031
3957, 3030, 2209, 3031
3958, 3030, 3031, 2625
3959, 433, 3024, 3398
3960, 2626, 3396, 3030
3961, 2211, 3410, 2630
3962, 3032, 3402, 3672
3963, 436, 3027, 3033
3964, 3035, 2211, 3405
3965, 3407, 2628, 3406
3966, 2630, 3045, 3412
3967, 3418, 2633, 3045
3968, 2211, 3035, 3410
3969, 3043, 2943, 3042
3970, 2632, 3041, 2881
3971, 2212, 3040, 3041
3972, 3041, 2632, 3417
3973, 2633, 1089, 3037
3974, 3413, 3036, 3412
3975, 3678, 2213, 3051
3976, 3420, 2642, 278
3977, 273, 3055, 274
3978, 2639, 3053, 3432
3979, 2635, 3425, 3426
3980, 2637, 3425, 3423
3981, 3052, 916, 917
3982, 3422, 3423, 2635
3983, 3424, 3422, 2638
3984, 3055, 3422, 3049
3985, 4551, 3835, 3837
3986, 3058, 3682, 3435
3987, 923, 3065, 3067
3988, 3438, 3437, 2640
3989, 2215, 2640, 3442
3990, 3439, 3069, 2643
3991, 277, 3048, 3420
3992, 3061, 2642, 2215
3993, 280, 3063, 3439
3994, 3445, 2645, 3072
3995, 3068, 2216, 3069
3996, 3061, 3066, 2641
3997, 3071, 3072, 926
3998, 3068, 2645, 2216
3999, 4852, 270, 269
4000, 4551, 3434, 4552
4001, 3626, 3275, 2647
4002, 3444, 3072, 2647
4003, 3444, 3275, 2218
4004, 2795, 2314, 2794
4005, 2891, 249, 248
4006, 3448, 3447, 2649
4007, 230, 229, 4707
4008, 4336, 4337, 4832
4009, 3079, 1995, 233
4010, 3082, 4333, 2651
4011, 2652, 231, 3077
4012, 2652, 3080, 3082
4013, 3084, 846, 847
4014, 3463, 3085, 2653
4015, 2221, 3459, 3462
4016, 3695, 3693, 2223
4017, 2662, 2224, 3474
4018, 2655, 3099, 3096
4019, 3096, 2222, 3095
4020, 3096, 2656, 3467
4021, 3085, 844, 845
4022, 4389, 2221, 3462
4023, 2658, 3100, 3101
4024, 2657, 3464, 3101
4025, 3094, 3089, 2659
4026, 2659, 3095, 3100
4027, 3466, 209, 208
4028, 2660, 4881, 4363
4029, 3693, 3695, 3868
4030, 3459, 2653, 3084
4031, 3105, 3479, 2225
4032, 3097, 3098, 3474
4033, 3469, 3468, 3470
4034, 3475, 2663, 2224
4035, 3484, 2666, 3108
4036, 3478, 3479, 3105
4037, 2663, 3476, 838
4038, 3486, 2225, 2664
4039, 3700, 3112, 3488
4040, 3699, 3486, 3108
4041, 2666, 3488, 3487
4042, 3489, 4507, 4510
4043, 2665, 3698, 836
4044, 2668, 3482, 3111
4045, 4398, 1165, 1166
4046, 3496, 3493, 2669
4047, 2227, 3493, 3496
4048, 4399, 3115, 4398
4049, 518, 3121, 3122
4050, 2671, 3504, 3117
4051, 3119, 1159, 1160
4052, 2672, 3500, 3120
4053, 3490, 3113, 3491
4054, 3326, 2229, 3327
4055, 3495, 3125, 3113
4056, 3503, 2671, 519
4057, 515, 2954, 2955
4058, 2675, 3327, 3124
4059, 3127, 1169, 1170
4060, 3505, 3516, 2676
4061, 2679, 3704, 3705
4062, 3131, 3508, 3511
4063, 3509, 3505, 3507
4064, 524, 3518, 525
4065, 3133, 1173, 3519
4066, 2231, 3511, 3510
4067, 2679, 3133, 3707
4068, 3709, 3871, 3520
4069, 2681, 3513, 3514
4070, 3134, 2681, 4404
4071, 3525, 547, 3137
4072, 3280, 2896, 2682
4073, 4320, 4322, 2233
4074, 5159, 4737, 4364
4075, 600, 3526, 601
4076, 3139, 3140, 2684
4077, 3332, 2234, 3331
4078, 3725, 3727, 3723
4079, 1242, 1243, 3143
4080, 2688, 3144, 3531
4081, 3532, 591, 590
4082, 3540, 2239, 3162
4083, 2687, 3146, 4406
4084, 1238, 1239, 3149
4085, 4857, 588, 587
4086, 4407, 2688, 4408
4087, 2693, 3536, 597
4088, 3526, 3527, 3140
4089, 2237, 3720, 3534
4090, 2694, 2691, 3154
4091, 3141, 3725, 3722
4092, 2692, 3721, 3153
4093, 595, 3159, 4515
4094, 3152, 3537, 3154
4095, 2694, 1248, 3151
4096, 2238, 3155, 3538
4097, 4417, 4416, 1245
4098, 3538, 1246, 1247
4099, 3162, 2239, 3163
4100, 4416, 4418, 4419
4101, 592, 3145, 3542
4102, 2697, 3540, 3162
4103, 3553, 3169, 3170
4104, 3340, 3339, 3638
4105, 3338, 763, 2982
4106, 2699, 3340, 3546
4107, 121, 3168, 3549
4108, 2700, 3551, 3552
4109, 760, 761, 3548
4110, 2702, 3569, 3555
4111, 119, 2706, 3570
4112, 3547, 4420, 2242
4113, 3173, 755, 756
4114, 3559, 3174, 2703
4115, 3562, 116, 115
4116, 3557, 2243, 3559
4117, 3738, 2707, 3574
4118, 3561, 753, 3174
4119, 117, 3177, 3564
4120, 3171, 3938, 3937
4121, 3571, 112, 111
4122, 3736, 2705, 3734
4123, 3184, 750, 3572
4124, 4423, 4424, 2245
4125, 3186, 670, 671
4126, 3576, 3582, 2709
4127, 3189, 36, 35
4128, 2246, 3576, 3580
4129, 3588, 673, 674
4130, 3590, 2715, 3194
4131, 3197, 3196, 2247
4132, 3740, 3589, 3590
4133, 3190, 38, 37
4134, 3196, 2713, 2247
4135, 676, 4296, 3594
4136, 3590, 3591, 3740
4137, 2715, 3592, 3194
4138, 3198, 3595, 3593
4139, 2716, 3201, 3202
4140, 3206, 3939, 3747
4141, 3597, 3596, 42
4142, 3201, 2717, 2249
4143, 3204, 680, 681
4144, 2716, 3202, 3882
4145, 3742, 3599, 3747
4146, 3745, 3610, 2722
4147, 3745, 3207, 3746
4148, 3742, 3204, 3599
4149, 3210, 3604, 3211
4150, 3211, 3751, 2721
4151, 2251, 3603, 3608
4152, 2723, 3213, 4526
4153, 3606, 50, 49
4154, 4861, 4367, 4860
4155, 3217, 4446, 2724
4156, 3218, 4447, 4455
4157, 3216, 2725, 89
4158, 2725, 3612, 3217
4159, 4875, 71, 70
4160, 707, 4375, 4471
4161, 1831, 74, 3221
4162, 4371, 2822, 4370
4163, 2728, 72, 3219
4164, 2728, 3222, 3224
4165, 1340, 2729, 1674
4166, 2257, 1341, 2729
4167, 4315, 2730, 1349
4168, 974, 2730, 2258
4169, 2732, 2731, 1039
4170, 2736, 2731, 2260
4171, 1041, 2733, 1040
4172, 2779, 3225, 1371
4173, 1843, 1659, 2733
4174, 2734, 2733, 1659
4175, 2735, 2734, 1659
4176, 1371, 2734, 2268
4177, 2058, 2735, 1659
4178, 1400, 2735, 1323
4179, 2736, 2260, 2779
4180, 2776, 2736, 2307
4181, 2738, 2737, 885
4182, 2460, 2737, 2261
4183, 2800, 2738, 886
4184, 2799, 2315, 3252
4185, 2379, 2739, 1202
4186, 2740, 2739, 2262
4187, 2740, 2262, 2807
4188, 2804, 2740, 2319
4189, 2742, 2741, 722
4190, 2467, 2741, 2263
4191, 2819, 2742, 723
4192, 2818, 2324, 3258
4193, 2750, 2743, 1359
4194, 2390, 2743, 2266
4195, 2745, 2744, 1330
4196, 3226, 2267, 2396
4197, 2298, 2745, 1330
4198, 2745, 1408, 2747
4199, 2746, 1345, 3227
4200, 1356, 2744, 2746
4201, 1745, 2747, 1408
4202, 2267, 2747, 2396
4203, 4298, 2748, 1434
4204, 2372, 2748, 2270
4205, 2750, 2749, 1420
4206, 1141, 2749, 1140
4207, 2266, 2750, 1420
4208, 1139, 2750, 1359
4209, 2751, 3229, 2873
4210, 1539, 1575, 3231
4211, 2931, 2752, 1465
4212, 2486, 2752, 2274
4213, 2753, 1391, 2935
4214, 4303, 2753, 2275
4215, 2755, 2754, 713
4216, 2756, 2754, 2276
4217, 714, 2755, 713
4218, 2755, 1711, 2757
4219, 3234, 3233, 2276
4220, 2327, 2821, 3236
4221, 2469, 2757, 1711
4222, 2757, 1395, 3235
4223, 3233, 3234, 2758
4224, 75, 2760, 76
4225, 3234, 2759, 2758
4226, 1478, 77, 2759
4227, 1831, 2760, 75
4228, 2759, 2760, 2758
4229, 2762, 2761, 1374
4230, 1488, 1584, 3238
4231, 2762, 1374, 1567
4232, 2762, 2305, 2775
4233, 2764, 2763, 1436
4234, 2404, 2763, 1377
4235, 2171, 2764, 1436
4236, 2764, 2140, 2765
4237, 2766, 2765, 2140
4238, 2765, 1437, 2410
4239, 2578, 2766, 2140
4240, 4829, 4830, 4831
4241, 1525, 2767, 1438
4242, 1523, 2767, 2285
4243, 2094, 1451, 2768
4244, 1536, 2768, 1451
4245, 2494, 2769, 1393
4246, 1474, 2769, 1945
4247, 1475, 2770, 2137
4248, 2294, 2770, 2295
4249, 2387, 2771, 1409
4250, 2297, 2771, 2298
4251, 1495, 2772, 1738
4252, 2745, 2772, 1408
4253, 2773, 1512, 2299
4254, 3239, 2773, 2300
4255, 1412, 2774, 1687
4256, 2303, 2774, 2302
4257, 1585, 2775, 1608
4258, 2775, 1488, 2761
4259, 2736, 2776, 1037
4260, 3241, 2776, 2307
4261, 4382, 2777, 1614
4262, 2199, 3343, 3787
4263, 1423, 395, 2780
4264, 2779, 2778, 2308
4265, 2308, 2781, 3242
4266, 2779, 2260, 3225
4267, 2309, 2780, 394
4268, 1423, 2780, 2778
4269, 3242, 1614, 2307
4270, 2309, 2781, 2308
4271, 2782, 1372, 2786
4272, 2310, 2311, 2783
4273, 403, 2783, 404
4274, 2310, 2783, 2782
4275, 2311, 2784, 1778
4276, 2784, 2310, 2785
4277, 2310, 2782, 2786
4278, 2787, 1049, 2788
4279, 1372, 3243, 2786
4280, 1048, 3244, 1047
4281, 2786, 2787, 2785
4282, 1048, 1049, 2787
4283, 2789, 2788, 1050
4284, 2787, 2788, 2312
4285, 4376, 1051, 1052
4286, 1615, 2876, 2875
4287, 3664, 3386, 997
4288, 2313, 2555, 2791
4289, 1958, 3247, 2556
4290, 2313, 2791, 2790
4291, 353, 3251, 354
4292, 3249, 3619, 3015
4293, 2555, 2793, 2554
4294, 2792, 3248, 3251
4295, 2795, 2794, 286
4296, 4309, 2314, 4307
4297, 3073, 2795, 285
4298, 3274, 2883, 2795
4299, 1379, 2923, 2797
4300, 2315, 2316, 2798
4301, 2738, 2797, 2261
4302, 2315, 2796, 2797
4303, 244, 2798, 245
4304, 2315, 2798, 2796
4305, 2316, 2799, 1798
4306, 2797, 3252, 2315
4307, 2801, 2800, 887
4308, 2738, 2800, 2317
4309, 4378, 888, 889
4310, 1623, 2888, 2887
4311, 2419, 2802, 511
4312, 2318, 2526, 2803
4313, 512, 2802, 2803
4314, 2803, 2802, 2318
4315, 2740, 2804, 1200
4316, 3255, 2804, 2319
4317, 2894, 1629, 2892
4318, 2894, 2420, 2823
4319, 1462, 554, 2808
4320, 2807, 2806, 2320
4321, 2320, 2809, 3256
4322, 1387, 2807, 2262
4323, 2321, 2808, 553
4324, 1462, 2808, 2806
4325, 3256, 1629, 2319
4326, 2321, 2809, 2320
4327, 3257, 2810, 2322
4328, 2812, 2810, 2323
4329, 1213, 4318, 4319
4330, 2810, 2811, 2322
4331, 2810, 2812, 1211
4332, 2813, 2812, 2323
4333, 2813, 2323, 2814
4334, 2813, 1708, 1209
4335, 2897, 2814, 2323
4336, 1388, 2814, 2422
4337, 1394, 2926, 2816
4338, 2324, 2325, 2817
4339, 2742, 2816, 2263
4340, 2324, 2815, 2816
4341, 85, 2817, 86
4342, 2324, 2817, 2815
4343, 2325, 2818, 1830
4344, 2816, 3258, 2324
4345, 2820, 2819, 724
4346, 2742, 2819, 2326
4347, 2820, 3261, 3621
4348, 3259, 2820, 3260
4349, 2821, 711, 3236
4350, 3263, 2821, 2327
4351, 3220, 4370, 1638
4352, 4371, 4370, 2727
4353, 3759, 2824, 3264
4354, 4517, 3628, 4627
4355, 1644, 4132, 1295
4356, 2332, 2824, 3759
4357, 1645, 4583, 3623
4358, 3765, 3306, 3300
4359, 2828, 4615, 3892
4360, 2333, 2826, 1643
4361, 3906, 3777, 3905
4362, 3283, 4584, 1650
4363, 3265, 3760, 4616
4364, 3761, 1643, 2826
4365, 3767, 2830, 3266
4366, 2426, 3908, 4609
4367, 1649, 4198, 1296
4368, 2338, 2830, 3767
4369, 1650, 4584, 3625
4370, 3773, 3291, 3285
4371, 2834, 4622, 3897
4372, 2339, 2832, 1648
4373, 2885, 3626, 2417
4374, 4917, 1321, 4919
4375, 3267, 3768, 4623
4376, 3769, 1648, 2832
4377, 3887, 2835, 1297
4378, 2340, 2840, 2836
4379, 2836, 1653, 3784
4380, 1654, 2835, 2836
4381, 1481, 163, 2838
4382, 2839, 1841, 2840
4383, 162, 161, 2839
4384, 1481, 2838, 2837
4385, 162, 2839, 2838
4386, 161, 1841, 2839
4387, 2840, 1653, 2836
4388, 2837, 2839, 2840
4389, 2450, 2916, 1840
4390, 3911, 3955, 3786
4391, 2842, 1302, 2860
4392, 2342, 2847, 2843
4393, 2843, 1656, 3905
4394, 1657, 2842, 2843
4395, 1484, 4, 2845
4396, 2846, 1842, 2847
4397, 3, 2, 2846
4398, 1484, 2845, 2844
4399, 3, 2846, 2845
4400, 2, 1842, 2846
4401, 2847, 1656, 2843
4402, 2844, 2846, 2847
4403, 7699, 3899, 7697
4404, 2345, 2415, 2876
4405, 3270, 1714, 2917
4406, 1052, 1053, 2848
4407, 2343, 3902, 1317
4408, 3352, 2200, 3353
4409, 2861, 1854, 2366
4410, 2348, 2851, 1674
4411, 3272, 2362, 1336
4412, 2852, 3272, 1415
4413, 1950, 2853, 1416
4414, 2854, 2853, 1774
4415, 2854, 1774, 2855
4416, 1696, 2854, 1346
4417, 1774, 2856, 2855
4418, 2859, 2858, 1322
4419, 1950, 2856, 1774
4420, 2857, 2856, 1485
4421, 1582, 2857, 1485
4422, 2857, 1399, 2858
4423, 2858, 1399, 3269
4424, 1319, 2860, 1302
4425, 2856, 2859, 2855
4426, 2857, 2858, 2859
4427, 2860, 1319, 4113
4428, 2842, 2860, 2858
4429, 1674, 2851, 2861
4430, 1854, 2861, 2851
4431, 2863, 2862, 1329
4432, 4379, 2862, 2367
4433, 1664, 2863, 1684
4434, 3270, 2863, 2446
4435, 2063, 2864, 1666
4436, 1333, 1725, 2864
4437, 4301, 2865, 2266
4438, 2389, 2865, 1411
4439, 2866, 1740, 1918
4440, 2867, 2866, 1410
4441, 2868, 2867, 1410
4442, 2470, 1331, 2867
4443, 1739, 2868, 1410
4444, 2470, 2868, 2472
4445, 2065, 2392, 2869
4446, 1695, 2869, 2392
4447, 1455, 2413, 2870
4448, 2870, 2413, 1452
4449, 2873, 2871, 1539
4450, 1384, 2413, 2871
4451, 1538, 2872, 1455
4452, 1539, 2872, 1604
4453, 2751, 2873, 1539
4454, 1384, 2873, 2273
4455, 1778, 2874, 406
4456, 2879, 2874, 2415
4457, 1615, 3245, 2876
4458, 2874, 2875, 2415
4459, 2878, 2789, 4376
4460, 2415, 2875, 2876
4461, 2848, 2849, 2877
4462, 2878, 2345, 2876
4463, 4376, 2789, 1051
4464, 2878, 2877, 2345
4465, 3271, 2879, 2415
4466, 2987, 2879, 2603
4467, 444, 443, 3273
4468, 2569, 2880, 2416
4469, 2416, 2880, 2881
4470, 2880, 444, 3273
4471, 2883, 1622, 2314
4472, 3446, 4377, 2648
4473, 2314, 2795, 2883
4474, 3274, 2795, 2648
4475, 2417, 2882, 2885
4476, 2885, 2883, 3274
4477, 2883, 2885, 2882
4478, 2884, 3275, 3626
4479, 1798, 2886, 247
4480, 2891, 2886, 2418
4481, 1623, 3253, 2888
4482, 2886, 2887, 2418
4483, 2890, 2801, 4378
4484, 2418, 2887, 2888
4485, 3279, 3278, 2889
4486, 2890, 3277, 2888
4487, 4378, 2801, 888
4488, 2890, 2889, 3277
4489, 3276, 2891, 2418
4490, 3075, 2891, 2649
4491, 2893, 1812, 551
4492, 2894, 2892, 2420
4493, 1812, 2893, 2892
4494, 551, 550, 2893
4495, 3280, 2823, 2896
4496, 1629, 2894, 2805
4497, 3718, 2232, 3524
4498, 2805, 3877, 1198
4499, 3136, 2896, 549
4500, 3280, 2682, 2232
4501, 2897, 2323, 1630
4502, 1814, 2422, 2897
4503, 2900, 1632, 2562
4504, 2900, 2234, 2899
4505, 2234, 3332, 2901
4506, 2424, 2898, 2899
4507, 2900, 2898, 1632
4508, 2234, 2900, 2563
4509, 2685, 2902, 2901
4510, 3281, 1254, 2424
4511, 2902, 2685, 3528
4512, 3281, 1253, 1254
4513, 1636, 2545, 2903
4514, 2903, 2545, 3584
4515, 3766, 3896, 3897
4516, 928, 2417, 3626
4517, 2427, 2905, 1832
4518, 321, 2905, 2429
4519, 1303, 2906, 2052
4520, 2430, 1833, 2906
4521, 2428, 2430, 2907
4522, 2431, 2907, 2430
4523, 2431, 2908, 1396
4524, 1293, 2908, 2432
4525, 3758, 3891, 3892
4526, 3895, 3896, 3282
4527, 2434, 2910, 1834
4528, 480, 2910, 2436
4529, 1313, 2911, 2055
4530, 2437, 1835, 2911
4531, 2435, 2437, 2912
4532, 2438, 2912, 2437
4533, 2438, 2913, 1398
4534, 1299, 2913, 2439
4535, 3780, 2433, 2547
4536, 2863, 2841, 2446
4537, 2443, 2914, 1839
4538, 2442, 2914, 2441
4539, 2449, 2916, 2448
4540, 3270, 2917, 2367
4541, 2458, 2917, 1714
4542, 2919, 1406, 1599
4543, 2918, 2920, 2921
4544, 2920, 2919, 1528
4545, 1406, 2919, 2918
4546, 3315, 2920, 1528
4547, 1407, 1557, 2921
4548, 1557, 1327, 2921
4549, 2918, 2921, 1327
4550, 4379, 1353, 1685
4551, 2918, 2922, 2459
4552, 2797, 2923, 2261
4553, 1889, 2923, 1379
4554, 1807, 3319, 3318
4555, 3320, 3321, 3318
4556, 3322, 3323, 2925
4557, 3324, 1817, 1955
4558, 2816, 2926, 2263
4559, 1906, 2926, 1394
4560, 1910, 2927, 1735
4561, 1358, 2927, 1911
4562, 1553, 2928, 1739
4563, 2471, 2928, 1483
4564, 2931, 2274, 2752
4565, 2932, 2929, 1469
4566, 143, 2930, 144
4567, 1469, 2929, 2930
4568, 1465, 145, 2931
4569, 144, 2931, 145
4570, 1469, 4119, 4120
4571, 1390, 2487, 2932
4572, 1944, 2933, 1768
4573, 1468, 2493, 2933
4574, 2934, 2275, 2753
4575, 2491, 2934, 2493
4576, 2166, 2493, 2935
4577, 2934, 2935, 2493
4578, 2292, 2936, 1393
4579, 4316, 2936, 1476
4580, 4380, 1473, 1550
4581, 1392, 2937, 4876
4582, 4266, 2938, 1392
4583, 2938, 1747, 1771
4584, 1769, 2939, 1472
4585, 2494, 2939, 1945
4586, 4381, 1959, 1780
4587, 2505, 2940, 2501
4588, 1786, 2942, 2941
4589, 2941, 2942, 2943
4590, 1786, 2142, 3325
4591, 2943, 2942, 2416
4592, 3044, 2416, 2881
4593, 3043, 3042, 2631
4594, 2944, 2144, 2573
4595, 1619, 2944, 2508
4596, 4307, 2945, 1982
4597, 2946, 2945, 2510
4598, 2947, 2946, 2510
4599, 2946, 1620, 2509
4600, 2514, 2947, 2510
4601, 1620, 2947, 1792
4602, 1794, 2509, 2949
4603, 2146, 2948, 2512
4604, 2512, 2949, 1620
4605, 1794, 2949, 2948
4606, 1157, 1158, 2950
4607, 2950, 1158, 3118
4608, 2672, 3119, 3500
4609, 2229, 3124, 3327
4610, 513, 2528, 2952
4611, 2953, 2952, 2528
4612, 3501, 2528, 2228
4613, 2953, 2951, 2954
4614, 2954, 2951, 2955
4615, 514, 2954, 515
4616, 2955, 2951, 3326
4617, 2955, 3327, 3328
4618, 1819, 2109, 2956
4619, 2562, 2956, 2109
4620, 2956, 2957, 2535
4621, 2898, 2957, 1632
4622, 7691, 2137, 2568
4623, 1730, 2958, 2539
4624, 3187, 2959, 2050
4625, 1636, 2959, 2545
4626, 2960, 2057, 3330
4627, 2961, 2960, 1316
4628, 795, 2961, 1316
4629, 3635, 2961, 796
4630, 6222, 6216, 6218
4631, 3994, 4028, 3960
4632, 2165, 2963, 1642
4633, 2189, 1301, 3330
4634, 2147, 2964, 2101
4635, 2191, 2964, 2174
4636, 2535, 2559, 2965
4637, 2108, 2965, 2559
4638, 3139, 2966, 602
4639, 3331, 2966, 2684
4640, 1836, 2967, 1641
4641, 2121, 2967, 2566
4642, 1884, 2968, 1716
4643, 2133, 2968, 1426
4644, 1784, 2506, 2971
4645, 2969, 2971, 2972
4646, 2971, 2970, 1784
4647, 2970, 2969, 3333
4648, 3334, 1617, 2097
4649, 2972, 2971, 3334
4650, 1783, 1965, 2974
4651, 2567, 3335, 1716
4652, 2972, 1783, 2974
4653, 344, 2973, 345
4654, 346, 2974, 1965
4655, 2972, 2974, 2973
4656, 2571, 2975, 2143
4657, 1971, 2975, 1786
4658, 2976, 3701, 3112
4659, 3111, 3112, 2667
4660, 2977, 127, 2978
4661, 2035, 2977, 2588
4662, 2979, 2978, 126
4663, 2977, 2978, 2590
4664, 3165, 2979, 125
4665, 3337, 2979, 2698
4666, 2585, 2590, 2980
4667, 2979, 2980, 2590
4668, 2589, 3637, 2591
4669, 3338, 2699, 762
4670, 3636, 2591, 3637
4671, 3546, 3340, 2241
4672, 2592, 2983, 765
4673, 2591, 2983, 2593
4674, 1624, 2984, 2191
4675, 2984, 2599, 4332
4676, 3647, 388, 3345
4677, 1033, 3642, 3640
4678, 3346, 3789, 2986
4679, 3347, 1614, 2781
4680, 409, 408, 2987
4681, 2879, 2987, 408
4682, 3352, 3649, 3350
4683, 4529, 3356, 3357
4684, 4338, 2989, 1011
4685, 2990, 2989, 2604
4686, 3361, 2604, 2201
4687, 3659, 1009, 3360
4688, 368, 2993, 2992
4689, 4357, 4359, 2605
4690, 2606, 3656, 4342
4691, 2605, 2991, 2992
4692, 2993, 367, 3365
4693, 2992, 2993, 2606
4694, 3659, 2994, 1008
4695, 2995, 2994, 2607
4696, 3376, 2202, 3661
4697, 2203, 3002, 3660
4698, 3373, 2996, 365
4699, 2997, 2996, 2608
4700, 3657, 3362, 2997
4701, 2993, 2997, 2606
4702, 2998, 362, 3004
4703, 2998, 2609, 3001
4704, 3364, 2999, 1005
4705, 3369, 2999, 2610
4706, 2998, 3000, 363
4707, 3373, 3000, 2611
4708, 3001, 2609, 3002
4709, 3375, 3001, 2203
4710, 2609, 2998, 3004
4711, 1003, 3369, 3367
4712, 3366, 2205, 2617
4713, 3367, 3003, 3366
4714, 362, 3371, 3004
4715, 3371, 2616, 3372
4716, 3004, 3005, 2609
4717, 3370, 3003, 3367
4718, 2995, 3662, 3364
4719, 3374, 3661, 2608
4720, 2617, 3007, 1001
4721, 3007, 2612, 3010
4722, 3008, 2612, 3013
4723, 2616, 3380, 3379
4724, 2615, 3009, 999
4725, 2618, 3009, 2614
4726, 3008, 3010, 2612
4727, 3011, 3010, 2204
4728, 3011, 2204, 3381
4729, 3009, 3011, 2614
4730, 3381, 2204, 3378
4731, 2619, 3617, 3383
4732, 3013, 2205, 3379
4733, 2612, 2617, 3013
4734, 3012, 3014, 2614
4735, 3384, 3014, 2206
4736, 3384, 3249, 3015
4737, 2790, 3385, 2313
4738, 3618, 3016, 356
4739, 3382, 3016, 2619
4740, 2620, 3388, 3017
4741, 3390, 3017, 3388
4742, 3023, 3018, 1077
4743, 3017, 3018, 2620
4744, 3019, 430, 3392
4745, 3025, 3019, 2621
4746, 3824, 3823, 3922
4747, 1074, 3665, 3818
4748, 3022, 3021, 1079
4749, 3023, 3021, 2622
4750, 1080, 1081, 3393
4751, 3396, 3401, 2209
4752, 3394, 3023, 2622
4753, 3018, 3023, 2620
4754, 3024, 432, 3395
4755, 3398, 3024, 2623
4756, 3025, 3395, 3019
4757, 2621, 3668, 4383
4758, 3026, 1082, 3831
4759, 3393, 3026, 2624
4760, 3027, 435, 3028
4761, 2625, 3034, 3033
4762, 3397, 3028, 434
4763, 3027, 3028, 2626
4764, 3399, 3670, 3400
4765, 3399, 2208, 3670
4766, 2209, 3669, 3031
4767, 3027, 3030, 2625
4768, 3026, 3831, 2624
4769, 3404, 3403, 2628
4770, 3674, 3673, 1083
4771, 3402, 1084, 2627
4772, 3033, 3032, 3403
4773, 436, 3033, 3404
4774, 3673, 3034, 3031
4775, 3033, 3034, 3032
4776, 3672, 3408, 2210
4777, 3409, 3408, 2627
4778, 3416, 3417, 3039
4779, 440, 3414, 441
4780, 3037, 1090, 3043
4781, 2633, 3037, 2631
4782, 3038, 442, 3415
4783, 2881, 3038, 2632
4784, 3039, 3415, 3414
4785, 3416, 3039, 3036
4786, 3040, 2631, 3041
4787, 3413, 3040, 2212
4788, 2631, 3042, 3041
4789, 3042, 3044, 3041
4790, 2631, 3037, 3043
4791, 3044, 3042, 2943
4792, 1090, 1091, 3043
4793, 2507, 3043, 1091
4794, 2416, 3044, 2943
4795, 3041, 3044, 2881
4796, 2633, 3040, 3413
4797, 3412, 3411, 2211
4798, 3046, 276, 3419
4799, 3048, 3046, 2634
4800, 3047, 3419, 3049
4801, 3047, 3049, 3428
4802, 3833, 3678, 3677
4803, 3420, 3421, 2642
4804, 3049, 274, 3055
4805, 3049, 2635, 3428
4806, 3050, 918, 3429
4807, 3052, 3050, 2636
4808, 3430, 919, 3675
4809, 3427, 3051, 2213
4810, 3426, 3425, 3052
4811, 3054, 3052, 2637
4812, 3432, 3053, 2637
4813, 3057, 3053, 2639
4814, 3052, 3054, 916
4815, 3053, 3054, 2637
4816, 3055, 273, 3433
4817, 3055, 2638, 3422
4818, 3679, 272, 271
4819, 3434, 3056, 3433
4820, 3057, 914, 3431
4821, 3058, 3057, 2639
4822, 3834, 3058, 2639
4823, 3436, 3841, 3681
4824, 2642, 3421, 2215
4825, 2634, 3677, 3832
4826, 2642, 3060, 279
4827, 3060, 2641, 3685
4828, 3061, 2215, 3442
4829, 3060, 3061, 2641
4830, 282, 281, 3062
4831, 3439, 3062, 281
4832, 3060, 3063, 280
4833, 3443, 3066, 3067
4834, 3446, 2648, 3074
4835, 3441, 283, 282
4836, 2645, 3065, 924
4837, 2644, 3443, 3067
4838, 3066, 3442, 922
4839, 2644, 3069, 3443
4840, 2644, 3067, 3065
4841, 922, 3067, 3066
4842, 2216, 2643, 3069
4843, 2644, 2645, 3068
4844, 3069, 3685, 3443
4845, 2644, 3068, 3069
4846, 3070, 270, 4852
4847, 3434, 3070, 2646
4848, 3626, 3071, 927
4849, 3072, 3071, 2647
4850, 926, 3072, 925
4851, 3275, 3444, 2647
4852, 3074, 3073, 284
4853, 2795, 3073, 2648
4854, 3684, 3074, 283
4855, 3074, 3684, 3446
4856, 250, 249, 3075
4857, 2891, 3075, 249
4858, 3450, 3686, 3448
4859, 4557, 3454, 3455
4860, 4361, 3077, 230
4861, 2652, 3077, 2650
4862, 3079, 3078, 1995
4863, 4362, 3078, 2651
4864, 232, 3079, 233
4865, 3078, 3079, 2651
4866, 3081, 3080, 2650
4867, 3082, 3080, 2220
4868, 4361, 2650, 3077
4869, 4336, 871, 4334
4870, 4333, 3082, 2220
4871, 3458, 2651, 3079
4872, 3084, 3083, 846
4873, 3085, 3083, 2653
4874, 3103, 3084, 847
4875, 2653, 3459, 2221
4876, 3463, 2653, 2221
4877, 3092, 3085, 2657
4878, 3086, 207, 3465
4879, 3086, 2654, 3696
4880, 3087, 3465, 3093
4881, 3697, 3087, 3093
4882, 3460, 2661, 3461
4883, 3102, 3088, 2660
4884, 3089, 203, 3098
4885, 3089, 2655, 3095
4886, 3091, 3090, 842
4887, 3471, 3090, 2656
4888, 3092, 3091, 843
4889, 3091, 2657, 3101
4890, 3085, 3092, 844
4891, 3091, 3092, 2657
4892, 3093, 205, 3094
4893, 3093, 2658, 3697
4894, 3089, 3094, 204
4895, 3093, 3094, 2659
4896, 3095, 2655, 3096
4897, 3100, 3095, 2222
4898, 2655, 3089, 3098
4899, 840, 3471, 3469
4900, 3468, 2224, 2663
4901, 3469, 3097, 3468
4902, 203, 3473, 3098
4903, 3473, 2662, 3474
4904, 3098, 3099, 2655
4905, 3472, 3097, 3469
4906, 3101, 3100, 2222
4907, 3093, 3100, 2658
4908, 3101, 2222, 3467
4909, 2657, 3463, 3464
4910, 3102, 209, 3466
4911, 4363, 3102, 2660
4912, 4390, 848, 849
4913, 3103, 2661, 3460
4914, 4391, 849, 4392
4915, 3694, 2223, 3693
4916, 2224, 2662, 3478
4917, 3477, 2225, 2665
4918, 3111, 3482, 2226
4919, 2668, 3483, 3482
4920, 3488, 3107, 197
4921, 3484, 3107, 2666
4922, 3485, 2666, 3487
4923, 2225, 3699, 3481
4924, 3109, 834, 3110
4925, 2667, 4512, 4511
4926, 3483, 3110, 835
4927, 3109, 3110, 2668
4928, 3111, 2226, 3487
4929, 2667, 2668, 3111
4930, 3487, 2226, 3485
4931, 3336, 3701, 2976
4932, 2671, 3503, 3504
4933, 3124, 3125, 2674
4934, 2671, 3114, 520
4935, 3114, 2670, 4402
4936, 2669, 4398, 3496
4937, 1167, 3515, 4400
4938, 4401, 4403, 4399
4939, 2230, 3509, 3498
4940, 3117, 2227, 3496
4941, 3114, 3117, 2670
4942, 3119, 3118, 1159
4943, 2950, 3118, 2672
4944, 1160, 1161, 3499
4945, 3500, 2228, 3120
4946, 2526, 3120, 2228
4947, 2950, 3120, 2522
4948, 3121, 517, 3123
4949, 3122, 3121, 2674
4950, 3494, 3122, 3495
4951, 3495, 3122, 2674
4952, 517, 516, 3123
4953, 3328, 3123, 516
4954, 2673, 3492, 2229
4955, 2674, 2675, 3124
4956, 2229, 3125, 3124
4957, 3492, 1162, 3491
4958, 3127, 3126, 1169
4959, 3515, 3126, 2676
4960, 3129, 3127, 1170
4961, 3505, 2230, 3516
4962, 4402, 3517, 3116
4963, 4402, 4401, 3517
4964, 1171, 1172, 3705
4965, 3129, 2677, 3506
4966, 3130, 523, 3702
4967, 3131, 3130, 2678
4968, 3508, 2678, 3507
4969, 2678, 3508, 3131
4970, 3133, 3132, 1173
4971, 3705, 3132, 2679
4972, 3708, 3709, 3520
4973, 4404, 3514, 2680
4974, 3521, 3135, 3134
4975, 4883, 4405, 4882
4976, 3511, 2231, 3513
4977, 3134, 3135, 2681
4978, 549, 548, 3136
4979, 3525, 3136, 548
4980, 3714, 4525, 546
4981, 3522, 3137, 3713
4982, 4326, 3138, 567
4983, 4364, 3138, 2683
4984, 3139, 601, 3526
4985, 2966, 3139, 2684
4986, 600, 3719, 3527
4987, 3722, 3721, 2692
4988, 2685, 3332, 3726
4989, 3140, 3527, 3723
4990, 3143, 3142, 1242
4991, 3144, 3142, 2686
4992, 1243, 1244, 3530
4993, 3540, 3545, 2239
4994, 3531, 3144, 2686
4995, 3147, 3144, 2688
4996, 3145, 591, 3532
4997, 3542, 3145, 2687
4998, 590, 589, 3729
4999, 4406, 2235, 3543
5000, 3144, 3147, 1240
5001, 2688, 3148, 3149
5002, 2688, 4407, 4410
5003, 4410, 4411, 3148
5004, 2688, 3149, 3147
5005, 1238, 3149, 3148
5006, 3150, 588, 4857
5007, 3533, 3150, 2689
5008, 2692, 3151, 1249
5009, 2694, 3151, 2691
5010, 3535, 2690, 598
5011, 3536, 2693, 3537
5012, 3153, 2237, 3534
5013, 3151, 3153, 2691
5014, 3152, 3154, 2691
5015, 2238, 2694, 3154
5016, 3155, 2238, 3539
5017, 3163, 2696, 3162
5018, 4416, 3156, 1245
5019, 3530, 3156, 2695
5020, 3157, 594, 3160
5021, 2696, 3164, 3159
5022, 595, 4515, 596
5023, 2696, 3163, 3164
5024, 2696, 3159, 3157
5025, 3158, 3539, 4515
5026, 3541, 3160, 593
5027, 3157, 3160, 2697
5028, 3543, 3730, 3544
5029, 3543, 2235, 3730
5030, 2239, 3728, 3163
5031, 3157, 3162, 2696
5032, 3156, 4416, 2695
5033, 3164, 3158, 3159
5034, 4419, 3163, 4416
5035, 3158, 3164, 4419
5036, 3170, 3165, 124
5037, 2979, 3165, 2698
5038, 2700, 3549, 3551
5039, 3547, 2242, 3554
5040, 123, 122, 3167
5041, 3549, 3167, 122
5042, 2702, 4420, 3550
5043, 3551, 2241, 3552
5044, 3552, 3340, 3169
5045, 2698, 3165, 3170
5046, 123, 3170, 124
5047, 3170, 3169, 3638
5048, 3936, 3937, 3879
5049, 3556, 758, 759
5050, 3173, 3172, 755
5051, 3174, 3172, 2703
5052, 3173, 3732, 3558
5053, 3558, 3557, 3173
5054, 2703, 3557, 3559
5055, 3561, 3735, 3881
5056, 3175, 116, 3562
5057, 3177, 3175, 2704
5058, 3176, 3562, 3178
5059, 3560, 3559, 2243
5060, 2243, 3557, 3733
5061, 2244, 2706, 3565
5062, 113, 3181, 3738
5063, 3734, 3560, 3176
5064, 3736, 3575, 2705
5065, 3184, 2708, 3183
5066, 2706, 3938, 3570
5067, 3171, 3554, 3555
5068, 3181, 112, 3571
5069, 3181, 2707, 3738
5070, 4102, 4428, 4434
5071, 748, 4425, 4426
5072, 3184, 3183, 750
5073, 4425, 2708, 4424
5074, 3184, 3572, 3568
5075, 3574, 3573, 3575
5076, 3186, 3185, 670
5077, 3581, 3185, 2709
5078, 3578, 3739, 672
5079, 3576, 2246, 3582
5080, 3584, 3585, 3586
5081, 3187, 3585, 2959
5082, 3189, 3188, 36
5083, 3190, 3188, 2710
5084, 35, 3583, 3189
5085, 3587, 3189, 3586
5086, 3577, 3580, 3576
5087, 3195, 3190, 2713
5088, 3191, 673, 3588
5089, 3578, 3191, 2711
5090, 2714, 3192, 3588
5091, 2248, 3589, 2714
5092, 3193, 39, 3195
5093, 3194, 3193, 2712
5094, 3197, 3591, 2712
5095, 41, 3592, 2715
5096, 3190, 3195, 38
5097, 3193, 3195, 2713
5098, 3197, 2247, 2711
5099, 2712, 2713, 3196
5100, 3740, 2711, 3192
5101, 2712, 3196, 3197
5102, 3593, 2714, 3594
5103, 3594, 4296, 3198
5104, 2717, 3199, 44
5105, 3206, 3199, 2716
5106, 3595, 2715, 2248
5107, 3200, 3198, 4295
5108, 3201, 2249, 4294
5109, 3199, 3201, 2716
5110, 4291, 4293, 4294
5111, 678, 679, 3598
5112, 3204, 3203, 680
5113, 3598, 3203, 2718
5114, 3208, 3204, 681
5115, 3204, 2720, 3599
5116, 3205, 46, 3600
5117, 3207, 3205, 2719
5118, 3206, 3600, 3199
5119, 3882, 3939, 2716
5120, 3599, 3743, 3746
5121, 3212, 3207, 2722
5122, 3208, 682, 3602
5123, 3204, 3208, 2720
5124, 3209, 3602, 3210
5125, 3603, 3209, 2721
5126, 3210, 684, 3604
5127, 3209, 3210, 2721
5128, 3748, 3749, 3605
5129, 3752, 3754, 3607
5130, 3212, 48, 3601
5131, 3213, 3212, 2722
5132, 3609, 3610, 3608
5133, 3214, 3213, 2723
5134, 3214, 50, 3606
5135, 4860, 3214, 2723
5136, 2725, 3215, 90
5137, 4368, 3215, 2724
5138, 88, 3216, 89
5139, 3611, 1830, 1637
5140, 2253, 4444, 4446
5141, 2724, 2725, 3217
5142, 4445, 4444, 3262
5143, 4448, 728, 4452
5144, 3219, 71, 4875
5145, 2728, 3219, 2726
5146, 3221, 3220, 1831
5147, 4370, 3220, 2727
5148, 74, 73, 3221
5149, 3613, 3221, 73
5150, 4476, 4374, 3222
5151, 3224, 3222, 2254
5152, 4369, 2726, 3219
5153, 4375, 708, 4372
5154, 3224, 2254, 4371
5155, 3613, 2727, 3221
5156, 2260, 2732, 3225
5157, 2734, 3225, 2732
5158, 1417, 3755, 3614
5159, 1345, 2746, 3226
5160, 3227, 1345, 4114
5161, 810, 3227, 809
5162, 3229, 3228, 1411
5163, 3230, 3228, 2751
5164, 4301, 3229, 1411
5165, 2873, 3229, 2273
5166, 3228, 3230, 1498
5167, 3231, 3230, 2751
5168, 1539, 3231, 2751
5169, 493, 3231, 1575
5170, 3233, 2756, 2276
5171, 3237, 3232, 2758
5172, 2758, 3232, 3233
5173, 2756, 3233, 3232
5174, 2755, 3235, 2276
5175, 3234, 1478, 2759
5176, 1478, 3235, 1395
5177, 2276, 3235, 3234
5178, 2754, 3236, 712
5179, 3236, 2756, 2327
5180, 3232, 3237, 1638
5181, 2760, 3237, 2758
5182, 2282, 3238, 1428
5183, 1488, 3238, 2761
5184, 4305, 7696, 2300
5185, 3240, 1540, 1946
5186, 1947, 2773, 3240
5187, 3239, 3240, 2773
5188, 1614, 3241, 2307
5189, 1035, 3241, 2777
5190, 2779, 3242, 2736
5191, 1614, 3242, 2781
5192, 2453, 3243, 1372
5193, 3244, 1868, 1047
5194, 2786, 3243, 3244
5195, 3244, 3243, 1868
5196, 2312, 2789, 3245
5197, 2876, 3245, 2789
5198, 1050, 1051, 3246
5199, 1051, 2789, 3246
5200, 995, 3247, 994
5201, 2556, 3247, 2791
5202, 3248, 354, 3251
5203, 3618, 2792, 3249
5204, 3249, 3617, 3618
5205, 3249, 2792, 3619
5206, 3250, 2313, 3619
5207, 2793, 2555, 3250
5208, 2553, 3251, 353
5209, 3251, 2793, 2792
5210, 2738, 2317, 3252
5211, 1623, 3252, 2317
5212, 2317, 2801, 3253
5213, 2888, 3253, 2801
5214, 887, 888, 3254
5215, 888, 2801, 3254
5216, 1629, 3255, 2319
5217, 1198, 3255, 2805
5218, 2807, 3256, 2740
5219, 1629, 3256, 2809
5220, 2531, 3257, 2322
5221, 2323, 3257, 1630
5222, 2742, 2326, 3258
5223, 1637, 3258, 2326
5224, 2326, 2820, 3259
5225, 3620, 2820, 3621
5226, 2253, 3217, 3612
5227, 1637, 3259, 3260
5228, 724, 725, 3261
5229, 3621, 3261, 725
5230, 3621, 725, 4445
5231, 3621, 4445, 3262
5232, 1638, 3263, 2327
5233, 709, 3263, 2822
5234, 3622, 3264, 1646
5235, 3988, 4025, 3759
5236, 3304, 1298, 3302
5237, 3299, 1837, 1642
5238, 2827, 3266, 1651
5239, 3991, 4026, 3767
5240, 3289, 1294, 3287
5241, 3904, 4941, 4940
5242, 3887, 3268, 2340
5243, 1397, 2837, 3268
5244, 2858, 3269, 2342
5245, 1399, 2844, 3269
5246, 5322, 4941, 5321
5247, 2877, 4376, 2848
5248, 3992, 7697, 3899
5249, 2849, 2345, 2877
5250, 3953, 7698, 7697
5251, 2603, 3271, 2200
5252, 2880, 3273, 2881
5253, 4377, 3274, 2648
5254, 2885, 3274, 2884
5255, 2647, 3071, 3626
5256, 4377, 3275, 2884
5257, 3277, 3276, 2418
5258, 2649, 3276, 2219
5259, 3277, 2418, 2888
5260, 3278, 3277, 2889
5261, 2889, 4378, 3279
5262, 3450, 2219, 3451
5263, 889, 890, 3279
5264, 4506, 3451, 890
5265, 3878, 3280, 2232
5266, 2823, 3280, 2895
5267, 3281, 2424, 2899
5268, 1253, 3281, 2902
5269, 1832, 319, 3948
5270, 3895, 1639, 1832
5271, 3773, 3772, 3952
5272, 3908, 3629, 3783
5273, 1642, 2547, 3299
5274, 3312, 3783, 2433
5275, 2894, 2823, 2895
5276, 4584, 3951, 3898
5277, 3947, 3897, 3949
5278, 3287, 3286, 3285
5279, 3289, 3287, 3290
5280, 2053, 3287, 1294
5281, 3288, 3289, 3290
5282, 3296, 3292, 963
5283, 3292, 3289, 3288
5284, 3296, 3289, 3292
5285, 3285, 3291, 3290
5286, 3290, 3291, 4527
5287, 2904, 3285, 3286
5288, 4251, 4230, 4252
5289, 4527, 3778, 4247
5290, 1645, 4138, 4776
5291, 6585, 6514, 6274
5292, 4219, 4221, 4200
5293, 4197, 4205, 1650
5294, 3288, 4247, 4239
5295, 4220, 4245, 4248
5296, 3296, 963, 964
5297, 1294, 3289, 3296
5298, 1834, 478, 3942
5299, 3890, 1640, 1834
5300, 3765, 3764, 3946
5301, 3312, 3908, 3783
5302, 3910, 159, 1837
5303, 3785, 1653, 1841
5304, 4248, 4240, 4239
5305, 4583, 3945, 3893
5306, 3941, 3892, 3943
5307, 3302, 3301, 3300
5308, 3304, 3302, 3305
5309, 2056, 3302, 1298
5310, 3303, 3304, 3305
5311, 3311, 3307, 1126
5312, 3307, 3304, 3303
5313, 3311, 3304, 3307
5314, 3300, 3306, 3305
5315, 3305, 3306, 4528
5316, 2909, 3300, 3301
5317, 4185, 4164, 4186
5318, 4528, 3779, 4181
5319, 3781, 3780, 2057
5320, 6578, 6505, 6256
5321, 4153, 4155, 4134
5322, 4131, 4139, 1645
5323, 3303, 4181, 4173
5324, 4154, 4179, 4182
5325, 3311, 1126, 1127
5326, 1298, 3304, 3311
5327, 3908, 3312, 4609
5328, 2433, 3783, 3299
5329, 2546, 3782, 3781
5330, 1309, 2341, 3911
5331, 3785, 3630, 3784
5332, 4518, 4520, 4952
5333, 1598, 3315, 1528
5334, 1440, 2409, 3316
5335, 3316, 1378, 3631
5336, 2920, 3315, 3316
5337, 1873, 3317, 1707
5338, 2009, 2924, 3317
5339, 3320, 1627, 2516
5340, 1722, 3321, 1895
5341, 2008, 3319, 1807
5342, 1627, 3319, 2517
5343, 3321, 1806, 1895
5344, 1627, 3320, 3318
5345, 3633, 1722, 2464
5346, 3321, 3633, 3318
5347, 3323, 3322, 1898
5348, 3634, 3322, 2925
5349, 2082, 3323, 1898
5350, 1815, 1631, 3323
5351, 1776, 3634, 1955
5352, 1776, 2465, 3634
5353, 2569, 2942, 3325
5354, 1786, 3325, 2942
5355, 2951, 3501, 3502
5356, 3119, 1160, 3499
5357, 3328, 3327, 2675
5358, 3326, 3327, 2955
5359, 3123, 3328, 2675
5360, 515, 3328, 516
5361, 5378, 5373, 7709
5362, 3782, 3635, 3954
5363, 3330, 2057, 3780
5364, 2189, 3330, 2963
5365, 3332, 3331, 2684
5366, 2563, 3331, 2234
5367, 3140, 3723, 3727
5368, 3332, 2685, 2901
5369, 2970, 3333, 1715
5370, 3335, 2969, 2972
5371, 3334, 2971, 1617
5372, 1783, 2972, 3334
5373, 3333, 3335, 2567
5374, 2973, 3335, 2972
5375, 2579, 3336, 2582
5376, 2976, 195, 3336
5377, 3337, 2698, 3638
5378, 2980, 3337, 2240
5379, 763, 3338, 762
5380, 3340, 3338, 2982
5381, 3339, 3637, 3337
5382, 3638, 2698, 3170
5383, 3338, 3340, 2699
5384, 3340, 2982, 3339
5385, 3344, 3341, 2602
5386, 3639, 3343, 3341
5387, 389, 3647, 2985
5388, 3645, 3790, 1032
5389, 3640, 3343, 3342
5390, 3642, 3643, 3787
5391, 389, 3344, 390
5392, 3341, 3344, 2985
5393, 4005, 4006, 3963
5394, 3345, 3914, 3639
5395, 3789, 3346, 2199
5396, 3648, 2986, 3348
5397, 3348, 3347, 1777
5398, 4382, 3347, 2986
5399, 392, 391, 3348
5400, 3648, 3348, 391
5401, 3350, 2603, 2200
5402, 3349, 2988, 3354
5403, 3352, 3350, 2200
5404, 2988, 3349, 3350
5405, 3353, 2849, 2848
5406, 3650, 3357, 3351
5407, 3353, 2200, 2849
5408, 3351, 3357, 3649
5409, 1053, 3353, 2848
5410, 3351, 3352, 3353
5411, 3356, 3354, 2988
5412, 410, 3354, 3358
5413, 3652, 1055, 3792
5414, 3355, 4529, 3797
5415, 3350, 3649, 2988
5416, 3358, 3356, 3355
5417, 3351, 4505, 3650
5418, 3652, 3357, 3650
5419, 3358, 3355, 3359
5420, 3358, 411, 410
5421, 3792, 3795, 3652
5422, 3653, 3816, 412
5423, 1009, 1010, 3360
5424, 1010, 2990, 3360
5425, 2201, 3656, 3362
5426, 3363, 3361, 3362
5427, 3657, 2997, 2608
5428, 3362, 3657, 3363
5429, 3658, 3363, 2202
5430, 2990, 3361, 3363
5431, 3376, 3377, 3662
5432, 2999, 3364, 2610
5433, 2996, 3365, 366
5434, 2993, 3365, 2997
5435, 1002, 3368, 2617
5436, 3368, 1003, 3367
5437, 3369, 1003, 1004
5438, 3370, 3005, 3003
5439, 2617, 3368, 3366
5440, 1003, 3368, 1002
5441, 2999, 3369, 1004
5442, 3370, 2610, 3002
5443, 3367, 3369, 3370
5444, 2610, 3370, 3369
5445, 362, 361, 3371
5446, 2616, 3371, 361
5447, 3372, 2205, 3366
5448, 3371, 3372, 3004
5449, 3373, 364, 3000
5450, 3374, 3373, 3006
5451, 3374, 3006, 3661
5452, 2996, 3374, 2608
5453, 3377, 3375, 2203
5454, 3373, 3375, 3006
5455, 3376, 2607, 3658
5456, 3006, 3375, 3377
5457, 3377, 2203, 3660
5458, 3006, 3377, 3376
5459, 3010, 3378, 2204
5460, 3663, 3008, 3380
5461, 3380, 2616, 360
5462, 3013, 3379, 3008
5463, 360, 359, 3380
5464, 3663, 3380, 359
5465, 3382, 2613, 358
5466, 3011, 3381, 3012
5467, 3382, 357, 3016
5468, 3381, 3382, 3012
5469, 3014, 3383, 2206
5470, 3382, 3383, 3012
5471, 3249, 3384, 2206
5472, 3664, 3015, 3386
5473, 3386, 3385, 2790
5474, 3619, 3385, 3015
5475, 997, 3386, 996
5476, 3385, 3386, 3015
5477, 1075, 1076, 3387
5478, 3018, 3387, 1076
5479, 3388, 2620, 4384
5480, 3388, 2207, 3390
5481, 3666, 3390, 3389
5482, 3830, 3817, 3667
5483, 3391, 2207, 3668
5484, 3391, 3390, 2207
5485, 3819, 3822, 3821
5486, 3390, 3391, 3819
5487, 3922, 3392, 429
5488, 3019, 3392, 3020
5489, 3026, 3393, 1081
5490, 3669, 3393, 2624
5491, 3670, 3394, 2622
5492, 3394, 2208, 4385
5493, 3019, 3395, 431
5494, 3024, 3395, 3025
5495, 3397, 3396, 2626
5496, 3401, 3029, 3400
5497, 433, 3397, 434
5498, 3396, 3397, 3029
5499, 3029, 3397, 3398
5500, 433, 3398, 3397
5501, 3029, 3398, 3399
5502, 2623, 3399, 3398
5503, 2622, 3022, 3400
5504, 3022, 3393, 3671
5505, 3029, 3401, 3396
5506, 3400, 3022, 3671
5507, 3673, 3402, 3032
5508, 1083, 1084, 3674
5509, 3672, 3403, 3032
5510, 2628, 3403, 2210
5511, 436, 3404, 437
5512, 3403, 3404, 3033
5513, 439, 3407, 2629
5514, 3405, 3407, 3406
5515, 2629, 3407, 3405
5516, 2628, 2210, 3406
5517, 439, 438, 3407
5518, 2628, 3407, 438
5519, 3409, 2627, 1085
5520, 3406, 3408, 3035
5521, 1085, 1086, 3409
5522, 3410, 1086, 2630
5523, 3035, 3409, 3410
5524, 1086, 3410, 3409
5525, 2211, 2630, 3412
5526, 3411, 3036, 3414
5527, 3413, 3412, 3045
5528, 3036, 3411, 3412
5529, 2633, 3413, 3045
5530, 3413, 2212, 3416
5531, 3414, 440, 2629
5532, 3039, 3414, 3036
5533, 442, 441, 3415
5534, 3414, 3415, 441
5535, 3413, 3416, 3036
5536, 3417, 3416, 2212
5537, 3041, 3417, 2212
5538, 2632, 3039, 3417
5539, 2633, 3418, 1088
5540, 2630, 3418, 3045
5541, 3049, 3419, 275
5542, 3046, 3419, 3047
5543, 277, 3420, 278
5544, 3421, 3420, 3048
5545, 3832, 3421, 3048
5546, 3421, 3832, 3438
5547, 3422, 3424, 3423
5548, 2635, 3049, 3422
5549, 3432, 3423, 2214
5550, 3425, 2637, 3052
5551, 3837, 2638, 3056
5552, 2214, 3423, 3424
5553, 3426, 3052, 2636
5554, 2635, 3423, 3425
5555, 2636, 3427, 3426
5556, 2213, 3428, 3427
5557, 3051, 3427, 2636
5558, 3428, 2213, 3047
5559, 2635, 3426, 3428
5560, 3427, 3428, 3426
5561, 918, 919, 3429
5562, 919, 3051, 3429
5563, 3676, 3430, 3675
5564, 3430, 3059, 3677
5565, 914, 915, 3431
5566, 3054, 3431, 915
5567, 3423, 3432, 2637
5568, 2639, 3432, 2214
5569, 3433, 272, 3679
5570, 3055, 3433, 3056
5571, 2217, 3838, 2646
5572, 3436, 3682, 3836
5573, 912, 913, 3435
5574, 3057, 3435, 913
5575, 3058, 3834, 3836
5576, 3683, 3929, 3840
5577, 3438, 2640, 2215
5578, 3437, 3059, 3676
5579, 3421, 3438, 2215
5580, 3059, 3437, 3438
5581, 280, 3439, 281
5582, 3069, 3439, 3063
5583, 3445, 3440, 2216
5584, 3441, 3440, 3064
5585, 3446, 3684, 3064
5586, 3441, 282, 3062
5587, 922, 3442, 2640
5588, 3061, 3442, 3066
5589, 3685, 3069, 3063
5590, 2641, 3066, 3443
5591, 3446, 3444, 2218
5592, 3064, 3440, 3445
5593, 3072, 3444, 3445
5594, 3064, 3445, 3444
5595, 3444, 3446, 3064
5596, 3446, 2218, 4377
5597, 3448, 2649, 2219
5598, 3447, 3076, 3452
5599, 3450, 3448, 2219
5600, 3076, 3447, 3448
5601, 3451, 3278, 3279
5602, 3687, 3455, 3449
5603, 3451, 2219, 3278
5604, 3449, 3455, 3686
5605, 890, 3451, 3279
5606, 3449, 3450, 3451
5607, 3454, 3452, 3076
5608, 251, 3452, 3456
5609, 3689, 892, 3843
5610, 3453, 4557, 3848
5611, 3448, 3686, 3076
5612, 3456, 3454, 3453
5613, 3449, 4506, 3687
5614, 3689, 3455, 3687
5615, 3456, 3453, 3457
5616, 3456, 252, 251
5617, 3843, 3846, 3689
5618, 3690, 3867, 253
5619, 232, 2652, 3458
5620, 3082, 3458, 2652
5621, 3084, 3460, 3459
5622, 3461, 3462, 3460
5623, 3103, 3460, 3084
5624, 3693, 3461, 2661
5625, 3696, 3461, 3868
5626, 4389, 3462, 2654
5627, 3460, 3462, 3459
5628, 3462, 3461, 3696
5629, 3697, 2221, 4389
5630, 2657, 3085, 3463
5631, 3464, 3463, 2221
5632, 2658, 3101, 3464
5633, 3093, 3465, 206
5634, 3086, 3465, 3087
5635, 3086, 3466, 208
5636, 3102, 3466, 3088
5637, 2656, 3091, 3467
5638, 3101, 3467, 3091
5639, 839, 3470, 2663
5640, 3470, 840, 3469
5641, 3471, 840, 841
5642, 3472, 3099, 3097
5643, 2663, 3470, 3468
5644, 840, 3470, 839
5645, 3090, 3471, 841
5646, 3472, 2656, 3096
5647, 3469, 3471, 3472
5648, 2656, 3472, 3471
5649, 203, 202, 3473
5650, 2662, 3473, 202
5651, 3474, 2224, 3468
5652, 3473, 3474, 3098
5653, 3478, 3475, 2224
5654, 3475, 3105, 3476
5655, 3477, 3476, 3105
5656, 837, 838, 3476
5657, 2225, 3477, 3105
5658, 837, 3477, 2665
5659, 201, 3480, 2662
5660, 3480, 200, 2664
5661, 3479, 3478, 3480
5662, 2664, 2225, 3479
5663, 2662, 3480, 3478
5664, 201, 200, 3480
5665, 3699, 2225, 3486
5666, 3698, 3106, 3483
5667, 2668, 3110, 3483
5668, 3482, 3106, 3699
5669, 836, 3483, 835
5670, 3106, 3482, 3483
5671, 199, 198, 3484
5672, 3484, 198, 3107
5673, 3485, 2226, 3482
5674, 3108, 2666, 3485
5675, 2664, 3108, 3486
5676, 3108, 3485, 3699
5677, 2666, 3107, 3488
5678, 3111, 3487, 3112
5679, 197, 196, 3488
5680, 3700, 3488, 196
5681, 4509, 2579, 2581
5682, 3112, 3489, 4512
5683, 2669, 3490, 1164
5684, 3491, 3113, 3125
5685, 3491, 3125, 3492
5686, 1163, 3490, 3491
5687, 2229, 3492, 3125
5688, 1162, 3492, 2673
5689, 2227, 3504, 3494
5690, 3490, 3493, 3113
5691, 3113, 3493, 3494
5692, 2227, 3494, 3493
5693, 3125, 3495, 2674
5694, 3113, 3494, 3495
5695, 4398, 2669, 1165
5696, 3117, 3496, 3115
5697, 3114, 3497, 521
5698, 3498, 3497, 3116
5699, 3128, 3516, 3517
5700, 3130, 3498, 2678
5701, 3703, 3499, 2673
5702, 3502, 3499, 3326
5703, 3119, 3499, 3502
5704, 2953, 3501, 2951
5705, 3501, 2953, 2528
5706, 3502, 3501, 3500
5707, 3119, 3502, 3500
5708, 2951, 3502, 3326
5709, 518, 3503, 519
5710, 3122, 3494, 3504
5711, 3504, 2227, 3117
5712, 3122, 3504, 3503
5713, 3127, 3506, 3505
5714, 3506, 3507, 3505
5715, 3129, 3506, 3127
5716, 3507, 3506, 2677
5717, 3507, 2677, 3508
5718, 3507, 2678, 3509
5719, 3510, 3508, 2677
5720, 3508, 3510, 3511
5721, 3498, 3509, 2678
5722, 3505, 3509, 2230
5723, 3869, 3129, 3705
5724, 3707, 3704, 2679
5725, 3512, 3511, 3513
5726, 2681, 3135, 3512
5727, 3135, 526, 3512
5728, 3706, 3512, 526
5729, 3513, 2231, 3514
5730, 2681, 3512, 3513
5731, 2231, 3704, 3707
5732, 3514, 3707, 3711
5733, 3515, 1168, 3126
5734, 4400, 3128, 4399
5735, 3517, 2230, 3498
5736, 3515, 3516, 3128
5737, 2230, 3517, 3516
5738, 3498, 3116, 3517
5739, 3130, 3518, 524
5740, 3518, 3131, 3870
5741, 1173, 1174, 3519
5742, 3708, 3519, 1174
5743, 3871, 3872, 3710
5744, 3712, 3514, 3711
5745, 3135, 3521, 527
5746, 4882, 3521, 3134
5747, 3525, 3522, 2682
5748, 3713, 3524, 3522
5749, 4525, 3713, 3137
5750, 3715, 3716, 1195
5751, 3715, 3524, 3523
5752, 3715, 3718, 3524
5753, 547, 3525, 548
5754, 3522, 3525, 3137
5755, 3527, 3526, 600
5756, 3139, 3526, 3140
5757, 3534, 3720, 2690
5758, 2237, 3153, 3721
5759, 3528, 1252, 1253
5760, 3726, 3528, 2685
5761, 3725, 3726, 3727
5762, 3723, 3527, 3724
5763, 3156, 3530, 1244
5764, 3728, 3530, 2695
5765, 3730, 3531, 2686
5766, 2235, 4406, 4408
5767, 590, 3729, 4414
5768, 3145, 3532, 3146
5769, 2236, 4513, 2689
5770, 3148, 2688, 4410
5771, 3535, 3534, 2690
5772, 3153, 3534, 3152
5773, 597, 3535, 598
5774, 3534, 3535, 3152
5775, 3152, 3535, 3536
5776, 597, 3536, 3535
5777, 3154, 3537, 2238
5778, 3152, 3536, 3537
5779, 2238, 3538, 2694
5780, 3538, 3155, 4418
5781, 4515, 2693, 596
5782, 3155, 3539, 3158
5783, 3541, 3540, 2697
5784, 3545, 3161, 3544
5785, 592, 3541, 593
5786, 3540, 3541, 3161
5787, 3161, 3541, 3542
5788, 592, 3542, 3541
5789, 3161, 3542, 3543
5790, 2687, 3543, 3542
5791, 2686, 3143, 3544
5792, 3143, 3530, 3731
5793, 3161, 3545, 3540
5794, 3544, 3143, 3731
5795, 3551, 3546, 2241
5796, 3548, 3546, 3166
5797, 3548, 2701, 760
5798, 4420, 3547, 3166
5799, 2699, 3548, 761
5800, 3547, 3548, 3166
5801, 121, 3549, 122
5802, 3551, 3549, 3168
5803, 4420, 2702, 2242
5804, 3168, 121, 3550
5805, 4420, 3551, 3168
5806, 3546, 3551, 3166
5807, 3340, 3552, 2241
5808, 3553, 3552, 3169
5809, 3553, 2700, 3552
5810, 3170, 123, 3553
5811, 3555, 3554, 2242
5812, 3556, 3554, 3171
5813, 2702, 3555, 2242
5814, 3555, 3180, 3938
5815, 758, 3556, 3171
5816, 2701, 3556, 759
5817, 3732, 3173, 756
5818, 3558, 3177, 3733
5819, 3558, 3880, 3565
5820, 3733, 3177, 2704
5821, 2243, 3563, 3560
5822, 3559, 3560, 3735
5823, 3734, 3176, 3178
5824, 3881, 3735, 2705
5825, 3561, 3174, 3735
5826, 3568, 3561, 3179
5827, 3562, 115, 3566
5828, 3175, 3562, 3176
5829, 2704, 3176, 3563
5830, 3560, 3563, 3176
5831, 117, 3564, 118
5832, 3565, 3564, 3177
5833, 3564, 3565, 2706
5834, 3558, 3565, 3177
5835, 3737, 3566, 114
5836, 3562, 3566, 3178
5837, 2245, 3574, 2707
5838, 2245, 2708, 3573
5839, 3561, 3568, 752
5840, 3184, 3568, 3179
5841, 3570, 120, 119
5842, 3555, 3569, 3180
5843, 3938, 2706, 2244
5844, 3569, 3570, 3180
5845, 4430, 3571, 111
5846, 3181, 3571, 3182
5847, 750, 751, 3572
5848, 3568, 3572, 751
5849, 3575, 3184, 3179
5850, 3184, 3575, 3573
5851, 3574, 3567, 3738
5852, 2245, 3573, 3574
5853, 3575, 3179, 3881
5854, 3567, 3574, 3575
5855, 3186, 3577, 3576
5856, 3579, 3580, 3577
5857, 671, 3739, 3186
5858, 3579, 3577, 2247
5859, 3577, 3186, 3739
5860, 3191, 3578, 672
5861, 2713, 3579, 2247
5862, 3190, 2710, 3580
5863, 3190, 3580, 3579
5864, 3587, 3580, 2710
5865, 668, 669, 3581
5866, 3581, 669, 3185
5867, 3586, 3582, 2246
5868, 3581, 3582, 3187
5869, 34, 3583, 35
5870, 2425, 2903, 3584
5871, 2545, 3585, 3584
5872, 3583, 3586, 3189
5873, 2959, 3585, 2545
5874, 3187, 3582, 3586
5875, 3187, 3586, 3585
5876, 3587, 3586, 2246
5877, 3580, 3587, 2246
5878, 2710, 3189, 3587
5879, 2714, 3588, 674
5880, 3191, 3588, 3192
5881, 3590, 3589, 2248
5882, 3192, 2714, 3589
5883, 2715, 3590, 2248
5884, 3194, 2712, 3591
5885, 3197, 2711, 3740
5886, 3194, 3591, 3590
5887, 41, 40, 3592
5888, 3193, 3592, 40
5889, 3594, 2714, 675
5890, 3595, 3198, 3200
5891, 676, 3594, 675
5892, 3198, 3593, 3594
5893, 3595, 3200, 3597
5894, 2248, 3593, 3595
5895, 42, 3596, 43
5896, 2249, 3596, 3200
5897, 3595, 3597, 2715
5898, 3596, 3597, 3200
5899, 3203, 3598, 679
5900, 2718, 3742, 3741
5901, 3743, 3599, 2720
5902, 3747, 3599, 3746
5903, 3199, 3600, 45
5904, 3205, 3600, 3206
5905, 3205, 3601, 47
5906, 3212, 3601, 3207
5907, 682, 683, 3602
5908, 3210, 3602, 683
5909, 2721, 3751, 3608
5910, 2251, 3743, 3744
5911, 684, 685, 3604
5912, 3748, 3604, 685
5913, 3883, 3884, 3750
5914, 3751, 3752, 3607
5915, 3212, 3606, 49
5916, 3214, 3606, 3213
5917, 3752, 3751, 3211
5918, 3609, 2722, 3610
5919, 2721, 3608, 3603
5920, 3608, 3607, 3609
5921, 4526, 3609, 3607
5922, 3213, 2722, 3609
5923, 3745, 2722, 3207
5924, 2251, 3608, 3610
5925, 1637, 3260, 3611
5926, 3612, 3611, 3260
5927, 3611, 3612, 3216
5928, 3620, 3612, 3260
5929, 73, 2728, 3613
5930, 3224, 3613, 2728
5931, 1587, 3886, 1507
5932, 3757, 1320, 1345
5933, 2746, 3615, 1356
5934, 810, 3615, 3227
5935, 995, 2790, 3616
5936, 2791, 3616, 2790
5937, 3383, 3617, 2206
5938, 3618, 3617, 2619
5939, 3016, 3618, 2619
5940, 355, 3618, 356
5941, 3250, 3619, 2792
5942, 3619, 2313, 3385
5943, 2820, 3620, 3260
5944, 4444, 3620, 3262
5945, 4445, 725, 726
5946, 3620, 3621, 3262
5947, 3623, 3622, 1646
5948, 4197, 3625, 1651
5949, 4131, 3623, 1646
5950, 3298, 4583, 1645
5951, 5384, 3762, 3760
5952, 2896, 2823, 2420
5953, 3890, 3891, 3297
5954, 5385, 3770, 3768
5955, 4182, 4174, 4173
5956, 3776, 3903, 3904
5957, 1658, 2344, 3774
5958, 2057, 2960, 3781
5959, 3957, 4953, 4952
5960, 1439, 3631, 1378
5961, 1407, 3631, 1558
5962, 2921, 3632, 1407
5963, 2920, 3316, 3632
5964, 3318, 3633, 2924
5965, 1722, 3633, 3321
5966, 3634, 2466, 3322
5967, 3634, 3324, 1955
5968, 4602, 5374, 4604
5969, 3329, 3954, 3635
5970, 2591, 3636, 2981
5971, 3339, 2982, 3636
5972, 3337, 3637, 2240
5973, 3636, 3637, 3339
5974, 3340, 3638, 3169
5975, 3337, 3638, 3339
5976, 3639, 2985, 3647
5977, 3342, 3343, 3639
5978, 3641, 3640, 3342
5979, 3642, 1033, 1034
5980, 3912, 3645, 3913
5981, 3640, 3646, 1033
5982, 3642, 1034, 3643
5983, 3343, 3640, 3642
5984, 3788, 3643, 1034
5985, 3789, 3643, 3788
5986, 3913, 3961, 3644
5987, 4009, 4007, 3963
5988, 3913, 3641, 3342
5989, 3791, 3645, 3912
5990, 388, 3647, 389
5991, 3641, 1032, 3646
5992, 3639, 3647, 3345
5993, 391, 2602, 3648
5994, 3346, 3648, 2602
5995, 3351, 3649, 3352
5996, 3357, 2988, 3649
5997, 1055, 3652, 3651
5998, 3650, 3651, 3652
5999, 3792, 1055, 1056
6000, 3650, 1054, 3651
6001, 3652, 3795, 4529
6002, 412, 411, 3653
6003, 3358, 3653, 411
6004, 3654, 3795, 3793
6005, 3918, 3802, 3800
6006, 3800, 3359, 3797
6007, 3793, 3799, 3654
6008, 4342, 3656, 2201
6009, 2997, 3656, 2606
6010, 2608, 2202, 3657
6011, 3363, 3657, 2202
6012, 3376, 3658, 2202
6013, 2607, 2994, 3659
6014, 2607, 3659, 3658
6015, 1008, 1009, 3659
6016, 2610, 3364, 3660
6017, 3660, 3364, 3662
6018, 3661, 2202, 2608
6019, 3006, 3376, 3661
6020, 3376, 3662, 2995
6021, 3660, 3662, 3377
6022, 359, 2613, 3663
6023, 3378, 3663, 2613
6024, 997, 2618, 3664
6025, 3384, 3664, 2618
6026, 1074, 1075, 3665
6027, 3666, 3665, 1075
6028, 3387, 3666, 1075
6029, 3390, 3666, 3017
6030, 3819, 3667, 3818
6031, 3823, 3820, 3822
6032, 4383, 3668, 2207
6033, 3020, 3668, 2621
6034, 3031, 3669, 2624
6035, 3401, 3669, 2209
6036, 3394, 3670, 2208
6037, 2622, 3400, 3670
6038, 3669, 3671, 3393
6039, 3400, 3671, 3401
6040, 3408, 3672, 2627
6041, 3672, 2210, 3403
6042, 3034, 3673, 3032
6043, 3673, 3031, 2624
6044, 1084, 3402, 3674
6045, 3673, 3674, 3402
6046, 919, 920, 3675
6047, 3676, 3675, 920
6048, 3437, 3676, 920
6049, 3059, 3430, 3676
6050, 3832, 3677, 3059
6051, 3833, 3677, 2634
6052, 3051, 3430, 3678
6053, 3677, 3678, 3430
6054, 3070, 3679, 271
6055, 3433, 3679, 3434
6056, 2639, 3835, 3834
6057, 3838, 2217, 3839
6058, 911, 912, 3681
6059, 3682, 3681, 912
6060, 3435, 3682, 912
6061, 3836, 3682, 3058
6062, 3836, 3839, 3436
6063, 4360, 4851, 2646
6064, 283, 3441, 3684
6065, 3064, 3684, 3441
6066, 3060, 3685, 3063
6067, 2641, 3443, 3685
6068, 3449, 3686, 3450
6069, 3455, 3076, 3686
6070, 892, 3689, 3688
6071, 3687, 3688, 3689
6072, 3843, 892, 893
6073, 3687, 891, 3688
6074, 3689, 3846, 4557
6075, 253, 252, 3690
6076, 3456, 3690, 252
6077, 3691, 3846, 3844
6078, 3930, 3853, 3851
6079, 3851, 3457, 3848
6080, 3844, 3850, 3691
6081, 3694, 3693, 2661
6082, 4881, 3695, 2223
6083, 3103, 3694, 2661
6084, 3694, 3104, 4394
6085, 2660, 3088, 3695
6086, 3868, 3695, 3088
6087, 3086, 3696, 3088
6088, 3462, 3696, 2654
6089, 2658, 3464, 3697
6090, 2221, 3697, 3464
6091, 3481, 3698, 2665
6092, 3483, 836, 3698
6093, 3482, 3699, 3485
6094, 3481, 3699, 3106
6095, 196, 2976, 3700
6096, 3112, 3700, 2976
6097, 4507, 3701, 2579
6098, 3112, 3701, 3489
6099, 3497, 3702, 522
6100, 3130, 3702, 3498
6101, 2673, 2229, 3703
6102, 3326, 3703, 2229
6103, 2231, 3510, 3704
6104, 3510, 2677, 3869
6105, 3869, 3704, 3510
6106, 1171, 3705, 3129
6107, 526, 525, 3706
6108, 525, 3518, 3870
6109, 3711, 3707, 3133
6110, 2231, 3707, 3514
6111, 3709, 3708, 1174
6112, 3711, 3708, 3520
6113, 1174, 1175, 3709
6114, 3871, 3709, 1175
6115, 3934, 4579, 3873
6116, 3712, 2680, 3514
6117, 3708, 3711, 3133
6118, 3711, 3520, 3712
6119, 3871, 3712, 3520
6120, 4886, 3712, 3710
6121, 3137, 547, 4525
6122, 3523, 3524, 3713
6123, 3976, 3973, 3974
6124, 3713, 3714, 3971
6125, 3716, 3715, 3523
6126, 3717, 3715, 1195
6127, 3970, 3971, 3972
6128, 1195, 3716, 1194
6129, 1195, 1196, 3717
6130, 3717, 1196, 3718
6131, 3875, 3718, 1196
6132, 3280, 3878, 2895
6133, 600, 599, 3719
6134, 599, 3527, 3719
6135, 2237, 3721, 3724
6136, 3527, 2690, 3720
6137, 3722, 2692, 1250
6138, 3721, 3529, 3724
6139, 3141, 3722, 1251
6140, 3721, 3722, 3529
6141, 3724, 3527, 3720
6142, 3725, 3723, 3529
6143, 3724, 3720, 2237
6144, 3529, 3723, 3724
6145, 3722, 3725, 3529
6146, 3726, 3725, 3141
6147, 3726, 3141, 3528
6148, 2684, 3727, 3332
6149, 3332, 3727, 3726
6150, 2684, 3140, 3727
6151, 3163, 3728, 2695
6152, 3545, 3728, 2239
6153, 3150, 3729, 589
6154, 4409, 4414, 3533
6155, 3531, 3730, 2235
6156, 2686, 3544, 3730
6157, 3728, 3731, 3530
6158, 3544, 3731, 3545
6159, 756, 757, 3732
6160, 3732, 757, 3879
6161, 2243, 3733, 2704
6162, 3557, 3558, 3733
6163, 3736, 3734, 3178
6164, 2705, 3560, 3734
6165, 3559, 3735, 3174
6166, 2705, 3735, 3560
6167, 3178, 3566, 3737
6168, 3575, 3736, 3567
6169, 113, 3737, 114
6170, 3567, 3736, 3737
6171, 3567, 3737, 3738
6172, 3738, 3737, 113
6173, 672, 3739, 671
6174, 3577, 3739, 3578
6175, 3740, 3192, 3589
6176, 3197, 3740, 3591
6177, 3939, 3882, 3741
6178, 3202, 3598, 3741
6179, 3741, 3742, 2250
6180, 3204, 3742, 2718
6181, 3744, 3743, 2720
6182, 3745, 3743, 2251
6183, 3209, 3744, 2720
6184, 2251, 3744, 3603
6185, 3610, 3745, 2251
6186, 3746, 3207, 2719
6187, 3746, 2719, 3747
6188, 3743, 3745, 3746
6189, 3206, 3747, 2719
6190, 3742, 3747, 2250
6191, 3604, 3748, 3211
6192, 3749, 3748, 685
6193, 685, 686, 3749
6194, 3883, 3749, 686
6195, 3940, 4581, 3885
6196, 3753, 2252, 3754
6197, 3211, 3748, 3752
6198, 3608, 3751, 3607
6199, 3753, 3752, 3605
6200, 3752, 3753, 3754
6201, 3883, 3753, 3605
6202, 4864, 3753, 3750
6203, 4526, 2252, 2723
6204, 3607, 3754, 4526
6205, 1506, 3755, 1417
6206, 1507, 3755, 1588
6207, 3887, 3756, 1397
6208, 3888, 3756, 3887
6209, 3226, 3614, 3757
6210, 3757, 3614, 3888
6211, 2909, 3758, 4612
6212, 4615, 3889, 3892
6213, 3622, 3988, 3264
6214, 3987, 3988, 3622
6215, 5006, 4617, 3763
6216, 5003, 5005, 5384
6217, 4025, 5002, 2332
6218, 3944, 3763, 4617
6219, 5004, 3762, 5384
6220, 4616, 5006, 2825
6221, 4617, 5006, 3760
6222, 5004, 5005, 3761
6223, 2909, 3891, 3758
6224, 3946, 3986, 3893
6225, 3300, 2909, 3765
6226, 3764, 3765, 2909
6227, 2904, 3766, 4619
6228, 4622, 3894, 3897
6229, 2827, 3991, 3266
6230, 3990, 3991, 2827
6231, 5011, 4624, 3771
6232, 5008, 5010, 5385
6233, 4026, 5007, 2338
6234, 3950, 3771, 4624
6235, 5009, 3770, 5385
6236, 4623, 5011, 2831
6237, 4624, 5011, 3768
6238, 5009, 5010, 3769
6239, 2904, 3896, 3766
6240, 3952, 3989, 3898
6241, 3285, 2904, 3773
6242, 3772, 3773, 2904
6243, 3899, 3900, 3992
6244, 2343, 3905, 3903
6245, 4918, 3774, 1321
6246, 4927, 4939, 4940
6247, 2343, 3903, 3902
6248, 4585, 4587, 3776
6249, 3906, 1656, 1842
6250, 3624, 4585, 3904
6251, 1650, 4204, 4800
6252, 4211, 4222, 959
6253, 2546, 3635, 3782
6254, 4145, 4156, 1122
6255, 2433, 3780, 3628
6256, 3782, 4626, 4627
6257, 3954, 4597, 3907
6258, 4627, 3628, 3781
6259, 3910, 3629, 159
6260, 3785, 3784, 1653
6261, 3784, 3630, 3955
6262, 5337, 5342, 5340
6263, 3630, 3785, 4522
6264, 3907, 4636, 4626
6265, 1309, 3993, 3995
6266, 3642, 3787, 3343
6267, 3789, 3787, 3643
6268, 1034, 1035, 3788
6269, 2777, 3788, 1035
6270, 3789, 2777, 4382
6271, 3787, 3789, 2199
6272, 4005, 3644, 3961
6273, 3645, 1031, 3790
6274, 1030, 1031, 3917
6275, 3793, 3792, 1056
6276, 3792, 3793, 3795
6277, 1056, 3794, 3793
6278, 3794, 3798, 3799
6279, 1056, 1057, 3794
6280, 3794, 1057, 3798
6281, 3797, 3795, 3654
6282, 3795, 3797, 4529
6283, 3801, 3798, 1057
6284, 3804, 3805, 3803
6285, 3800, 3797, 3654
6286, 3359, 3355, 3797
6287, 3801, 1057, 1058
6288, 3918, 3796, 3802
6289, 3794, 3799, 3793
6290, 3918, 3798, 3796
6291, 3654, 3799, 3918
6292, 3800, 3655, 3816
6293, 3804, 3801, 1058
6294, 3796, 3798, 3801
6295, 3811, 3813, 3806
6296, 3813, 3921, 3802
6297, 3810, 3809, 1059
6298, 4530, 415, 414
6299, 3805, 3804, 1058
6300, 3806, 3804, 3803
6301, 1058, 1059, 3805
6302, 3805, 1059, 3809
6303, 3806, 3803, 3811
6304, 3801, 3806, 3796
6305, 416, 4534, 4535
6306, 4532, 415, 4530
6307, 3807, 4536, 3803
6308, 3814, 3813, 3808
6309, 3810, 1059, 1060
6310, 3803, 3809, 3807
6311, 3966, 4015, 4016
6312, 3807, 3809, 3810
6313, 3812, 3811, 3803
6314, 3813, 3811, 3808
6315, 4536, 4015, 4533
6316, 4532, 4530, 4531
6317, 3808, 414, 3814
6318, 3796, 3813, 3802
6319, 413, 3921, 3920
6320, 3920, 3921, 3814
6321, 3800, 3816, 3359
6322, 3921, 3815, 3655
6323, 3815, 3816, 3655
6324, 1073, 1074, 3817
6325, 3818, 3817, 1074
6326, 3819, 3818, 3389
6327, 3817, 3818, 3667
6328, 3390, 3819, 3389
6329, 3823, 3822, 3391
6330, 3820, 3823, 3824
6331, 3667, 3819, 3821
6332, 3826, 3821, 3820
6333, 3667, 3821, 3830
6334, 3823, 3391, 3020
6335, 3820, 3821, 3822
6336, 3922, 3020, 3392
6337, 3922, 428, 3824
6338, 427, 3923, 428
6339, 1070, 1071, 4610
6340, 3826, 3820, 3829
6341, 3829, 3967, 3826
6342, 3829, 3824, 3827
6343, 3825, 3924, 3828
6344, 428, 3923, 3824
6345, 4019, 3923, 427
6346, 1072, 3928, 3828
6347, 1073, 3817, 3830
6348, 3824, 3829, 3820
6349, 3829, 3827, 3967
6350, 3826, 3830, 3821
6351, 3830, 3828, 3928
6352, 1083, 3673, 3831
6353, 3831, 3673, 2624
6354, 3832, 3059, 3438
6355, 2634, 3832, 3048
6356, 3047, 3833, 2634
6357, 3678, 3833, 2213
6358, 3835, 2639, 2214
6359, 3834, 3680, 3836
6360, 3837, 3835, 2214
6361, 3680, 3834, 3835
6362, 3838, 3836, 3680
6363, 3836, 3838, 3839
6364, 3424, 3837, 2214
6365, 3056, 3434, 4551
6366, 4552, 3680, 4551
6367, 3838, 4552, 2646
6368, 4555, 2217, 4554
6369, 3841, 3839, 3683
6370, 910, 911, 3840
6371, 3841, 3840, 911
6372, 3839, 3841, 3436
6373, 3840, 3841, 3683
6374, 3683, 3839, 4555
6375, 4853, 5286, 4699
6376, 3844, 3843, 893
6377, 3843, 3844, 3846
6378, 893, 3845, 3844
6379, 3845, 3849, 3850
6380, 893, 894, 3845
6381, 3845, 894, 3849
6382, 3848, 3846, 3691
6383, 3846, 3848, 4557
6384, 3852, 3849, 894
6385, 3855, 3856, 3854
6386, 3851, 3848, 3691
6387, 3457, 3453, 3848
6388, 3852, 894, 895
6389, 3930, 3847, 3853
6390, 3845, 3850, 3844
6391, 3930, 3849, 3847
6392, 3691, 3850, 3930
6393, 3851, 3692, 3867
6394, 3855, 3852, 895
6395, 3847, 3849, 3852
6396, 3862, 3864, 3857
6397, 3864, 3933, 3853
6398, 3861, 3860, 896
6399, 4558, 256, 255
6400, 3856, 3855, 895
6401, 3857, 3855, 3854
6402, 895, 896, 3856
6403, 3856, 896, 3860
6404, 3857, 3854, 3862
6405, 3852, 3857, 3847
6406, 257, 4562, 4563
6407, 4560, 256, 4558
6408, 3858, 4564, 3854
6409, 3865, 3864, 3859
6410, 3861, 896, 897
6411, 3854, 3860, 3858
6412, 3969, 4021, 4022
6413, 3858, 3860, 3861
6414, 3863, 3862, 3854
6415, 3864, 3862, 3859
6416, 4564, 4021, 4561
6417, 4560, 4558, 4559
6418, 3859, 255, 3865
6419, 3847, 3864, 3853
6420, 254, 3933, 3932
6421, 3932, 3933, 3865
6422, 3851, 3867, 3457
6423, 3933, 3866, 3692
6424, 3866, 3867, 3692
6425, 3696, 3868, 3088
6426, 3693, 3868, 3461
6427, 3129, 3869, 2677
6428, 3704, 3869, 3705
6429, 3512, 3870, 3511
6430, 3870, 3706, 525
6431, 3872, 3871, 1175
6432, 3712, 3871, 3710
6433, 1175, 1176, 3872
6434, 3934, 3872, 1176
6435, 1178, 4580, 4992
6436, 529, 528, 4882
6437, 3970, 3972, 3874
6438, 545, 544, 4628
6439, 1196, 1197, 3875
6440, 3876, 3875, 1197
6441, 1198, 3876, 1197
6442, 3876, 2895, 3878
6443, 2895, 3876, 3877
6444, 1198, 3877, 3876
6445, 2232, 3718, 3878
6446, 3878, 3718, 3875
6447, 757, 3936, 3879
6448, 3936, 3171, 3937
6449, 3558, 3732, 3880
6450, 3879, 3880, 3732
6451, 3575, 3881, 2705
6452, 3561, 3881, 3179
6453, 3202, 3741, 3882
6454, 3741, 2250, 3939
6455, 3884, 3883, 686
6456, 3753, 3883, 3750
6457, 686, 687, 3884
6458, 3940, 3884, 687
6459, 5000, 4582, 4866
6460, 52, 51, 4860
6461, 1397, 3756, 3886
6462, 1507, 3886, 3756
6463, 3887, 1397, 3268
6464, 3887, 1297, 1311
6465, 3757, 3888, 1320
6466, 3614, 3756, 3888
6467, 3622, 3623, 4583
6468, 3942, 3941, 3943
6469, 3892, 3889, 3758
6470, 1640, 3890, 3297
6471, 3892, 3941, 2828
6472, 3891, 2909, 3301
6473, 3889, 4611, 4612
6474, 3763, 4611, 4613
6475, 3946, 3893, 3945
6476, 2827, 3625, 4584
6477, 3948, 3947, 3949
6478, 3897, 3894, 3766
6479, 1639, 3895, 3282
6480, 3897, 3947, 2834
6481, 3896, 2904, 3286
6482, 3894, 4618, 4619
6483, 3771, 4618, 4620
6484, 3952, 3898, 3951
6485, 1641, 3900, 3899
6486, 1836, 1641, 3899
6487, 1641, 2346, 3901
6488, 7698, 4931, 4930
6489, 3774, 3901, 1658
6490, 1641, 3901, 3900
6491, 4588, 3776, 4587
6492, 5763, 1, 5761
6493, 3776, 3902, 3903
6494, 3903, 4595, 3904
6495, 5764, 5321, 5319
6496, 3906, 3905, 1656
6497, 3903, 3905, 3777
6498, 5764, 5762, 3627
6499, 5763, 3777, 3906
6500, 4635, 4028, 3994
6501, 3786, 3958, 3959
6502, 4519, 4609, 3312
6503, 3629, 3908, 2426
6504, 4519, 4517, 4518
6505, 4518, 3909, 4519
6506, 3299, 3910, 1837
6507, 3629, 3910, 3783
6508, 2341, 3784, 3955
6509, 3994, 3993, 3911
6510, 3645, 3641, 3913
6511, 3644, 3791, 3912
6512, 3914, 3913, 3342
6513, 3644, 3912, 3913
6514, 3639, 3914, 3342
6515, 3914, 3345, 3915
6516, 3345, 3962, 3915
6517, 388, 4006, 3962
6518, 4058, 4059, 384
6519, 4013, 1029, 1030
6520, 1031, 3791, 3917
6521, 3965, 3791, 3964
6522, 3654, 3918, 3800
6523, 3918, 3799, 3798
6524, 4017, 4016, 1060
6525, 4045, 5335, 4945
6526, 3815, 3921, 413
6527, 3814, 414, 3920
6528, 3802, 3921, 3655
6529, 3020, 3922, 3823
6530, 428, 3922, 429
6531, 3927, 3967, 4018
6532, 3827, 3824, 3923
6533, 3926, 3924, 3825
6534, 1071, 1072, 3924
6535, 3927, 3925, 3926
6536, 4050, 4049, 4637
6537, 3926, 3967, 3927
6538, 3926, 3925, 4610
6539, 3923, 4019, 4018
6540, 4610, 5049, 1070
6541, 1072, 1073, 3928
6542, 3830, 3928, 1073
6543, 4972, 3683, 4554
6544, 4553, 3929, 3842
6545, 3691, 3930, 3851
6546, 3930, 3850, 3849
6547, 4023, 4022, 897
6548, 4051, 5357, 5354
6549, 3866, 3933, 254
6550, 3865, 255, 3932
6551, 3853, 3933, 3692
6552, 4579, 3934, 1176
6553, 3934, 3873, 4995
6554, 3970, 3716, 3523
6555, 7700, 3985, 3978
6556, 757, 758, 3936
6557, 3171, 3936, 758
6558, 3171, 3555, 3938
6559, 2244, 3879, 3937
6560, 3570, 3938, 3180
6561, 2244, 3937, 3938
6562, 3747, 3939, 2250
6563, 2716, 3939, 3206
6564, 4581, 3940, 687
6565, 4862, 3940, 3885
6566, 1834, 3942, 3890
6567, 3891, 3890, 3943
6568, 478, 3941, 3942
6569, 3891, 3943, 3892
6570, 3890, 3942, 3943
6571, 3944, 3986, 4611
6572, 3264, 3988, 3759
6573, 4528, 3945, 3298
6574, 3946, 3945, 3306
6575, 3765, 3946, 3306
6576, 3986, 3946, 3764
6577, 1832, 3948, 3895
6578, 3896, 3895, 3949
6579, 319, 3947, 3948
6580, 3896, 3949, 3897
6581, 3895, 3948, 3949
6582, 3950, 3989, 4618
6583, 3266, 3991, 3767
6584, 4527, 3951, 3283
6585, 3952, 3951, 3291
6586, 3773, 3952, 3291
6587, 3989, 3952, 3772
6588, 3992, 3900, 4929
6589, 4926, 4918, 4925
6590, 4597, 3954, 3329
6591, 4626, 3954, 3907
6592, 3630, 3956, 3955
6593, 3958, 3955, 4953
6594, 4524, 4951, 4521
6595, 4952, 4953, 4950
6596, 4626, 4625, 3313
6597, 3955, 3958, 3786
6598, 4953, 3955, 3956
6599, 3959, 3958, 3957
6600, 4625, 3959, 3957
6601, 6069, 6220, 6209
6602, 4635, 3994, 3786
6603, 4599, 4055, 2962
6604, 3914, 3961, 3913
6605, 4005, 3961, 3915
6606, 3345, 388, 3962
6607, 4006, 388, 387
6608, 4009, 387, 386
6609, 4005, 4007, 3964
6610, 3964, 3644, 4005
6611, 3917, 3965, 1030
6612, 3964, 3916, 3965
6613, 4014, 4013, 3965
6614, 4016, 3810, 1060
6615, 4534, 4532, 4537
6616, 3967, 3825, 3826
6617, 4018, 3967, 3827
6618, 4637, 4019, 426
6619, 4050, 5046, 4049
6620, 4022, 3861, 897
6621, 4562, 4560, 4565
6622, 3971, 3970, 3523
6623, 3874, 3935, 3970
6624, 3713, 3971, 3523
6625, 3971, 3714, 3972
6626, 546, 3973, 3714
6627, 3972, 3714, 3973
6628, 546, 3974, 3973
6629, 3973, 3976, 3972
6630, 546, 545, 3974
6631, 4628, 3976, 545
6632, 4633, 3980, 3981
6633, 1193, 3984, 3985
6634, 545, 3976, 3974
6635, 3976, 3975, 3977
6636, 3977, 3975, 3979
6637, 3972, 3977, 3874
6638, 4628, 4629, 4633
6639, 1193, 7700, 1192
6640, 4633, 3981, 3979
6641, 3978, 3985, 4024
6642, 4631, 543, 5012
6643, 7700, 3983, 1192
6644, 4633, 3979, 3975
6645, 3980, 3982, 3983
6646, 5042, 5041, 3982
6647, 4634, 1192, 3982
6648, 3980, 3983, 3981
6649, 1192, 3983, 3982
6650, 1194, 3935, 3984
6651, 3874, 4024, 3935
6652, 3935, 3985, 3984
6653, 4024, 3874, 3977
6654, 4611, 3986, 3764
6655, 3987, 3986, 3944
6656, 3944, 4617, 5002
6657, 3893, 3987, 3622
6658, 3944, 3988, 3987
6659, 3762, 2332, 5002
6660, 4618, 3989, 3772
6661, 3990, 3989, 3950
6662, 3950, 4624, 5007
6663, 3898, 3990, 2827
6664, 3950, 3991, 3990
6665, 3770, 2338, 5007
6666, 4929, 3900, 3775
6667, 7697, 3992, 3953
6668, 3994, 3911, 3786
6669, 3995, 3993, 3960
6670, 4635, 3786, 3959
6671, 3960, 3993, 3994
6672, 800, 4027, 4002
6673, 3995, 800, 4110
6674, 4636, 3996, 4635
6675, 4029, 3907, 2962
6676, 4054, 4077, 3997
6677, 4002, 4694, 4001
6678, 2962, 4597, 4604
6679, 3997, 4003, 4004
6680, 3997, 4077, 4694
6681, 4003, 4027, 3995
6682, 4004, 4054, 3997
6683, 4694, 4027, 3997
6684, 4029, 4004, 4028
6685, 3995, 3960, 4003
6686, 4055, 4030, 4054
6687, 4006, 4005, 3915
6688, 4005, 3963, 4007
6689, 3962, 4006, 3915
6690, 4006, 387, 4009
6691, 4007, 4009, 4008
6692, 3916, 3964, 4007
6693, 386, 4010, 4008
6694, 4008, 4010, 4012
6695, 4009, 3963, 4006
6696, 386, 4008, 4009
6697, 386, 385, 4010
6698, 4012, 4010, 4059
6699, 4062, 4070, 4061
6700, 4056, 4013, 4014
6701, 4059, 4010, 385
6702, 4012, 4011, 4031
6703, 1030, 3965, 4013
6704, 4014, 3965, 3916
6705, 3916, 4031, 4014
6706, 4033, 4014, 4031
6707, 4016, 4015, 3810
6708, 4533, 4015, 3966
6709, 4017, 1060, 1061
6710, 3966, 4016, 4046
6711, 5332, 5334, 1062
6712, 3966, 4046, 3919
6713, 3923, 4018, 3827
6714, 4018, 3968, 4049
6715, 426, 4019, 427
6716, 4018, 4019, 3968
6717, 4637, 4049, 3968
6718, 4050, 4638, 4640
6719, 4022, 4021, 3861
6720, 4561, 4021, 3969
6721, 4023, 897, 898
6722, 3969, 4022, 4052
6723, 5353, 5356, 899
6724, 3969, 4052, 3931
6725, 3978, 4024, 3979
6726, 3935, 4024, 3985
6727, 3759, 4025, 2332
6728, 3944, 4025, 3988
6729, 3767, 4026, 2338
6730, 3950, 4026, 3991
6731, 3995, 4027, 800
6732, 3997, 4027, 4003
6733, 4029, 4028, 3996
6734, 4003, 4028, 4004
6735, 4029, 3996, 4636
6736, 4055, 4029, 2962
6737, 5373, 4597, 3329
6738, 5368, 5378, 7709
6739, 4012, 4031, 3916
6740, 4033, 4031, 4057
6741, 4039, 4040, 4070
6742, 4035, 4032, 4039
6743, 4057, 4031, 4011
6744, 4034, 4033, 4032
6745, 4035, 4034, 4032
6746, 4056, 1029, 4013
6747, 4041, 4038, 4044
6748, 4034, 4037, 1029
6749, 4040, 4039, 4032
6750, 4042, 4063, 4072
6751, 4041, 1027, 4038
6752, 4035, 1028, 4037
6753, 4044, 1028, 4035
6754, 4033, 4057, 4032
6755, 4044, 4036, 4041
6756, 4011, 4058, 4040
6757, 384, 4060, 4058
6758, 4064, 4043, 4076
6759, 4044, 4039, 4036
6760, 4036, 4039, 4070
6761, 4065, 4082, 4086
6762, 4064, 1026, 4043
6763, 4076, 1027, 4041
6764, 1028, 4044, 4038
6765, 4546, 4541, 4544
6766, 4542, 417, 4539
6767, 4016, 4017, 4046
6768, 4047, 4046, 4017
6769, 1061, 4047, 4017
6770, 4045, 4544, 4550
6771, 3927, 4018, 4049
6772, 4020, 5056, 5049
6773, 4020, 4048, 4049
6774, 4049, 4048, 3927
6775, 4638, 4050, 4637
6776, 425, 4641, 4640
6777, 4574, 4569, 4572
6778, 4570, 258, 4567
6779, 4022, 4023, 4052
6780, 4053, 4052, 4023
6781, 898, 4053, 4023
6782, 4051, 4572, 4578
6783, 4004, 4029, 4055
6784, 4077, 4054, 5409
6785, 4603, 5369, 4601
6786, 4004, 4055, 4054
6787, 4033, 4056, 4014
6788, 1029, 4056, 4034
6789, 4011, 4040, 4057
6790, 4032, 4057, 4040
6791, 4059, 4058, 4011
6792, 4060, 4069, 383
6793, 4012, 4059, 4011
6794, 384, 4059, 385
6795, 4062, 4060, 4071
6796, 4040, 4058, 4061
6797, 4058, 4060, 4061
6798, 4061, 4060, 4062
6799, 4071, 4060, 383
6800, 4071, 4072, 4062
6801, 4062, 4063, 4036
6802, 4076, 4042, 4064
6803, 4079, 4083, 4084
6804, 1026, 4064, 4066
6805, 4083, 381, 4087
6806, 1026, 4066, 1025
6807, 4075, 4066, 4064
6808, 4066, 4082, 4081
6809, 4072, 4073, 4080
6810, 4086, 4082, 4067
6811, 4643, 4001, 5414
6812, 4061, 4070, 4040
6813, 4060, 384, 4069
6814, 4036, 4070, 4062
6815, 383, 4078, 4071
6816, 4073, 4072, 4071
6817, 4062, 4072, 4063
6818, 4071, 4078, 4073
6819, 380, 4662, 4695
6820, 4042, 4080, 4067
6821, 4645, 4648, 4649
6822, 1024, 1025, 4644
6823, 4064, 4067, 4075
6824, 4075, 4067, 4082
6825, 4076, 4063, 4042
6826, 1027, 4076, 4043
6827, 5409, 4054, 4030
6828, 5414, 4694, 4068
6829, 383, 382, 4078
6830, 4073, 4078, 382
6831, 381, 4083, 4079
6832, 4086, 4080, 4084
6833, 4072, 4080, 4042
6834, 382, 4079, 4084
6835, 4082, 4066, 4075
6836, 4644, 4081, 4074
6837, 4648, 4082, 4065
6838, 4082, 4074, 4081
6839, 4073, 4084, 4080
6840, 4084, 4073, 382
6841, 4086, 4083, 4065
6842, 379, 4661, 7702
6843, 4087, 4649, 4083
6844, 4080, 4086, 4067
6845, 4083, 4086, 4084
6846, 4695, 4087, 381
6847, 4087, 4085, 4649
6848, 4835, 4841, 5283
6849, 370, 4356, 4354
6850, 372, 4842, 373
6851, 4692, 4693, 5069
6852, 4697, 5084, 5424
6853, 5094, 906, 5091
6854, 5087, 4969, 4556
6855, 5125, 4699, 268
6856, 5822, 5825, 5820
6857, 5135, 4715, 4720
6858, 5132, 227, 5131
6859, 869, 4832, 5134
6860, 213, 5527, 5526
6861, 5152, 5516, 5148
6862, 211, 210, 4856
6863, 4393, 851, 5288
6864, 4730, 5153, 5528
6865, 4882, 4888, 529
6866, 531, 5538, 5537
6867, 5548, 5572, 5571
6868, 4735, 4734, 4744
6869, 568, 4364, 4736
6870, 4744, 4745, 570
6871, 4763, 4761, 4762
6872, 5180, 5615, 4768
6873, 5280, 4827, 5279
6874, 4771, 5188, 5631
6875, 5622, 5629, 5627
6876, 4436, 109, 4438
6877, 747, 4426, 4431
6878, 4772, 5190, 5677
6879, 5292, 743, 744
6880, 4869, 4870, 4872
6881, 5195, 4774, 4868
6882, 5197, 4775, 5693
6883, 5681, 4773, 5679
6884, 91, 4874, 92
6885, 4456, 4459, 4106
6886, 4463, 93, 4458
6887, 4897, 4899, 4467
6888, 4479, 706, 4472
6889, 4477, 4369, 4478
6890, 5298, 5299, 66
6891, 4501, 4495, 4497
6892, 4110, 1309, 3995
6893, 802, 4110, 801
6894, 1317, 4588, 4592
6895, 639, 4111, 638
6896, 807, 4112, 806
6897, 3887, 4112, 1320
6898, 644, 4113, 643
6899, 2860, 4113, 1322
6900, 4112, 4114, 1320
6901, 808, 4114, 807
6902, 4113, 4115, 1322
6903, 645, 4115, 644
6904, 4116, 1443, 1380
6905, 238, 4116, 1444
6906, 2193, 4117, 1381
6907, 4118, 1445, 183
6908, 1446, 4118, 182
6909, 1445, 4118, 4117
6910, 141, 4119, 142
6911, 4119, 1467, 4120
6912, 2492, 4120, 1467
6913, 2932, 4120, 1390
6914, 4121, 1478, 1395
6915, 79, 4121, 1479
6916, 1404, 1490, 4122
6917, 4123, 1490, 466
6918, 1491, 4123, 465
6919, 1490, 4123, 4122
6920, 4272, 4269, 4270
6921, 4125, 1447, 2073
6922, 1446, 4125, 1381
6923, 4125, 4124, 4271
6924, 1607, 4126, 1471
6925, 4266, 4126, 1611
6926, 1610, 2465, 4128
6927, 1264, 4129, 1263
6928, 1262, 4128, 1954
6929, 4129, 4128, 1263
6930, 1542, 4129, 1264
6931, 4128, 4129, 4127
6932, 4138, 4134, 4776
6933, 3298, 4776, 3779
6934, 3623, 4131, 1645
6935, 4132, 4131, 1646
6936, 3264, 4132, 1646
6937, 1122, 4132, 1644
6938, 4786, 4783, 5734
6939, 5202, 5209, 5225
6940, 4144, 4134, 4138
6941, 4144, 4138, 4137
6942, 4150, 4152, 4140
6943, 4146, 4149, 4148
6944, 4780, 4778, 4779
6945, 4139, 4138, 1645
6946, 4156, 4161, 4130
6947, 4132, 1122, 4130
6948, 4138, 4139, 4137
6949, 4146, 4148, 4140
6950, 4143, 4149, 4146
6951, 4175, 4171, 4195
6952, 4144, 4153, 4134
6953, 4142, 4157, 4145
6954, 4141, 4158, 4162
6955, 4161, 4139, 4130
6956, 4137, 4161, 4146
6957, 4153, 4140, 4152
6958, 4137, 4146, 4144
6959, 4144, 4146, 4140
6960, 4795, 4793, 4787
6961, 4147, 4792, 4788
6962, 4796, 4793, 4788
6963, 4791, 4148, 4147
6964, 4150, 4148, 4791
6965, 4149, 4143, 4157
6966, 4147, 4148, 4149
6967, 4152, 4162, 4158
6968, 4140, 4148, 4150
6969, 4172, 4158, 4166
6970, 4183, 4180, 3309
6971, 3779, 4155, 4160
6972, 4153, 4144, 4140
6973, 4153, 4152, 4159
6974, 3779, 4776, 4155
6975, 4159, 4154, 4153
6976, 4182, 4173, 4160
6977, 4153, 4154, 4155
6978, 4160, 4155, 4154
6979, 4157, 4156, 4145
6980, 4161, 4143, 4146
6981, 4157, 4142, 4794
6982, 4157, 4143, 4161
6983, 4168, 4167, 4158
6984, 1126, 3307, 4174
6985, 4172, 4152, 4158
6986, 4182, 4160, 4154
6987, 4193, 4166, 4185
6988, 4179, 4154, 4159
6989, 4139, 4161, 4137
6990, 4157, 4161, 4156
6991, 4152, 4150, 4162
6992, 4141, 4162, 4150
6993, 4168, 4170, 4165
6994, 4163, 4175, 4195
6995, 4167, 4190, 4166
6996, 4166, 4190, 4164
6997, 4789, 4791, 4788
6998, 4175, 4176, 4165
6999, 4167, 4166, 4158
7000, 4174, 4182, 4151
7001, 4168, 4158, 4141
7002, 4165, 4176, 4190
7003, 4141, 4789, 4170
7004, 4165, 4167, 4168
7005, 4192, 4798, 4799
7006, 4171, 4175, 4170
7007, 4141, 4170, 4168
7008, 4170, 4169, 4171
7009, 4191, 4194, 4793
7010, 4797, 4799, 4798
7011, 3307, 4173, 4174
7012, 4183, 4151, 4182
7013, 4159, 4172, 4193
7014, 4180, 4186, 4184
7015, 4152, 4172, 4159
7016, 3303, 4173, 3307
7017, 4176, 4175, 4163
7018, 4170, 4175, 4165
7019, 4780, 4777, 4187
7020, 4165, 4190, 4167
7021, 5209, 5204, 5225
7022, 4169, 4194, 4171
7023, 4778, 4781, 4783
7024, 4179, 4159, 4193
7025, 1126, 4174, 4151
7026, 4528, 4181, 3303
7027, 4164, 4185, 4166
7028, 4160, 4181, 3779
7029, 4185, 4186, 4180
7030, 4182, 4179, 4183
7031, 4151, 4183, 3309
7032, 4180, 4183, 4179
7033, 3309, 4180, 4184
7034, 4180, 4179, 4193
7035, 4786, 4779, 4778
7036, 4184, 4186, 3284
7037, 4778, 4783, 4786
7038, 4186, 4164, 4187
7039, 4190, 4187, 4164
7040, 4187, 4777, 4186
7041, 4778, 4780, 4781
7042, 4187, 4190, 4176
7043, 4169, 4793, 4194
7044, 5213, 4191, 4795
7045, 4192, 4195, 4798
7046, 5200, 5199, 4192
7047, 4166, 4193, 4172
7048, 4180, 4193, 4185
7049, 4788, 4793, 4169
7050, 4798, 4194, 4191
7051, 4798, 4195, 4171
7052, 5199, 4195, 4192
7053, 4204, 4200, 4800
7054, 3283, 4800, 3778
7055, 3625, 4197, 1650
7056, 4198, 4197, 1651
7057, 3266, 4198, 1651
7058, 959, 4198, 1649
7059, 4810, 4807, 5745
7060, 5242, 5249, 5265
7061, 4210, 4200, 4204
7062, 4210, 4204, 4203
7063, 4216, 4218, 4206
7064, 4212, 4215, 4214
7065, 4804, 4802, 4803
7066, 4205, 4204, 1650
7067, 4222, 4227, 4196
7068, 4198, 959, 4196
7069, 4204, 4205, 4203
7070, 4212, 4214, 4206
7071, 4209, 4215, 4212
7072, 4241, 4237, 4261
7073, 4210, 4219, 4200
7074, 4208, 4223, 4211
7075, 4207, 4224, 4228
7076, 4227, 4205, 4196
7077, 4203, 4227, 4212
7078, 4219, 4206, 4218
7079, 4203, 4212, 4210
7080, 4210, 4212, 4206
7081, 4819, 4817, 4811
7082, 4213, 4816, 4812
7083, 4820, 4817, 4812
7084, 4815, 4214, 4213
7085, 4216, 4214, 4815
7086, 4215, 4209, 4223
7087, 4213, 4214, 4215
7088, 4218, 4228, 4224
7089, 4206, 4214, 4216
7090, 4238, 4224, 4232
7091, 4249, 4246, 3294
7092, 3778, 4221, 4226
7093, 4219, 4210, 4206
7094, 4219, 4218, 4225
7095, 3778, 4800, 4221
7096, 4225, 4220, 4219
7097, 4248, 4239, 4226
7098, 4219, 4220, 4221
7099, 4226, 4221, 4220
7100, 4223, 4222, 4211
7101, 4227, 4209, 4212
7102, 4223, 4208, 4818
7103, 4223, 4209, 4227
7104, 4234, 4233, 4224
7105, 963, 3292, 4240
7106, 4238, 4218, 4224
7107, 4248, 4226, 4220
7108, 4259, 4232, 4251
7109, 4245, 4220, 4225
7110, 4205, 4227, 4203
7111, 4223, 4227, 4222
7112, 4218, 4216, 4228
7113, 4207, 4228, 4216
7114, 4234, 4236, 4231
7115, 4229, 4241, 4261
7116, 4233, 4256, 4232
7117, 4232, 4256, 4230
7118, 4813, 4815, 4812
7119, 4241, 4242, 4231
7120, 4233, 4232, 4224
7121, 4240, 4248, 4217
7122, 4234, 4224, 4207
7123, 4231, 4242, 4256
7124, 4207, 4813, 4236
7125, 4231, 4233, 4234
7126, 4258, 4822, 4823
7127, 4237, 4241, 4236
7128, 4207, 4236, 4234
7129, 4236, 4235, 4237
7130, 4257, 4260, 4817
7131, 4821, 4823, 4822
7132, 3292, 4239, 4240
7133, 4249, 4217, 4248
7134, 4225, 4238, 4259
7135, 4246, 4252, 4250
7136, 4218, 4238, 4225
7137, 3288, 4239, 3292
7138, 4242, 4241, 4229
7139, 4236, 4241, 4231
7140, 4804, 4801, 4253
7141, 4231, 4256, 4233
7142, 5249, 5244, 5265
7143, 4235, 4260, 4237
7144, 4802, 4805, 4807
7145, 4245, 4225, 4259
7146, 963, 4240, 4217
7147, 4527, 4247, 3288
7148, 4230, 4251, 4232
7149, 4226, 4247, 3778
7150, 4251, 4252, 4246
7151, 4248, 4245, 4249
7152, 4217, 4249, 3294
7153, 4246, 4249, 4245
7154, 3294, 4246, 4250
7155, 4246, 4245, 4259
7156, 4810, 4803, 4802
7157, 4250, 4252, 2829
7158, 4802, 4807, 4810
7159, 4252, 4230, 4253
7160, 4256, 4253, 4230
7161, 4253, 4801, 4252
7162, 4802, 4804, 4805
7163, 4253, 4256, 4242
7164, 4235, 4817, 4260
7165, 5253, 4257, 4819
7166, 4258, 4261, 4822
7167, 5240, 5239, 4258
7168, 4232, 4259, 4238
7169, 4246, 4259, 4251
7170, 4812, 4817, 4235
7171, 4822, 4260, 4257
7172, 4822, 4261, 4237
7173, 5239, 4261, 4258
7174, 1741, 4824, 1413
7175, 4825, 4263, 4824
7176, 4824, 4263, 4262
7177, 1464, 1938, 4264
7178, 1938, 1939, 4264
7179, 4264, 1939, 2488
7180, 4262, 4265, 1335
7181, 1414, 4265, 4263
7182, 1925, 4266, 1611
7183, 2938, 4266, 1747
7184, 1382, 4274, 4267
7185, 4275, 4274, 1532
7186, 1934, 4268, 1758
7187, 4269, 4268, 1449
7188, 1449, 1756, 4270
7189, 4269, 4272, 4273
7190, 1447, 4271, 4270
7191, 4271, 4124, 4272
7192, 4125, 4271, 1447
7193, 4272, 4124, 1530
7194, 4273, 4272, 1530
7195, 4270, 4271, 4272
7196, 1600, 4273, 1530
7197, 4269, 4273, 1382
7198, 1603, 4274, 1382
7199, 1602, 4277, 1532
7200, 4275, 4277, 4278
7201, 4276, 1419, 1758
7202, 4279, 4267, 4274
7203, 4278, 4276, 4275
7204, 4278, 4277, 1409
7205, 1532, 4277, 4275
7206, 2771, 4278, 1409
7207, 1419, 4278, 1591
7208, 4275, 4276, 4279
7209, 4267, 4279, 4276
7210, 1752, 4280, 1491
7211, 4281, 4280, 1931
7212, 4280, 4281, 1404
7213, 2270, 4281, 1931
7214, 1577, 4282, 1459
7215, 4306, 4282, 1386
7216, 1667, 4283, 2063
7217, 1728, 4283, 2064
7218, 2114, 1634, 4285
7219, 4284, 4286, 2536
7220, 1634, 2115, 4285
7221, 4286, 2115, 2031
7222, 2115, 4286, 4285
7223, 2031, 1821, 4286
7224, 2033, 4287, 1820
7225, 4285, 4287, 2114
7226, 2071, 4288, 1418
7227, 4288, 2128, 1348
7228, 4740, 4750, 4751
7229, 4828, 4826, 2683
7230, 4411, 4412, 4413
7231, 2689, 4859, 2236
7232, 4291, 4292, 4293
7233, 4295, 4291, 2249
7234, 676, 677, 4292
7235, 4293, 4292, 677
7236, 4297, 677, 678
7237, 4294, 4293, 3202
7238, 3201, 4294, 3202
7239, 4291, 4294, 2249
7240, 3200, 4295, 2249
7241, 4296, 4295, 3198
7242, 4292, 4296, 676
7243, 4296, 4291, 4295
7244, 3202, 4297, 3598
7245, 677, 4297, 4293
7246, 1106, 4298, 1434
7247, 4299, 4298, 1107
7248, 1108, 4299, 1107
7249, 1492, 1405, 4300
7250, 4281, 4300, 1405
7251, 4298, 4300, 2270
7252, 2266, 1420, 4301
7253, 1420, 2273, 4301
7254, 140, 4302, 1467
7255, 139, 138, 4303
7256, 139, 4303, 4302
7257, 138, 1470, 4303
7258, 1586, 4304, 1412
7259, 4305, 4304, 1500
7260, 4305, 1500, 7696
7261, 2301, 4305, 2300
7262, 1612, 4306, 1386
7263, 1458, 4306, 2306
7264, 4308, 4307, 1622
7265, 1982, 288, 4309
7266, 2514, 4308, 1622
7267, 2945, 4308, 2510
7268, 288, 287, 4309
7269, 2794, 4309, 287
7270, 1885, 4310, 1717
7271, 1103, 4310, 1886
7272, 1521, 4311, 1569
7273, 4312, 4311, 2373
7274, 1435, 4312, 2373
7275, 462, 4312, 1522
7276, 312, 4313, 313
7277, 1714, 4313, 1880
7278, 1707, 4314, 2093
7279, 2463, 4314, 2464
7280, 2478, 4315, 1349
7281, 1348, 4315, 2480
7282, 23, 4316, 1476
7283, 21, 4316, 22
7284, 2107, 4317, 1628
7285, 2011, 4317, 2519
7286, 4320, 4318, 1214
7287, 4319, 2532, 2533
7288, 2322, 4319, 2533
7289, 1213, 4319, 2811
7290, 4320, 4321, 4322
7291, 4323, 4320, 2233
7292, 1214, 1215, 4321
7293, 4322, 4321, 1215
7294, 1216, 4322, 1215
7295, 2233, 4322, 4289
7296, 2233, 4324, 4323
7297, 4325, 2531, 2533
7298, 4828, 4326, 4324
7299, 2017, 4327, 2421
7300, 4323, 4324, 4325
7301, 4324, 2421, 4327
7302, 4828, 4324, 2233
7303, 4326, 4828, 3138
7304, 2531, 4327, 1813
7305, 4324, 4327, 4325
7306, 1796, 936, 4329
7307, 2577, 1621, 4328
7308, 937, 938, 4829
7309, 4328, 4329, 4831
7310, 4333, 4330, 4332
7311, 4335, 3081, 4334
7312, 2984, 4332, 872
7313, 4330, 871, 4331
7314, 4333, 4332, 2599
7315, 4333, 2599, 4362
7316, 4335, 4333, 2220
7317, 4336, 4334, 3081
7318, 871, 4330, 4334
7319, 4333, 4335, 4330
7320, 3081, 4335, 2220
7321, 3081, 4855, 4336
7322, 871, 4336, 870
7323, 4854, 2650, 4361
7324, 4706, 5134, 4705
7325, 4344, 4345, 4340
7326, 2604, 4341, 2201
7327, 1011, 1012, 4339
7328, 4344, 4339, 1012
7329, 4833, 4346, 4347
7330, 4343, 4342, 4341
7331, 4338, 4344, 4343
7332, 2992, 4342, 2605
7333, 2201, 4341, 4342
7334, 4341, 4338, 4343
7335, 4347, 4348, 4340
7336, 4342, 4343, 4357
7337, 4345, 4344, 1012
7338, 4343, 4344, 4340
7339, 1012, 1013, 4345
7340, 4347, 4345, 1013
7341, 1014, 1015, 4834
7342, 4340, 4348, 4343
7343, 4833, 4347, 1013
7344, 4348, 4347, 4346
7345, 4346, 4349, 4348
7346, 4358, 4349, 4353
7347, 4834, 4352, 1014
7348, 4351, 4353, 4354
7349, 4835, 5284, 1016
7350, 4349, 4352, 4088
7351, 4356, 369, 4355
7352, 2605, 4342, 4357
7353, 4352, 4346, 4833
7354, 4088, 4352, 4350
7355, 4354, 4353, 4088
7356, 4359, 4358, 4351
7357, 4836, 4838, 4839
7358, 4354, 4838, 370
7359, 2605, 4355, 2991
7360, 4356, 4355, 4351
7361, 4354, 4356, 4351
7362, 369, 4356, 370
7363, 4358, 4357, 4348
7364, 4355, 4359, 4351
7365, 4349, 4358, 4348
7366, 4351, 4358, 4353
7367, 2605, 4359, 4355
7368, 4358, 4359, 4357
7369, 269, 268, 5286
7370, 3929, 3683, 4972
7371, 4361, 230, 4707
7372, 4705, 4854, 4704
7373, 3078, 4362, 1624
7374, 4333, 4362, 2651
7375, 4881, 2223, 4396
7376, 4363, 4880, 4728
7377, 4738, 5159, 4826
7378, 4736, 4737, 4734
7379, 4857, 5180, 4365
7380, 4412, 4858, 5287
7381, 2707, 4421, 2245
7382, 4422, 4366, 4423
7383, 4861, 2252, 4863
7384, 4862, 4865, 4367
7385, 2724, 4446, 4451
7386, 4368, 4457, 4458
7387, 70, 69, 4483
7388, 4475, 4471, 3223
7389, 2727, 3224, 4371
7390, 2822, 1638, 4370
7391, 4372, 4371, 2254
7392, 4372, 4373, 4371
7393, 2254, 4374, 4372
7394, 4372, 4374, 4375
7395, 708, 709, 4373
7396, 4373, 709, 2822
7397, 3222, 4374, 2254
7398, 4375, 4374, 3223
7399, 4471, 4375, 3223
7400, 708, 4375, 707
7401, 2848, 4376, 1052
7402, 2878, 4376, 2877
7403, 3275, 4377, 2218
7404, 3274, 4377, 2884
7405, 3279, 4378, 889
7406, 2890, 4378, 2889
7407, 4379, 2367, 2917
7408, 1353, 4379, 2922
7409, 19, 4380, 1550
7410, 18, 17, 4876
7411, 2499, 4381, 1780
7412, 2501, 4381, 2502
7413, 3347, 4382, 1614
7414, 3789, 4382, 2986
7415, 4384, 2207, 3388
7416, 2207, 4384, 4383
7417, 2620, 3023, 4387
7418, 4386, 3025, 4383
7419, 4388, 4386, 4385
7420, 4387, 4384, 2620
7421, 4384, 4386, 4383
7422, 4385, 2208, 4388
7423, 3394, 4387, 3023
7424, 4384, 4387, 4385
7425, 3399, 4388, 2208
7426, 3025, 4388, 2623
7427, 2654, 3087, 4389
7428, 3697, 4389, 3087
7429, 4391, 4390, 849
7430, 3103, 4390, 3104
7431, 851, 4393, 4397
7432, 3694, 4394, 2223
7433, 849, 850, 4392
7434, 4397, 4392, 850
7435, 5288, 5289, 4877
7436, 4394, 4396, 2223
7437, 3104, 4391, 4394
7438, 4391, 4397, 4878
7439, 4879, 4395, 4878
7440, 4395, 4879, 4880
7441, 4878, 4394, 4391
7442, 4395, 4880, 4881
7443, 851, 4397, 850
7444, 4878, 4397, 4393
7445, 4399, 4398, 1166
7446, 3496, 4398, 3115
7447, 4400, 1166, 1167
7448, 4399, 3128, 4401
7449, 3128, 4400, 3515
7450, 1166, 4400, 4399
7451, 4401, 3128, 3517
7452, 4401, 4402, 4403
7453, 3114, 4402, 3116
7454, 4403, 4402, 2670
7455, 3117, 4403, 2670
7456, 4399, 4403, 3115
7457, 3514, 4404, 2681
7458, 2680, 3134, 4404
7459, 4884, 3710, 3934
7460, 4993, 4999, 4994
7461, 4407, 4406, 3146
7462, 4406, 4407, 4408
7463, 3146, 4409, 4407
7464, 2689, 4513, 3533
7465, 2688, 3531, 4408
7466, 2235, 4408, 3531
7467, 3146, 3532, 4414
7468, 4409, 3533, 4513
7469, 4409, 4513, 4514
7470, 4410, 4514, 4411
7471, 2236, 4412, 4411
7472, 1238, 3148, 4413
7473, 4858, 4412, 2236
7474, 4412, 4415, 4413
7475, 4415, 4412, 4290
7476, 1237, 1238, 4413
7477, 3533, 4414, 3729
7478, 3146, 4414, 4409
7479, 4415, 4290, 5280
7480, 1237, 4413, 4415
7481, 4416, 4417, 4418
7482, 2695, 4416, 3163
7483, 1245, 1246, 4417
7484, 4418, 4417, 1246
7485, 3538, 4418, 1246
7486, 4419, 4418, 3155
7487, 3158, 4419, 3155
7488, 3163, 4419, 3164
7489, 3551, 4420, 3166
7490, 3550, 4420, 3168
7491, 4421, 3182, 4433
7492, 4423, 4421, 4422
7493, 4430, 4428, 4422
7494, 4427, 4429, 4431
7495, 4424, 4423, 4366
7496, 2245, 4421, 4423
7497, 4424, 4366, 4425
7498, 2245, 4424, 2708
7499, 4425, 4366, 4426
7500, 749, 4425, 748
7501, 4422, 4427, 4366
7502, 4426, 4366, 4427
7503, 4422, 4428, 4427
7504, 746, 747, 4431
7505, 4422, 4433, 4430
7506, 4895, 4102, 4894
7507, 4428, 4432, 4427
7508, 4441, 4894, 4102
7509, 3571, 4430, 3182
7510, 4435, 111, 110
7511, 4427, 4431, 4426
7512, 4431, 4429, 4893
7513, 4102, 4432, 4428
7514, 4429, 4427, 4432
7515, 4421, 4433, 4422
7516, 3182, 4430, 4433
7517, 4430, 4435, 4434
7518, 4435, 110, 4436
7519, 111, 4435, 4430
7520, 4436, 110, 109
7521, 5192, 4438, 108
7522, 4434, 4435, 4436
7523, 4437, 4438, 5192
7524, 4441, 4437, 4440
7525, 108, 4438, 109
7526, 4438, 4437, 4439
7527, 4437, 4889, 4440
7528, 4434, 4439, 4102
7529, 4890, 5293, 5290
7530, 4891, 744, 745
7531, 4437, 4441, 4439
7532, 4441, 4440, 5293
7533, 4441, 5293, 4442
7534, 746, 4892, 745
7535, 4447, 4443, 727
7536, 4443, 3218, 4444
7537, 4446, 4444, 3218
7538, 4444, 2253, 3620
7539, 726, 4443, 4445
7540, 4444, 4445, 4443
7541, 4455, 4451, 3218
7542, 2253, 4446, 3217
7543, 4447, 4448, 4452
7544, 4368, 2724, 4451
7545, 4453, 4449, 4452
7546, 4447, 727, 4448
7547, 4453, 4454, 4459
7548, 4447, 4456, 4455
7549, 4450, 4456, 4457
7550, 3218, 4451, 4446
7551, 4368, 4451, 4450
7552, 4453, 4452, 728
7553, 4456, 4452, 4449
7554, 728, 729, 4453
7555, 4454, 4453, 729
7556, 729, 4896, 4454
7557, 730, 4897, 4467
7558, 4447, 4452, 4456
7559, 4451, 4455, 4450
7560, 4457, 4456, 4106
7561, 4455, 4456, 4450
7562, 4457, 4106, 4458
7563, 4450, 4457, 4368
7564, 4462, 4454, 4910
7565, 4461, 4458, 93
7566, 4453, 4459, 4449
7567, 4462, 4459, 4454
7568, 4467, 4910, 4896
7569, 4460, 4464, 4463
7570, 93, 92, 4461
7571, 4368, 4461, 92
7572, 4462, 4106, 4459
7573, 4463, 4462, 4460
7574, 4464, 4460, 4466
7575, 4465, 93, 4463
7576, 4466, 4470, 4464
7577, 4465, 4469, 94
7578, 4460, 4462, 4910
7579, 4469, 4465, 4463
7580, 4470, 4466, 4107
7581, 4107, 4466, 4467
7582, 4466, 4460, 4910
7583, 4908, 5296, 4898
7584, 95, 4468, 4911
7585, 4463, 4464, 4469
7586, 4470, 4912, 4464
7587, 5296, 4470, 4107
7588, 4912, 4470, 4468
7589, 4476, 4473, 4475
7590, 4480, 4471, 4475
7591, 4369, 4477, 4473
7592, 4479, 4472, 4471
7593, 4474, 4479, 4480
7594, 4474, 4480, 4485
7595, 4474, 4485, 4482
7596, 4476, 4475, 3223
7597, 4475, 4473, 4480
7598, 4374, 4476, 3223
7599, 4369, 4476, 2726
7600, 4369, 70, 4483
7601, 4480, 4477, 4108
7602, 4487, 68, 4490
7603, 4108, 4477, 4478
7604, 4480, 4479, 4471
7605, 4482, 4479, 4474
7606, 4477, 4480, 4473
7607, 4485, 4480, 4108
7608, 4108, 4478, 4489
7609, 705, 4481, 4498
7610, 705, 706, 4482
7611, 4479, 4482, 706
7612, 4486, 4483, 69
7613, 4369, 4483, 4478
7614, 4484, 4487, 4490
7615, 4494, 4495, 4496
7616, 4496, 4108, 4489
7617, 4482, 4485, 4481
7618, 4487, 4486, 69
7619, 4489, 4486, 4484
7620, 4491, 4488, 4490
7621, 4486, 4487, 4484
7622, 4488, 4491, 4493
7623, 4490, 4494, 4484
7624, 4496, 4485, 4108
7625, 4491, 4490, 68
7626, 4494, 4490, 4488
7627, 68, 67, 4491
7628, 67, 5299, 4493
7629, 66, 5300, 5298
7630, 4497, 4502, 4503
7631, 67, 4493, 4491
7632, 4493, 4492, 4913
7633, 4109, 4499, 4494
7634, 4484, 4494, 4489
7635, 4495, 4494, 4499
7636, 4498, 4495, 4501
7637, 4495, 4481, 4496
7638, 4485, 4496, 4481
7639, 4502, 4913, 4500
7640, 4501, 4497, 703
7641, 705, 4498, 704
7642, 4481, 4495, 4498
7643, 4502, 4499, 4109
7644, 4497, 4495, 4499
7645, 5301, 4914, 5304
7646, 4497, 4503, 703
7647, 703, 704, 4501
7648, 4501, 704, 4498
7649, 4913, 4502, 4109
7650, 4503, 4502, 4500
7651, 4492, 5297, 4500
7652, 4504, 703, 4503
7653, 3650, 4505, 1054
7654, 4503, 702, 4504
7655, 3353, 4505, 3351
7656, 3687, 4506, 891
7657, 3451, 4506, 3449
7658, 4508, 2197, 2106
7659, 4507, 4508, 4510
7660, 4510, 4508, 2558
7661, 4508, 4507, 4509
7662, 4508, 4509, 2197
7663, 2579, 4509, 4507
7664, 2558, 832, 4511
7665, 4512, 4510, 4511
7666, 2667, 4511, 3109
7667, 4511, 4510, 2558
7668, 3112, 4512, 2667
7669, 3489, 4510, 4512
7670, 4514, 2236, 4411
7671, 4407, 4409, 4514
7672, 4407, 4514, 4410
7673, 2236, 4514, 4513
7674, 3158, 4515, 3159
7675, 2693, 4515, 3539
7676, 4919, 5797, 4917
7677, 4586, 4590, 4594
7678, 4517, 3313, 4518
7679, 3312, 3628, 4517
7680, 3313, 4520, 4518
7681, 3314, 4952, 4950
7682, 4519, 3909, 4609
7683, 4517, 4519, 3312
7684, 4625, 4520, 3313
7685, 3630, 4522, 4954
7686, 4524, 1838, 3314
7687, 4518, 3314, 4523
7688, 4608, 4523, 1838
7689, 3785, 1841, 4942
7690, 4518, 4523, 3909
7691, 546, 4525, 547
7692, 4951, 3314, 4950
7693, 3713, 4525, 3714
7694, 4526, 3213, 3609
7695, 2252, 4526, 3754
7696, 3290, 4527, 3288
7697, 4527, 3291, 3951
7698, 3305, 4528, 3303
7699, 4528, 3306, 3945
7700, 3356, 4529, 3355
7701, 3652, 4529, 3357
7702, 414, 3808, 4530
7703, 4531, 4530, 3808
7704, 3811, 4531, 3808
7705, 4532, 4531, 3812
7706, 4533, 4532, 3812
7707, 416, 415, 4534
7708, 4536, 4533, 3812
7709, 4533, 4538, 4535
7710, 415, 4532, 4534
7711, 4537, 4532, 4533
7712, 4538, 4533, 3966
7713, 4540, 4543, 4542
7714, 3803, 4536, 3812
7715, 4015, 4536, 3807
7716, 4533, 4535, 4537
7717, 4534, 4537, 4535
7718, 3966, 3919, 4538
7719, 4540, 4538, 3919
7720, 416, 4535, 4539
7721, 4540, 4539, 4535
7722, 4538, 4540, 4535
7723, 4543, 3919, 4550
7724, 4945, 5334, 5332
7725, 4542, 4548, 417
7726, 4540, 4542, 4539
7727, 4548, 4542, 4541
7728, 4550, 4544, 4543
7729, 4542, 4543, 4541
7730, 4045, 4945, 4546
7731, 4541, 4543, 4544
7732, 5332, 1062, 5339
7733, 4548, 4549, 418
7734, 4045, 4546, 4544
7735, 4546, 4545, 4547
7736, 4948, 4958, 4959
7737, 419, 418, 4957
7738, 4549, 4548, 4541
7739, 417, 4548, 418
7740, 4546, 4549, 4541
7741, 418, 4549, 4547
7742, 4046, 4550, 3919
7743, 4045, 4550, 4047
7744, 3835, 4551, 3680
7745, 3056, 4551, 3837
7746, 2646, 4552, 3434
7747, 3680, 4552, 3838
7748, 909, 910, 4553
7749, 3929, 4553, 910
7750, 2646, 4851, 2217
7751, 4973, 4974, 4977
7752, 2217, 4555, 3839
7753, 4554, 3683, 4555
7754, 4971, 3842, 4972
7755, 4975, 4976, 4556
7756, 3454, 4557, 3453
7757, 3689, 4557, 3455
7758, 255, 3859, 4558
7759, 4559, 4558, 3859
7760, 3862, 4559, 3859
7761, 4560, 4559, 3863
7762, 4561, 4560, 3863
7763, 257, 256, 4562
7764, 4564, 4561, 3863
7765, 4561, 4566, 4563
7766, 256, 4560, 4562
7767, 4565, 4560, 4561
7768, 4566, 4561, 3969
7769, 4568, 4571, 4570
7770, 3854, 4564, 3863
7771, 4021, 4564, 3858
7772, 4561, 4563, 4565
7773, 4562, 4565, 4563
7774, 3969, 3931, 4566
7775, 4568, 4566, 3931
7776, 257, 4563, 4567
7777, 4568, 4567, 4563
7778, 4566, 4568, 4563
7779, 4571, 3931, 4578
7780, 5354, 5356, 5353
7781, 4570, 4576, 258
7782, 4568, 4570, 4567
7783, 4576, 4570, 4569
7784, 4578, 4572, 4571
7785, 4570, 4571, 4569
7786, 4051, 5354, 4574
7787, 4569, 4571, 4572
7788, 5353, 899, 5361
7789, 4576, 4577, 259
7790, 4051, 4574, 4572
7791, 4574, 4573, 4575
7792, 5352, 4981, 4982
7793, 260, 259, 4980
7794, 4577, 4576, 4569
7795, 258, 4576, 259
7796, 4574, 4577, 4569
7797, 259, 4577, 4575
7798, 4052, 4578, 3931
7799, 4051, 4578, 4053
7800, 1176, 1177, 4579
7801, 4992, 4579, 1177
7802, 1178, 5153, 4997
7803, 4996, 4998, 4999
7804, 687, 688, 4581
7805, 4866, 4581, 688
7806, 689, 5195, 4868
7807, 4873, 4867, 4869
7808, 3945, 4583, 3298
7809, 3622, 4583, 3893
7810, 3951, 4584, 3283
7811, 2827, 4584, 3898
7812, 4594, 3624, 4589
7813, 3776, 3904, 4585
7814, 4923, 4927, 4926
7815, 5330, 4590, 4586
7816, 3624, 4587, 4585
7817, 4587, 4590, 4588
7818, 4587, 4594, 4590
7819, 4592, 4111, 1317
7820, 3624, 4939, 4938
7821, 3953, 3992, 4929
7822, 4516, 4933, 4934
7823, 4111, 4592, 637
7824, 4516, 4917, 4933
7825, 5766, 7707, 4947
7826, 4588, 4590, 4592
7827, 4947, 4586, 5327
7828, 4944, 4947, 5327
7829, 4586, 4594, 5324
7830, 3624, 4594, 4587
7831, 5324, 4594, 4589
7832, 3777, 4595, 3903
7833, 5319, 4595, 3777
7834, 3953, 4928, 4931
7835, 3775, 4926, 4928
7836, 5371, 4603, 4601
7837, 2962, 3907, 4597
7838, 4000, 6045, 6051
7839, 6056, 6047, 6060
7840, 6015, 6017, 6049
7841, 4030, 4599, 4606
7842, 5001, 4599, 4604
7843, 5375, 5374, 4602
7844, 5001, 4604, 5374
7845, 5370, 5371, 6010
7846, 6010, 5371, 5372
7847, 4604, 4599, 2962
7848, 4055, 4599, 4030
7849, 376, 5417, 5067
7850, 796, 5368, 7709
7851, 4603, 4606, 5001
7852, 4603, 5001, 5374
7853, 3635, 7709, 3329
7854, 5411, 4603, 5371
7855, 5410, 5065, 5409
7856, 3909, 4608, 4609
7857, 4523, 4608, 3909
7858, 2426, 4609, 4608
7859, 3926, 4610, 1071
7860, 5049, 3925, 4048
7861, 4612, 4611, 3764
7862, 4613, 4611, 3889
7863, 2909, 4612, 3764
7864, 3889, 4612, 3758
7865, 4614, 4615, 2828
7866, 3760, 3762, 5002
7867, 4614, 2825, 4613
7868, 4615, 4613, 3889
7869, 4613, 4615, 4614
7870, 4620, 4618, 3894
7871, 4619, 4618, 3772
7872, 3763, 4613, 5006
7873, 3944, 4611, 3763
7874, 2904, 4619, 3772
7875, 3894, 4619, 3766
7876, 4621, 4622, 2834
7877, 3768, 3770, 5007
7878, 4621, 2831, 4620
7879, 4622, 4620, 3894
7880, 4620, 4622, 4621
7881, 4627, 3313, 4517
7882, 4520, 4625, 3957
7883, 3771, 4620, 5011
7884, 3950, 4618, 3771
7885, 4626, 3782, 3954
7886, 3959, 4625, 4626
7887, 3782, 4627, 3781
7888, 3313, 4627, 4626
7889, 4628, 544, 4629
7890, 3976, 4628, 3975
7891, 544, 4630, 4629
7892, 4630, 4631, 4632
7893, 544, 543, 4630
7894, 4630, 543, 4631
7895, 542, 5014, 5012
7896, 5041, 5043, 5044
7897, 4630, 4632, 4629
7898, 5042, 4632, 4631
7899, 4628, 4633, 3975
7900, 3980, 4633, 4629
7901, 4636, 4635, 3959
7902, 5041, 4634, 3982
7903, 4635, 3996, 4028
7904, 4626, 4636, 3959
7905, 4029, 4636, 3907
7906, 4019, 4637, 3968
7907, 4638, 4637, 426
7908, 426, 425, 4638
7909, 424, 4641, 425
7910, 5059, 5394, 5397
7911, 5048, 5051, 5055
7912, 425, 4640, 4638
7913, 5045, 4640, 4639
7914, 5394, 4641, 424
7915, 4639, 4640, 4641
7916, 5383, 4601, 5369
7917, 5809, 4642, 5412
7918, 4068, 5415, 5414
7919, 6045, 5416, 5413
7920, 4081, 4644, 1025
7921, 4648, 4647, 4074
7922, 7703, 4659, 4662
7923, 4658, 4660, 4652
7924, 4652, 4646, 4645
7925, 1024, 4646, 4651
7926, 4074, 4082, 4648
7927, 4646, 4647, 4645
7928, 4649, 4648, 4065
7929, 4645, 4647, 4648
7930, 4649, 4065, 4083
7931, 4649, 4085, 4659
7932, 4660, 4661, 4669
7933, 4687, 4681, 4664
7934, 4655, 4651, 4646
7935, 4655, 4653, 4651
7936, 4658, 4652, 4645
7937, 4652, 4650, 4653
7938, 4667, 4653, 4650
7939, 1023, 4653, 4657
7940, 4645, 4659, 4658
7941, 4660, 4650, 4652
7942, 4646, 4652, 4655
7943, 4653, 4655, 4652
7944, 4665, 4669, 4663
7945, 4656, 4674, 4673
7946, 4667, 4657, 4653
7947, 4670, 4657, 4656
7948, 4645, 4649, 4659
7949, 4658, 4654, 4660
7950, 4662, 4659, 4085
7951, 4654, 4658, 4659
7952, 4661, 4654, 7702
7953, 4660, 4654, 4661
7954, 379, 4663, 4661
7955, 4665, 4664, 4669
7956, 4695, 4662, 4085
7957, 380, 7701, 7703
7958, 379, 378, 4663
7959, 4665, 4663, 378
7960, 4682, 5066, 376
7961, 4667, 4668, 4680
7962, 4675, 4666, 377
7963, 4664, 4668, 4669
7964, 4682, 4684, 377
7965, 378, 4666, 4687
7966, 4668, 4667, 4650
7967, 4657, 4667, 4656
7968, 4650, 4660, 4669
7969, 4681, 4680, 4664
7970, 4669, 4661, 4663
7971, 4650, 4669, 4668
7972, 4673, 4670, 4656
7973, 1022, 4670, 4672
7974, 4681, 4674, 4680
7975, 4685, 4671, 4683
7976, 4673, 4672, 4670
7977, 4676, 4672, 4671
7978, 4656, 4680, 4674
7979, 4672, 4673, 4671
7980, 4681, 4687, 4675
7981, 4671, 4673, 4674
7982, 4681, 4683, 4674
7983, 4679, 4676, 4671
7984, 1021, 4676, 4678
7985, 4685, 5068, 4677
7986, 4696, 4089, 5072
7987, 4688, 4676, 4679
7988, 4678, 4688, 4686
7989, 4671, 4674, 4683
7990, 4677, 4686, 4688
7991, 4667, 4680, 4656
7992, 4664, 4680, 4668
7993, 4687, 4664, 4665
7994, 4683, 4681, 4675
7995, 5068, 376, 5067
7996, 4685, 4677, 4679
7997, 4675, 4684, 4683
7998, 4684, 4685, 4683
7999, 377, 4684, 4675
8000, 4685, 4684, 4682
8001, 4685, 4682, 5068
8002, 4685, 4679, 4671
8003, 4677, 5074, 4691
8004, 1019, 1020, 4690
8005, 378, 4687, 4665
8006, 4675, 4687, 4666
8007, 4676, 4688, 4678
8008, 4677, 4688, 4679
8009, 5071, 5074, 5075
8010, 5078, 5069, 4693
8011, 1020, 4686, 4690
8012, 4691, 4690, 4686
8013, 4677, 4691, 4686
8014, 4692, 4691, 4689
8015, 4692, 4689, 4693
8016, 4690, 4692, 1019
8017, 5070, 4693, 4689
8018, 5080, 5079, 4089
8019, 4694, 4002, 4027
8020, 4068, 4694, 4077
8021, 372, 4837, 4842
8022, 4087, 4695, 4085
8023, 4089, 5079, 5070
8024, 5425, 5085, 5424
8025, 4699, 5125, 5430
8026, 5087, 908, 4969
8027, 5130, 5126, 5127
8028, 266, 5084, 5432
8029, 269, 4974, 4852
8030, 5823, 5824, 5825
8031, 4710, 4717, 4703
8032, 5132, 4708, 227
8033, 4704, 4701, 4093
8034, 229, 228, 4702
8035, 4708, 4702, 228
8036, 5132, 4700, 5133
8037, 4708, 4709, 4701
8038, 4705, 4704, 4093
8039, 4707, 4704, 4361
8040, 4706, 4705, 4093
8041, 4336, 4855, 4337
8042, 4714, 4093, 4717
8043, 4711, 869, 5134
8044, 4702, 4707, 229
8045, 4704, 4707, 4701
8046, 227, 4708, 228
8047, 4709, 4708, 4703
8048, 4703, 5133, 4710
8049, 4701, 4709, 4093
8050, 867, 4718, 4715
8051, 4716, 4713, 4712
8052, 4715, 4712, 4710
8053, 4713, 4711, 4706
8054, 868, 4713, 4716
8055, 4711, 4713, 868
8056, 4714, 4713, 4706
8057, 4706, 4093, 4714
8058, 4093, 4709, 4717
8059, 4710, 4719, 4715
8060, 4719, 4720, 4715
8061, 4703, 4717, 4709
8062, 4718, 4716, 4712
8063, 4712, 4717, 4710
8064, 4716, 4718, 867
8065, 4712, 4715, 4718
8066, 5133, 4719, 4710
8067, 4720, 4719, 4092
8068, 4723, 4722, 4092
8069, 4720, 4726, 866
8070, 5821, 5820, 5826
8071, 4722, 4726, 4720
8072, 4723, 4092, 4700
8073, 4725, 4722, 4721
8074, 5823, 4700, 226
8075, 4722, 4723, 5822
8076, 4725, 5525, 4724
8077, 4724, 865, 5137
8078, 5525, 4725, 4721
8079, 4726, 4725, 4724
8080, 4725, 4726, 4722
8081, 4726, 4724, 5137
8082, 5140, 5527, 212
8083, 5516, 5514, 4094
8084, 4856, 4363, 5140
8085, 5144, 5145, 5150
8086, 5148, 5147, 4729
8087, 5526, 5149, 4727
8088, 5529, 5154, 5528
8089, 4096, 4996, 4997
8090, 530, 529, 4888
8091, 4731, 4096, 5533
8092, 531, 5155, 5538
8093, 5542, 5541, 4732
8094, 4098, 4741, 4754
8095, 4733, 4746, 4745
8096, 4734, 4735, 4736
8097, 4734, 4737, 4742
8098, 570, 569, 4735
8099, 4736, 4735, 569
8100, 568, 4736, 569
8101, 4737, 4736, 4364
8102, 4364, 2683, 5159
8103, 4742, 4737, 4098
8104, 1216, 4751, 4750
8105, 4737, 4739, 4098
8106, 4738, 4740, 4739
8107, 4752, 1217, 4753
8108, 4740, 4738, 4750
8109, 4752, 4753, 4741
8110, 4739, 4752, 4098
8111, 4740, 4752, 4739
8112, 4742, 4098, 4754
8113, 4744, 4742, 4733
8114, 4754, 4741, 4755
8115, 4743, 4755, 4757
8116, 4745, 4744, 4733
8117, 4735, 4744, 570
8118, 4733, 4760, 4746
8119, 570, 4745, 571
8120, 4748, 4746, 4099
8121, 4746, 4749, 571
8122, 4762, 4764, 4758
8123, 573, 572, 5160
8124, 4765, 4099, 4764
8125, 4747, 5160, 4749
8126, 571, 4749, 572
8127, 4746, 4748, 4749
8128, 4826, 4750, 4738
8129, 1216, 4750, 4289
8130, 1216, 1217, 4751
8131, 1217, 4740, 4751
8132, 1217, 4752, 4740
8133, 4098, 4752, 4741
8134, 1217, 1218, 4753
8135, 1218, 4741, 4753
8136, 4755, 4741, 1218
8137, 4742, 4754, 4743
8138, 4757, 4756, 1219
8139, 4743, 4754, 4755
8140, 4758, 1219, 1220
8141, 4755, 1218, 4756
8142, 4099, 4746, 4760
8143, 4762, 4758, 1220
8144, 4758, 4764, 4759
8145, 4743, 4757, 4759
8146, 4758, 4759, 4757
8147, 4743, 4760, 4733
8148, 4099, 4760, 4759
8149, 5162, 5163, 5166
8150, 4748, 4099, 4765
8151, 4763, 4762, 1220
8152, 4764, 4762, 4761
8153, 1220, 1221, 4763
8154, 4763, 1221, 5162
8155, 4765, 4764, 4761
8156, 4764, 4099, 4759
8157, 5161, 5167, 5168
8158, 4748, 4765, 4747
8159, 5167, 5161, 5166
8160, 5164, 5166, 5165
8161, 4767, 5167, 5169
8162, 5172, 5170, 5169
8163, 5615, 585, 5181
8164, 5187, 5182, 4768
8165, 5181, 5186, 5187
8166, 5886, 5882, 5884
8167, 5282, 5279, 4827
8168, 4770, 5281, 5185
8169, 5632, 5189, 5631
8170, 5181, 585, 5878
8171, 5678, 5191, 5677
8172, 4103, 5290, 4889
8173, 4870, 4869, 4773
8174, 5679, 4773, 4104
8175, 5692, 5196, 5691
8176, 4104, 4867, 4868
8177, 54, 5685, 55
8178, 5694, 5693, 4775
8179, 4776, 3298, 1645
8180, 4155, 4776, 4134
8181, 4189, 3284, 4777
8182, 4186, 4777, 3284
8183, 4781, 4187, 4176
8184, 5199, 4163, 4195
8185, 4188, 4189, 4779
8186, 4780, 4779, 4189
8187, 4777, 4780, 4189
8188, 4781, 4780, 4187
8189, 4163, 4784, 4176
8190, 5203, 4783, 4784
8191, 5207, 5202, 5208
8192, 4779, 4786, 4188
8193, 4784, 4783, 4781
8194, 5734, 5237, 4786
8195, 4176, 4784, 4781
8196, 4784, 4163, 5199
8197, 5200, 5202, 5207
8198, 5237, 4188, 4786
8199, 5734, 4783, 4782
8200, 5205, 5238, 5734
8201, 4787, 4793, 4796
8202, 4177, 4795, 4787
8203, 4789, 4788, 4169
8204, 4794, 4790, 4792
8205, 4170, 4789, 4169
8206, 4150, 4791, 4141
8207, 4794, 4792, 4147
8208, 4136, 4792, 4790
8209, 4788, 4791, 4147
8210, 4141, 4791, 4789
8211, 4149, 4157, 4794
8212, 4136, 4796, 4792
8213, 4149, 4794, 4147
8214, 4142, 4790, 4794
8215, 5217, 5219, 5215
8216, 4793, 4795, 4191
8217, 4792, 4796, 4788
8218, 4787, 4796, 4136
8219, 4797, 5213, 5212
8220, 5209, 5210, 5204
8221, 4194, 4798, 4171
8222, 4797, 4798, 4191
8223, 5728, 4799, 4797
8224, 5200, 4799, 4178
8225, 4800, 3283, 1650
8226, 4221, 4800, 4200
8227, 4255, 2829, 4801
8228, 4252, 4801, 2829
8229, 4805, 4253, 4242
8230, 5239, 4229, 4261
8231, 4254, 4255, 4803
8232, 4804, 4803, 4255
8233, 4801, 4804, 4255
8234, 4805, 4804, 4253
8235, 4229, 4808, 4242
8236, 5243, 4807, 4808
8237, 5247, 5242, 5248
8238, 4803, 4810, 4254
8239, 4808, 4807, 4805
8240, 5745, 5277, 4810
8241, 4242, 4808, 4805
8242, 4808, 4229, 5239
8243, 5240, 5242, 5247
8244, 5277, 4254, 4810
8245, 5745, 4807, 4806
8246, 5245, 5278, 5745
8247, 4811, 4817, 4820
8248, 4243, 4819, 4811
8249, 4813, 4812, 4235
8250, 4818, 4814, 4816
8251, 4236, 4813, 4235
8252, 4216, 4815, 4207
8253, 4818, 4816, 4213
8254, 4202, 4816, 4814
8255, 4812, 4815, 4213
8256, 4207, 4815, 4813
8257, 4215, 4223, 4818
8258, 4202, 4820, 4816
8259, 4215, 4818, 4213
8260, 4208, 4814, 4818
8261, 5257, 5259, 5255
8262, 4817, 4819, 4257
8263, 4816, 4820, 4812
8264, 4811, 4820, 4202
8265, 4821, 5253, 5252
8266, 5249, 5250, 5244
8267, 4260, 4822, 4237
8268, 4821, 4822, 4257
8269, 5739, 4823, 4821
8270, 5240, 4823, 4244
8271, 1413, 4824, 4262
8272, 4825, 4824, 1741
8273, 1920, 4825, 1741
8274, 4825, 1464, 4264
8275, 2233, 4289, 4826
8276, 4826, 4289, 4750
8277, 5280, 5287, 4827
8278, 5282, 4827, 5281
8279, 4826, 4828, 2233
8280, 3138, 4828, 2683
8281, 4830, 4829, 1437
8282, 937, 4829, 4329
8283, 2765, 4830, 1437
8284, 4831, 2766, 2577
8285, 4328, 4831, 2577
8286, 4829, 4831, 4329
8287, 869, 870, 4832
8288, 4336, 4832, 870
8289, 1013, 1014, 4833
8290, 4352, 4833, 1014
8291, 5283, 4834, 1015
8292, 4352, 4834, 4350
8293, 5081, 4847, 4849
8294, 5083, 5285, 4696
8295, 4839, 4354, 4088
8296, 4843, 4840, 4842
8297, 372, 371, 4837
8298, 4838, 4837, 371
8299, 370, 4838, 371
8300, 4839, 4838, 4354
8301, 4088, 4841, 4839
8302, 4845, 4840, 4843
8303, 4843, 4836, 4839
8304, 5285, 4846, 4696
8305, 4350, 4841, 4088
8306, 4847, 4835, 4849
8307, 4843, 4842, 4836
8308, 4842, 4840, 5285
8309, 4847, 4848, 4841
8310, 4847, 4841, 4835
8311, 4839, 4848, 4843
8312, 5077, 1018, 5078
8313, 4845, 4843, 4848
8314, 4846, 4844, 4089
8315, 4696, 4846, 4089
8316, 4840, 4845, 4846
8317, 4849, 4835, 1016
8318, 4847, 4844, 4845
8319, 4841, 4848, 4839
8320, 4845, 4848, 4847
8321, 5082, 4850, 1017
8322, 5080, 5081, 5082
8323, 4973, 4851, 4360
8324, 4849, 1016, 4850
8325, 4554, 2217, 4851
8326, 269, 5286, 4974
8327, 3070, 4852, 4360
8328, 4977, 4853, 4978
8329, 4976, 4975, 4091
8330, 4704, 4854, 4361
8331, 4855, 4705, 4337
8332, 3081, 4854, 4855
8333, 4705, 4855, 4854
8334, 3102, 4856, 210
8335, 5140, 4363, 4728
8336, 4857, 587, 5180
8337, 3150, 4857, 4365
8338, 4768, 5182, 4365
8339, 4858, 4100, 5281
8340, 5182, 4859, 4365
8341, 4858, 2236, 4859
8342, 4860, 51, 3214
8343, 4873, 4872, 4367
8344, 2723, 2252, 4861
8345, 4863, 2252, 4864
8346, 4862, 3750, 3940
8347, 4861, 4863, 4367
8348, 4864, 2252, 3753
8349, 4367, 4863, 4862
8350, 3750, 4862, 4864
8351, 4863, 4864, 4862
8352, 3885, 4866, 4865
8353, 4865, 4866, 4867
8354, 4866, 3885, 4581
8355, 4867, 4866, 4582
8356, 4868, 4867, 4582
8357, 4104, 4773, 4869
8358, 689, 4868, 4582
8359, 4868, 4774, 5682
8360, 4773, 5193, 4870
8361, 4865, 4873, 4367
8362, 53, 4871, 4870
8363, 4367, 4872, 4860
8364, 53, 52, 4871
8365, 4872, 52, 4860
8366, 4870, 4871, 4872
8367, 4872, 4871, 52
8368, 4867, 4873, 4865
8369, 4872, 4873, 4869
8370, 3215, 4874, 91
8371, 4368, 92, 4874
8372, 70, 4369, 4875
8373, 3219, 4875, 4369
8374, 1392, 4876, 1471
8375, 18, 4876, 4380
8376, 852, 5142, 5143
8377, 5146, 4879, 5288
8378, 4879, 4878, 4393
8379, 4396, 4878, 4395
8380, 4879, 4393, 5288
8381, 4880, 4879, 4095
8382, 4728, 4880, 4095
8383, 4881, 4880, 4363
8384, 4881, 2660, 3695
8385, 4395, 4881, 4396
8386, 4882, 528, 3521
8387, 4405, 4999, 4888
8388, 3134, 2680, 4883
8389, 4885, 4883, 2680
8390, 4885, 4405, 4883
8391, 2680, 4886, 4885
8392, 4886, 2680, 3712
8393, 4885, 4884, 4994
8394, 3710, 4884, 4886
8395, 4885, 4886, 4884
8396, 4996, 4999, 4993
8397, 5155, 4887, 4731
8398, 4405, 4888, 4882
8399, 530, 4888, 4887
8400, 5192, 4889, 4437
8401, 4772, 4103, 4889
8402, 5749, 5291, 5292
8403, 4890, 744, 4891
8404, 745, 4442, 4891
8405, 4891, 4442, 5293
8406, 746, 4893, 4892
8407, 4893, 4429, 4895
8408, 4431, 4893, 746
8409, 4895, 4429, 4432
8410, 4442, 4892, 4894
8411, 4892, 4893, 4895
8412, 4102, 4895, 4432
8413, 4895, 4894, 4892
8414, 729, 730, 4896
8415, 4467, 4896, 730
8416, 730, 731, 4897
8417, 4897, 731, 4900
8418, 4901, 4900, 731
8419, 4903, 4904, 4902
8420, 4898, 4107, 4899
8421, 4107, 4467, 4899
8422, 4901, 731, 732
8423, 4899, 4900, 4898
8424, 4906, 4904, 4903
8425, 4898, 4900, 4901
8426, 5949, 5951, 5950
8427, 96, 4911, 5295
8428, 4906, 4901, 732
8429, 4903, 4902, 4909
8430, 733, 5950, 4907
8431, 5910, 5937, 5738
8432, 4905, 4909, 5294
8433, 95, 4911, 96
8434, 4901, 4906, 4903
8435, 4907, 4906, 732
8436, 4909, 4908, 4903
8437, 4906, 4907, 4904
8438, 4905, 4468, 5296
8439, 5294, 4909, 4902
8440, 4908, 4909, 4905
8441, 4896, 4910, 4454
8442, 4466, 4910, 4467
8443, 4468, 4905, 4911
8444, 5295, 4905, 5294
8445, 94, 4912, 95
8446, 4464, 4912, 4469
8447, 4913, 4109, 4488
8448, 4492, 4500, 4913
8449, 5303, 4914, 5301
8450, 5307, 4915, 5305
8451, 4915, 5304, 5305
8452, 4503, 4916, 702
8453, 5297, 4916, 4500
8454, 702, 4916, 4915
8455, 6314, 6521, 6437
8456, 3774, 4918, 3775
8457, 4917, 4922, 4918
8458, 4516, 4923, 4925
8459, 1321, 2344, 4920
8460, 5797, 4919, 1285
8461, 1314, 4920, 2344
8462, 1284, 4919, 4920
8463, 4923, 4926, 4925
8464, 5798, 4933, 5797
8465, 4917, 4516, 4922
8466, 4938, 4516, 4937
8467, 4939, 3624, 4940
8468, 4516, 4925, 4922
8469, 4596, 4930, 4932
8470, 5324, 4921, 5325
8471, 6435, 6485, 6432
8472, 4939, 4927, 4923
8473, 4922, 4925, 4918
8474, 5330, 7708, 4592
8475, 4932, 4926, 4927
8476, 4932, 4930, 4931
8477, 3775, 4928, 4929
8478, 3953, 4929, 4928
8479, 4596, 5318, 4930
8480, 2833, 4930, 7704
8481, 4931, 4928, 4932
8482, 7698, 4930, 2833
8483, 4926, 4932, 4928
8484, 4927, 4596, 4932
8485, 5335, 4047, 1061
8486, 4955, 4942, 160
8487, 5999, 6127, 6189
8488, 4921, 5324, 4937
8489, 4934, 4933, 5790
8490, 4937, 4934, 4921
8491, 5770, 5329, 5789
8492, 4938, 4937, 4589
8493, 4516, 4934, 4937
8494, 3624, 4938, 4589
8495, 4516, 4938, 4923
8496, 4938, 4939, 4923
8497, 4940, 3624, 3904
8498, 3904, 4595, 4941
8499, 4596, 4927, 4940
8500, 5320, 5323, 5322
8501, 4596, 4940, 4941
8502, 4944, 5327, 5325
8503, 5772, 4949, 5790
8504, 4944, 5329, 5765
8505, 6284, 6297, 6288
8506, 637, 7708, 7705
8507, 5800, 5799, 5791
8508, 5770, 5772, 5796
8509, 5790, 4921, 4934
8510, 5792, 5780, 5776
8511, 5327, 4586, 5324
8512, 4944, 5325, 5329
8513, 4945, 5332, 4545
8514, 4546, 4945, 4545
8515, 4958, 4948, 4956
8516, 4522, 3785, 4942
8517, 4954, 4950, 4953
8518, 4951, 4522, 4521
8519, 3314, 4951, 4524
8520, 4951, 4950, 4954
8521, 4518, 4952, 3314
8522, 3957, 4952, 4520
8523, 3958, 4953, 3957
8524, 4954, 4953, 3956
8525, 3630, 4954, 3956
8526, 4951, 4954, 4522
8527, 4942, 1841, 160
8528, 4521, 4522, 4955
8529, 419, 4958, 4961
8530, 418, 4547, 4957
8531, 4958, 4957, 4547
8532, 4959, 4958, 4547
8533, 4958, 4956, 4961
8534, 4547, 4545, 4959
8535, 4545, 4960, 4948
8536, 5332, 4960, 4545
8537, 5337, 1063, 5342
8538, 4964, 4961, 4956
8539, 4963, 419, 4961
8540, 5348, 4964, 4965
8541, 1064, 5344, 5341
8542, 4965, 4964, 4956
8543, 4966, 4961, 4964
8544, 4966, 4964, 4962
8545, 4948, 5340, 4956
8546, 5340, 5342, 4965
8547, 5350, 4968, 4967
8548, 4963, 4966, 420
8549, 4967, 4968, 5807
8550, 421, 4967, 5807
8551, 5407, 1067, 5061
8552, 908, 909, 4969
8553, 4970, 4969, 909
8554, 4971, 4970, 3842
8555, 4969, 4970, 4556
8556, 4971, 4972, 4973
8557, 4978, 4975, 4977
8558, 3929, 4972, 3842
8559, 4973, 4972, 4554
8560, 4851, 4973, 4554
8561, 4974, 4973, 4360
8562, 4852, 4974, 4360
8563, 4974, 4853, 4977
8564, 4556, 4971, 4975
8565, 4977, 4975, 4971
8566, 5127, 4091, 5130
8567, 4976, 4698, 5087
8568, 4977, 4971, 4973
8569, 4853, 4699, 4978
8570, 5130, 4978, 4699
8571, 4975, 4978, 4091
8572, 5359, 5364, 5362
8573, 260, 4981, 4984
8574, 259, 4575, 4980
8575, 4981, 4980, 4575
8576, 4982, 4981, 4575
8577, 4981, 4979, 4984
8578, 4575, 4573, 4982
8579, 4573, 4983, 5352
8580, 5353, 4983, 4573
8581, 5359, 900, 5364
8582, 4987, 4984, 4979
8583, 4986, 260, 4984
8584, 4988, 4985, 4987
8585, 5428, 5124, 5116
8586, 4988, 4987, 4979
8587, 4989, 4984, 4987
8588, 4989, 4987, 4985
8589, 5352, 5362, 4979
8590, 5116, 5124, 902
8591, 5367, 4991, 4990
8592, 4986, 4989, 261
8593, 262, 4990, 4991
8594, 4991, 5118, 5119
8595, 5115, 5102, 5111
8596, 1178, 4992, 1177
8597, 4993, 4992, 4580
8598, 4992, 4993, 3873
8599, 4996, 4993, 4580
8600, 4885, 4994, 4405
8601, 4995, 4994, 4884
8602, 3934, 4995, 4884
8603, 3873, 4993, 4995
8604, 4997, 4996, 4580
8605, 4998, 4996, 4096
8606, 1178, 4997, 4580
8607, 4096, 4997, 4730
8608, 4731, 4998, 4096
8609, 4998, 4887, 4999
8610, 4888, 4999, 4887
8611, 4999, 4405, 4994
8612, 688, 689, 5000
8613, 689, 4582, 5000
8614, 4599, 5001, 4606
8615, 3944, 5002, 4025
8616, 3760, 5002, 4617
8617, 5005, 477, 1839
8618, 5005, 1839, 3761
8619, 3761, 2332, 5004
8620, 2332, 3762, 5004
8621, 477, 5005, 5003
8622, 2825, 5006, 4613
8623, 3760, 5006, 4616
8624, 3950, 5007, 4026
8625, 3768, 5007, 4624
8626, 5010, 318, 1840
8627, 5010, 1840, 3769
8628, 3769, 2338, 5009
8629, 2338, 3770, 5009
8630, 318, 5010, 5008
8631, 2831, 5011, 4620
8632, 3768, 5011, 4623
8633, 543, 542, 5012
8634, 5019, 5014, 5015
8635, 5019, 5016, 5013
8636, 5018, 4631, 5012
8637, 5015, 5014, 542
8638, 5019, 5024, 5014
8639, 542, 541, 5015
8640, 5015, 541, 5016
8641, 541, 5020, 5016
8642, 5023, 5020, 5387
8643, 5013, 5037, 5038
8644, 5044, 5038, 5039
8645, 5014, 5018, 5012
8646, 5017, 4631, 5018
8647, 5019, 5013, 5024
8648, 5015, 5016, 5019
8649, 541, 540, 5020
8650, 5023, 5387, 5022
8651, 5392, 5388, 5386
8652, 5392, 5021, 5388
8653, 5034, 5029, 5031
8654, 5016, 5025, 5013
8655, 5387, 5020, 540
8656, 5025, 5023, 5022
8657, 5038, 5024, 5013
8658, 5018, 5024, 5017
8659, 5028, 5025, 5022
8660, 5036, 5035, 5027
8661, 5028, 5022, 5029
8662, 5033, 1189, 5032
8663, 5013, 5025, 5037
8664, 5028, 5030, 5025
8665, 5022, 5388, 5029
8666, 5030, 5028, 5026
8667, 5029, 5021, 5031
8668, 5026, 5028, 5029
8669, 5032, 5030, 5026
8670, 5030, 5027, 5037
8671, 5838, 5390, 5586
8672, 5393, 1188, 5031
8673, 5033, 5032, 5026
8674, 5035, 5036, 1189
8675, 5034, 5033, 5026
8676, 1189, 5033, 1188
8677, 5029, 5034, 5026
8678, 1188, 5034, 5031
8679, 5039, 5035, 1190
8680, 5032, 5036, 5030
8681, 5027, 5030, 5036
8682, 5030, 5037, 5025
8683, 5038, 5037, 5027
8684, 5027, 5035, 5039
8685, 5038, 5017, 5024
8686, 1190, 5040, 5039
8687, 5041, 5040, 1191
8688, 1190, 1191, 5040
8689, 1191, 4634, 5041
8690, 3982, 3980, 5042
8691, 5044, 5039, 5040
8692, 4632, 5042, 3980
8693, 5043, 4631, 5017
8694, 5043, 5017, 5038
8695, 5041, 5042, 5043
8696, 5041, 5044, 5040
8697, 5038, 5044, 5043
8698, 5045, 4639, 5050
8699, 5048, 5057, 5049
8700, 4049, 5046, 4020
8701, 4050, 5045, 5046
8702, 5397, 5395, 5396
8703, 5052, 5053, 1068
8704, 5046, 5056, 4020
8705, 5045, 5050, 5051
8706, 5055, 5057, 5048
8707, 4610, 3925, 5049
8708, 5062, 5059, 5064
8709, 5051, 5050, 5047
8710, 5052, 5051, 5047
8711, 5051, 5048, 5056
8712, 5053, 5052, 5047
8713, 1069, 5057, 5055
8714, 5047, 5050, 5059
8715, 1068, 5053, 5060
8716, 5052, 5054, 5055
8717, 5052, 1068, 5054
8718, 1069, 5055, 5054
8719, 5051, 5056, 5045
8720, 5049, 5056, 5048
8721, 1069, 1070, 5057
8722, 1070, 5049, 5057
8723, 5058, 5059, 5397
8724, 5063, 1067, 5053
8725, 5050, 4639, 5059
8726, 5394, 5059, 4639
8727, 5403, 5401, 5400
8728, 5053, 1067, 5060
8729, 5061, 5406, 5407
8730, 5064, 5059, 5058
8731, 5063, 5062, 5064
8732, 1067, 5063, 5061
8733, 5053, 5062, 5063
8734, 5404, 5058, 5403
8735, 5063, 5064, 5061
8736, 5410, 4030, 4606
8737, 6016, 6014, 6017
8738, 4682, 377, 5066
8739, 5418, 5067, 5417
8740, 376, 5068, 4682
8741, 5068, 5067, 5075
8742, 1018, 1019, 5069
8743, 4692, 5069, 1019
8744, 5073, 5070, 4689
8745, 4089, 5070, 5072
8746, 4689, 5074, 5073
8747, 5418, 375, 5419
8748, 5073, 5072, 5070
8749, 5419, 5420, 5421
8750, 4689, 4691, 5074
8751, 5073, 5071, 5421
8752, 5075, 5074, 4677
8753, 5071, 5073, 5074
8754, 5068, 5075, 4677
8755, 5075, 5067, 5418
8756, 5076, 5078, 5079
8757, 5077, 5082, 1017
8758, 5069, 5078, 1018
8759, 5082, 5077, 5076
8760, 5079, 5078, 4693
8761, 5070, 5079, 4693
8762, 5080, 4089, 4844
8763, 5081, 5080, 4844
8764, 5076, 5079, 5080
8765, 4847, 5081, 4844
8766, 4849, 4850, 5082
8767, 5080, 5082, 5076
8768, 5082, 5081, 4849
8769, 374, 373, 5083
8770, 5285, 5083, 373
8771, 266, 265, 5084
8772, 5424, 5084, 265
8773, 5108, 5110, 263
8774, 5100, 5097, 5101
8775, 907, 908, 5086
8776, 5087, 5086, 908
8777, 4976, 5087, 4556
8778, 5086, 5087, 4698
8779, 5092, 5091, 906
8780, 5090, 5092, 907
8781, 4091, 5089, 4976
8782, 5090, 5089, 5088
8783, 5090, 5088, 5091
8784, 5090, 907, 5086
8785, 5088, 5093, 5091
8786, 5094, 905, 906
8787, 5128, 5088, 5127
8788, 5091, 5092, 5090
8789, 5098, 5096, 5094
8790, 5091, 5093, 5094
8791, 5098, 5093, 4090
8792, 5422, 5423, 4090
8793, 5096, 5097, 905
8794, 5098, 5094, 5093
8795, 5097, 5096, 5095
8796, 5100, 5101, 5099
8797, 905, 5097, 904
8798, 5098, 4090, 5423
8799, 5096, 5098, 5095
8800, 5426, 5103, 5085
8801, 5102, 5114, 5100
8802, 5101, 5097, 5095
8803, 5102, 5100, 5099
8804, 5095, 5098, 5423
8805, 5103, 5101, 5423
8806, 5103, 5105, 5099
8807, 5100, 5114, 904
8808, 5104, 5103, 5426
8809, 5099, 5101, 5103
8810, 4991, 5119, 262
8811, 5103, 5104, 5105
8812, 5107, 5108, 5121
8813, 5099, 5105, 5111
8814, 5112, 5113, 5109
8815, 5099, 5111, 5102
8816, 5108, 5107, 5104
8817, 5107, 5106, 5112
8818, 5104, 5426, 5110
8819, 5122, 5121, 263
8820, 5113, 5106, 5118
8821, 5102, 5115, 903
8822, 5112, 5105, 5107
8823, 5104, 5110, 5108
8824, 5111, 5109, 5115
8825, 5113, 5112, 5106
8826, 5111, 5112, 5109
8827, 5118, 4991, 5427
8828, 5116, 902, 5117
8829, 5116, 5115, 5109
8830, 5102, 903, 5114
8831, 5117, 903, 5115
8832, 5109, 5113, 5116
8833, 5118, 5428, 5113
8834, 5118, 5106, 5119
8835, 5116, 5117, 5115
8836, 4991, 5367, 5427
8837, 5121, 5119, 5106
8838, 5122, 262, 5119
8839, 4988, 5366, 4985
8840, 5364, 4988, 5362
8841, 5107, 5121, 5106
8842, 263, 5121, 5108
8843, 5427, 5366, 5120
8844, 5121, 5122, 5119
8845, 5123, 902, 5124
8846, 5428, 5116, 5113
8847, 5365, 5123, 5124
8848, 268, 267, 5125
8849, 5430, 5125, 267
8850, 4697, 5422, 5129
8851, 5127, 5088, 5089
8852, 4091, 5127, 5089
8853, 5093, 5128, 4090
8854, 5127, 5126, 5128
8855, 5126, 5432, 5129
8856, 4090, 5128, 5129
8857, 5126, 5129, 5128
8858, 4978, 5130, 4091
8859, 5130, 4699, 5430
8860, 5133, 4700, 4092
8861, 5132, 5131, 4700
8862, 4708, 5132, 4703
8863, 5133, 4092, 4719
8864, 4703, 5132, 5133
8865, 4705, 5134, 4337
8866, 4711, 5134, 4706
8867, 866, 867, 5135
8868, 4715, 5135, 867
8869, 5819, 5818, 5817
8870, 5827, 5828, 5831
8871, 865, 866, 5137
8872, 4726, 5137, 866
8873, 214, 213, 5138
8874, 5526, 5138, 213
8875, 4094, 5148, 5516
8876, 5501, 5489, 5498
8877, 4856, 5140, 211
8878, 5527, 5140, 4728
8879, 5141, 5150, 5145
8880, 5145, 5147, 5149
8881, 5142, 853, 5148
8882, 5143, 5142, 4729
8883, 5144, 5143, 4729
8884, 5143, 4877, 5289
8885, 5145, 5144, 4729
8886, 4095, 4879, 5146
8887, 5147, 5145, 4729
8888, 5527, 5150, 5141
8889, 4877, 5144, 5146
8890, 4095, 5146, 5144
8891, 4729, 5142, 5148
8892, 5149, 5147, 4094
8893, 853, 5151, 5148
8894, 5151, 5152, 5148
8895, 4727, 5149, 4094
8896, 5141, 5145, 5149
8897, 4728, 4095, 5150
8898, 5144, 5150, 4095
8899, 853, 854, 5151
8900, 854, 5518, 5151
8901, 5517, 5152, 5518
8902, 5517, 5497, 5500
8903, 1178, 1179, 5153
8904, 5528, 5153, 1179
8905, 5534, 1180, 5530
8906, 5533, 5532, 5156
8907, 531, 530, 5155
8908, 4887, 5155, 530
8909, 5531, 5532, 5533
8910, 5535, 4097, 5536
8911, 533, 532, 5157
8912, 5539, 5157, 532
8913, 5549, 5550, 5548
8914, 5547, 5549, 5551
8915, 4826, 5159, 2683
8916, 5159, 4738, 4739
8917, 4749, 5160, 572
8918, 4767, 5160, 4747
8919, 5162, 4761, 4763
8920, 1221, 5163, 5162
8921, 5163, 1221, 1222
8922, 4761, 5162, 5161
8923, 5165, 5163, 1222
8924, 5166, 5161, 5162
8925, 5599, 5164, 5165
8926, 575, 5613, 576
8927, 5599, 5165, 1222
8928, 5164, 5177, 5166
8929, 5166, 4766, 5167
8930, 5163, 5165, 5166
8931, 5169, 5167, 4766
8932, 5168, 5167, 4767
8933, 4747, 5168, 4767
8934, 4761, 5168, 4765
8935, 5174, 5173, 5169
8936, 5170, 5172, 573
8937, 5160, 4767, 5170
8938, 4767, 5169, 5170
8939, 4766, 5177, 5174
8940, 5174, 5175, 5171
8941, 5174, 5169, 4766
8942, 5169, 574, 5172
8943, 5176, 5173, 5171
8944, 5174, 5177, 5175
8945, 5171, 5173, 5174
8946, 5178, 5164, 5599
8947, 5164, 5178, 5611
8948, 5179, 5176, 5171
8949, 574, 5176, 575
8950, 5166, 5177, 4766
8951, 5164, 5175, 5177
8952, 5604, 5603, 5601
8953, 1224, 5604, 5600
8954, 5179, 5608, 5605
8955, 5601, 1223, 5600
8956, 5615, 5180, 586
8957, 5180, 4768, 4365
8958, 5188, 5880, 584
8959, 5185, 5186, 5889
8960, 4100, 4858, 5182
8961, 4859, 5182, 4858
8962, 5184, 5183, 1234
8963, 5885, 5884, 5888
8964, 5282, 1234, 1235
8965, 5184, 4770, 5185
8966, 5186, 5185, 4100
8967, 5184, 5185, 4769
8968, 5187, 5186, 4100
8969, 5878, 5617, 5181
8970, 5182, 5187, 4100
8971, 5187, 4768, 5615
8972, 584, 583, 5188
8973, 5631, 5188, 583
8974, 6087, 6086, 6083
8975, 5622, 5618, 5620
8976, 108, 107, 5190
8977, 5677, 5190, 107
8978, 5638, 5637, 5191
8979, 5749, 5635, 5291
8980, 5190, 5192, 108
8981, 4889, 5192, 4772
8982, 54, 53, 5193
8983, 4870, 5193, 53
8984, 5682, 5196, 5680
8985, 5686, 4775, 5684
8986, 689, 690, 5195
8987, 5691, 5195, 690
8988, 5687, 5683, 5196
8989, 5194, 5679, 5680
8990, 56, 55, 5197
8991, 5684, 5197, 55
8992, 5713, 5694, 4105
8993, 5702, 5696, 5700
8994, 4192, 4799, 5200
8995, 5203, 5199, 4782
8996, 5202, 5200, 4178
8997, 5199, 5200, 5207
8998, 5220, 5215, 5204
8999, 5219, 5227, 5224
9000, 5213, 4795, 4177
9001, 5225, 5208, 5202
9002, 4783, 5203, 4782
9003, 4784, 5199, 5203
9004, 5228, 5235, 5232
9005, 5210, 5212, 5220
9006, 5236, 5736, 5922
9007, 5735, 5237, 5238
9008, 5209, 5202, 4178
9009, 4135, 5212, 5211
9010, 5205, 4782, 5207
9011, 5199, 5207, 4782
9012, 6448, 5208, 5201
9013, 5207, 5208, 5205
9014, 5209, 5728, 5210
9015, 5224, 5204, 5215
9016, 5728, 5209, 4178
9017, 5213, 5211, 5212
9018, 5212, 5210, 5728
9019, 5229, 5219, 5223
9020, 5213, 4797, 4191
9021, 4177, 5211, 5213
9022, 5223, 5214, 5221
9023, 5215, 5219, 5224
9024, 5214, 5217, 5216
9025, 5220, 5212, 4135
9026, 5220, 5204, 5210
9027, 5220, 5217, 5215
9028, 5229, 5228, 5218
9029, 5218, 5232, 5236
9030, 5223, 5217, 5214
9031, 5219, 5218, 5227
9032, 4135, 5216, 5220
9033, 5220, 5216, 5217
9034, 5228, 5221, 5206
9035, 5228, 5229, 5221
9036, 5228, 5232, 5218
9037, 5743, 5923, 5744
9038, 5217, 5223, 5219
9039, 6356, 6095, 6248
9040, 5224, 5225, 5204
9041, 5226, 5224, 5222
9042, 5208, 5225, 5201
9043, 5201, 5225, 5226
9044, 5224, 5226, 5225
9045, 5218, 5236, 6230
9046, 5224, 5227, 5222
9047, 5733, 5927, 5732
9048, 5235, 5729, 5736
9049, 5219, 5229, 5218
9050, 5221, 5229, 5223
9051, 5920, 5921, 5927
9052, 5238, 8944, 5735
9053, 6101, 5939, 5938
9054, 5227, 5218, 6230
9055, 5730, 5731, 5206
9056, 6249, 5922, 6247
9057, 6096, 5922, 5736
9058, 5235, 5731, 5729
9059, 5206, 5731, 5235
9060, 5226, 5222, 6236
9061, 5206, 5235, 5228
9062, 5914, 5911, 4133
9063, 5235, 5736, 5232
9064, 5736, 5236, 5232
9065, 4785, 4188, 5237
9066, 6236, 6233, 6253
9067, 3310, 4785, 5735
9068, 4258, 4823, 5240
9069, 5243, 5239, 4806
9070, 5242, 5240, 4244
9071, 5239, 5240, 5247
9072, 5260, 5255, 5244
9073, 5259, 5267, 5264
9074, 5253, 4819, 4243
9075, 5265, 5248, 5242
9076, 4807, 5243, 4806
9077, 4808, 5239, 5243
9078, 5268, 5275, 5272
9079, 5250, 5252, 5260
9080, 5276, 5747, 5935
9081, 5746, 5277, 5278
9082, 5249, 5242, 4244
9083, 4201, 5252, 5251
9084, 5245, 4806, 5247
9085, 5239, 5247, 4806
9086, 6464, 5248, 5241
9087, 5247, 5248, 5245
9088, 5249, 5739, 5250
9089, 5264, 5244, 5255
9090, 5739, 5249, 4244
9091, 5253, 5251, 5252
9092, 5252, 5250, 5739
9093, 5269, 5259, 5263
9094, 5253, 4821, 4257
9095, 4243, 5251, 5253
9096, 5263, 5254, 5261
9097, 5255, 5259, 5264
9098, 5260, 5252, 4201
9099, 5254, 5257, 5256
9100, 5260, 5244, 5250
9101, 5260, 5257, 5255
9102, 5269, 5268, 5258
9103, 5258, 5272, 5276
9104, 5263, 5257, 5254
9105, 5259, 5258, 5267
9106, 4201, 5256, 5260
9107, 5260, 5256, 5257
9108, 5268, 5261, 5246
9109, 5268, 5269, 5261
9110, 5268, 5272, 5258
9111, 5937, 5755, 5738
9112, 5257, 5263, 5259
9113, 6390, 6099, 6265
9114, 5264, 5265, 5244
9115, 5266, 5264, 5262
9116, 5248, 5265, 5241
9117, 5241, 5265, 5266
9118, 5264, 5266, 5265
9119, 5258, 5276, 6263
9120, 5264, 5267, 5262
9121, 5744, 5940, 5743
9122, 5275, 5740, 5747
9123, 5259, 5269, 5258
9124, 5261, 5269, 5263
9125, 5933, 5934, 5940
9126, 5278, 8951, 5746
9127, 5910, 5753, 5929
9128, 5267, 5258, 6263
9129, 5741, 5742, 5246
9130, 6264, 5935, 6268
9131, 6100, 5935, 5747
9132, 5275, 5742, 5740
9133, 5246, 5742, 5275
9134, 5266, 5262, 6262
9135, 5246, 5275, 5268
9136, 5727, 5924, 4199
9137, 5275, 5747, 5272
9138, 5747, 5276, 5272
9139, 4809, 4254, 5277
9140, 6262, 6261, 6271
9141, 3295, 4809, 5746
9142, 1235, 1236, 5279
9143, 5280, 5279, 1236
9144, 4415, 5280, 1236
9145, 5287, 5280, 4290
9146, 5282, 5281, 4770
9147, 5281, 4827, 5287
9148, 5184, 5282, 4770
9149, 5279, 5282, 1235
9150, 4834, 5283, 4350
9151, 5284, 5283, 1015
9152, 4842, 5285, 373
9153, 5283, 5284, 4835
9154, 4846, 5285, 4840
9155, 4699, 5286, 268
9156, 4974, 5286, 4853
9157, 4412, 5287, 4290
9158, 5281, 5287, 4858
9159, 5289, 5288, 851
9160, 5288, 4877, 5146
9161, 851, 852, 5289
9162, 5143, 5289, 852
9163, 4889, 5290, 4440
9164, 5749, 5290, 4103
9165, 4103, 5633, 5635
9166, 742, 743, 5750
9167, 744, 4890, 5292
9168, 5292, 4890, 5749
9169, 5290, 5293, 4440
9170, 4891, 5293, 4890
9171, 5910, 5294, 5937
9172, 5294, 5910, 5756
9173, 4905, 5295, 4911
9174, 5756, 5295, 5294
9175, 4898, 5296, 4107
9176, 4905, 5296, 4908
9177, 5298, 5297, 4492
9178, 5304, 5297, 5301
9179, 5299, 5298, 4492
9180, 66, 65, 5300
9181, 4493, 5299, 4492
9182, 66, 5299, 67
9183, 5302, 5300, 65
9184, 5300, 5303, 5301
9185, 5297, 5298, 5301
9186, 5300, 5301, 5298
9187, 64, 5312, 5313
9188, 5966, 5958, 5965
9189, 5300, 5302, 5303
9190, 4914, 5303, 5302
9191, 5304, 4914, 5308
9192, 4915, 5297, 5304
9193, 5302, 5306, 5308
9194, 4915, 5307, 702
9195, 5312, 5309, 5311
9196, 5310, 5316, 5314
9197, 5314, 5307, 5305
9198, 701, 702, 5307
9199, 5302, 5308, 4914
9200, 5310, 5308, 5306
9201, 5956, 5963, 5957
9202, 700, 5758, 5760
9203, 5311, 5315, 5317
9204, 701, 5314, 5316
9205, 5312, 5311, 5302
9206, 5311, 5309, 5957
9207, 5313, 5302, 65
9208, 5312, 64, 5965
9209, 5307, 5314, 701
9210, 5302, 5313, 5312
9211, 5305, 5310, 5314
9212, 5959, 5968, 5757
9213, 5316, 5758, 700
9214, 5311, 5317, 5306
9215, 5758, 5316, 5310
9216, 5758, 5317, 5315
9217, 5321, 4941, 4595
9218, 7704, 5318, 2850
9219, 5322, 4596, 4941
9220, 5318, 5323, 2850
9221, 5762, 5764, 5319
9222, 4595, 5319, 5321
9223, 5320, 5322, 5764
9224, 4596, 5322, 5318
9225, 2850, 5323, 5320
9226, 5318, 5322, 5323
9227, 4937, 5324, 4589
9228, 4949, 5325, 4921
9229, 5768, 5775, 5781
9230, 5804, 6137, 5803
9231, 5337, 5336, 1063
9232, 5330, 4592, 4590
9233, 5324, 5325, 5327
9234, 7705, 7706, 5328
9235, 4949, 5789, 5325
9236, 4944, 5766, 4947
9237, 5769, 5765, 5329
9238, 4586, 4947, 5330
9239, 5333, 5335, 1061
9240, 5328, 5780, 5792
9241, 4545, 4948, 4959
9242, 1062, 5334, 5333
9243, 5335, 5334, 4945
9244, 5335, 4045, 4047
9245, 5334, 5335, 5333
9246, 5343, 5344, 5345
9247, 1062, 5336, 5339
9248, 5339, 4960, 5332
9249, 1064, 5341, 5338
9250, 4965, 5342, 5341
9251, 5336, 5337, 5339
9252, 4960, 5339, 5337
9253, 4956, 5340, 4965
9254, 5337, 5340, 4960
9255, 5344, 5346, 5341
9256, 1063, 5338, 5342
9257, 5341, 5342, 5338
9258, 1066, 5406, 5405
9259, 4968, 5350, 5805
9260, 5345, 1065, 5811
9261, 5346, 5344, 5343
9262, 5346, 5343, 5349
9263, 5344, 1064, 5345
9264, 5348, 5346, 5805
9265, 5811, 5405, 5810
9266, 5399, 5403, 5398
9267, 4964, 5348, 4962
9268, 4965, 5346, 5348
9269, 5810, 5349, 5343
9270, 5805, 5349, 5347
9271, 420, 5350, 4967
9272, 4962, 5350, 4966
9273, 5347, 5402, 4968
9274, 5401, 5399, 5351
9275, 4981, 5352, 4979
9276, 4573, 5352, 4982
9277, 5354, 5353, 4573
9278, 5359, 5358, 900
9279, 4574, 5354, 4573
9280, 5355, 5357, 898
9281, 5357, 4053, 898
9282, 899, 5356, 5355
9283, 5357, 5356, 5354
9284, 5357, 4051, 4053
9285, 5356, 5357, 5355
9286, 901, 5365, 5363
9287, 899, 5358, 5361
9288, 5361, 4983, 5353
9289, 901, 5363, 5360
9290, 4988, 5364, 5363
9291, 5358, 5359, 5361
9292, 4983, 5361, 5359
9293, 4979, 5362, 4988
9294, 5359, 5362, 4983
9295, 5123, 5365, 901
9296, 900, 5360, 5364
9297, 5363, 5364, 5360
9298, 5124, 5429, 5365
9299, 5429, 5366, 5365
9300, 4988, 5363, 5366
9301, 5365, 5366, 5363
9302, 261, 5367, 4990
9303, 4985, 5367, 4989
9304, 4607, 5378, 5368
9305, 5375, 5369, 5374
9306, 5402, 5810, 5400
9307, 5369, 5375, 5383
9308, 5412, 5065, 5410
9309, 5371, 4601, 5379
9310, 5370, 5410, 5411
9311, 6140, 6138, 6012
9312, 6029, 6011, 6028
9313, 4602, 4604, 5373
9314, 5373, 4604, 4597
9315, 4603, 5374, 5369
9316, 5378, 5375, 4602
9317, 5375, 5378, 4607
9318, 5376, 5383, 5375
9319, 5375, 4607, 5376
9320, 6142, 5372, 5379
9321, 6142, 5379, 5382
9322, 5373, 5378, 4602
9323, 5371, 5379, 5372
9324, 5379, 4601, 5380
9325, 5376, 4605, 5380
9326, 5382, 5379, 5380
9327, 6030, 6141, 6038
9328, 4605, 5382, 5380
9329, 5382, 4605, 5381
9330, 5376, 5380, 5383
9331, 4601, 5383, 5380
9332, 5003, 5384, 3265
9333, 5004, 5384, 5005
9334, 5008, 5385, 3267
9335, 5009, 5385, 5010
9336, 5587, 5592, 5588
9337, 5389, 539, 5391
9338, 5389, 5387, 540
9339, 5386, 5388, 5387
9340, 5029, 5388, 5021
9341, 5387, 5388, 5022
9342, 5587, 5586, 5592
9343, 5387, 5389, 5386
9344, 5587, 538, 5584
9345, 5392, 5391, 5390
9346, 5386, 5389, 5391
9347, 5391, 5392, 5386
9348, 5837, 5392, 5390
9349, 4641, 5394, 4639
9350, 5598, 5393, 5031
9351, 5395, 5394, 424
9352, 424, 423, 5395
9353, 5395, 423, 5396
9354, 423, 5398, 5396
9355, 422, 5399, 5398
9356, 5395, 5397, 5394
9357, 5058, 5397, 5396
9358, 423, 422, 5398
9359, 422, 5806, 5399
9360, 5402, 5400, 5401
9361, 5401, 5403, 5399
9362, 1065, 5812, 5811
9363, 5064, 5058, 5404
9364, 5402, 5401, 5351
9365, 5400, 5404, 5403
9366, 5402, 5351, 5807
9367, 5402, 5347, 5810
9368, 5058, 5396, 5403
9369, 5403, 5396, 5398
9370, 5404, 5400, 5408
9371, 5064, 5404, 5061
9372, 5408, 5810, 5405
9373, 5812, 1066, 5405
9374, 5061, 5404, 5406
9375, 5406, 5404, 5408
9376, 5810, 5408, 5400
9377, 5406, 1066, 5407
9378, 5406, 5408, 5405
9379, 4077, 5409, 4068
9380, 5410, 5409, 4030
9381, 5411, 5410, 4606
9382, 5412, 5410, 5370
9383, 4603, 5411, 4606
9384, 5370, 5411, 5371
9385, 5370, 6010, 5809
9386, 5412, 4642, 5814
9387, 5416, 4000, 4643
9388, 5412, 5814, 5065
9389, 4694, 5414, 4001
9390, 5409, 5415, 4068
9391, 5814, 5415, 5065
9392, 5416, 5415, 5413
9393, 4643, 5414, 5416
9394, 5415, 5416, 5414
9395, 376, 375, 5417
9396, 5418, 5417, 375
9397, 5419, 375, 374
9398, 5418, 5071, 5075
9399, 5083, 5420, 374
9400, 5071, 5418, 5419
9401, 4696, 5072, 5420
9402, 5421, 5420, 5072
9403, 5073, 5421, 5072
9404, 5419, 5421, 5071
9405, 5424, 5422, 4697
9406, 5085, 5103, 5423
9407, 5101, 5095, 5423
9408, 5085, 5423, 5422
9409, 5425, 5424, 265
9410, 5422, 5424, 5085
9411, 265, 264, 5425
9412, 5110, 5426, 264
9413, 5085, 5425, 5426
9414, 264, 5426, 5425
9415, 5366, 5427, 4985
9416, 5118, 5427, 5120
9417, 5429, 5120, 5366
9418, 5429, 5124, 5428
9419, 5120, 5429, 5428
9420, 5431, 267, 266
9421, 5130, 5430, 5126
9422, 5126, 5430, 5431
9423, 267, 5431, 5430
9424, 5126, 5431, 5432
9425, 266, 5432, 5431
9426, 5525, 5433, 4724
9427, 5434, 5433, 5136
9428, 5136, 5435, 5436
9429, 5437, 5434, 864
9430, 5817, 5831, 5435
9431, 5829, 5832, 5830
9432, 5136, 5436, 5434
9433, 5438, 5436, 5435
9434, 5440, 5438, 5815
9435, 5434, 5437, 5433
9436, 864, 5438, 863
9437, 5445, 5447, 5816
9438, 5833, 5834, 5832
9439, 5815, 5438, 5435
9440, 5443, 5441, 5440
9441, 5449, 5452, 5442
9442, 863, 5440, 5441
9443, 5457, 5444, 5447
9444, 5450, 5453, 5461
9445, 862, 5441, 5443
9446, 5447, 5444, 5439
9447, 5446, 5452, 5449
9448, 5815, 5448, 5816
9449, 5833, 5832, 222
9450, 5449, 861, 5446
9451, 862, 5452, 5446
9452, 5439, 5815, 5816
9453, 5834, 5457, 5445
9454, 5136, 5819, 5435
9455, 5816, 5830, 5445
9456, 5460, 5461, 5453
9457, 5459, 5458, 5453
9458, 861, 5449, 5458
9459, 860, 5451, 5455
9460, 5469, 5466, 5463
9461, 5443, 5452, 862
9462, 5442, 5452, 5444
9463, 5460, 5453, 5442
9464, 5449, 5453, 5458
9465, 5459, 5453, 5450
9466, 5458, 5455, 5451
9467, 5522, 5454, 5474
9468, 5457, 5447, 5445
9469, 5462, 5461, 5456
9470, 5460, 5457, 5456
9471, 5444, 5457, 5442
9472, 5455, 5458, 5454
9473, 861, 5458, 5451
9474, 5475, 5459, 5450
9475, 5458, 5459, 5454
9476, 5457, 5460, 5442
9477, 5460, 5456, 5461
9478, 5456, 5833, 5462
9479, 5463, 5461, 5462
9480, 220, 5463, 5464
9481, 5462, 5464, 5463
9482, 219, 5470, 5835
9483, 5450, 5461, 5463
9484, 5470, 5471, 5473
9485, 5462, 221, 5464
9486, 5450, 5463, 5466
9487, 5835, 5466, 5469
9488, 5450, 5466, 5475
9489, 5835, 5468, 5466
9490, 5478, 5477, 218
9491, 5835, 5465, 219
9492, 5476, 5506, 5468
9493, 5465, 5835, 5469
9494, 5469, 220, 5465
9495, 5471, 5470, 219
9496, 5470, 5473, 5476
9497, 219, 218, 5471
9498, 5477, 5473, 5471
9499, 5481, 5480, 217
9500, 5467, 5473, 5503
9501, 5477, 5471, 218
9502, 5503, 5473, 5472
9503, 5503, 5521, 5467
9504, 5522, 5455, 5454
9505, 5468, 5475, 5466
9506, 5454, 5475, 5474
9507, 5470, 5476, 5468
9508, 5473, 5467, 5476
9509, 5478, 218, 217
9510, 5472, 5473, 5477
9511, 5480, 5478, 217
9512, 5477, 5478, 5485
9513, 5488, 5481, 5486
9514, 5472, 5504, 5503
9515, 5481, 217, 216
9516, 5482, 5480, 5479
9517, 5486, 5481, 216
9518, 5480, 5481, 5488
9519, 5482, 5479, 5491
9520, 5485, 5482, 5472
9521, 5486, 216, 5487
9522, 5501, 5498, 5499
9523, 5488, 5490, 5479
9524, 5507, 5508, 5484
9525, 5477, 5485, 5472
9526, 5480, 5485, 5478
9527, 5487, 216, 215
9528, 5488, 5486, 5483
9529, 5492, 5487, 215
9530, 5483, 5486, 5487
9531, 5498, 5490, 5483
9532, 5488, 5479, 5480
9533, 5483, 5487, 5496
9534, 5507, 5493, 5513
9535, 5483, 5490, 5488
9536, 5493, 5490, 5489
9537, 5490, 5491, 5479
9538, 5491, 5484, 5504
9539, 5495, 5492, 215
9540, 5492, 5139, 5496
9541, 5494, 5507, 5513
9542, 5491, 5493, 5484
9543, 5512, 5501, 5502
9544, 5494, 857, 5507
9545, 215, 214, 5495
9546, 5523, 5515, 5495
9547, 5499, 5496, 5139
9548, 5490, 5498, 5489
9549, 5499, 5500, 5497
9550, 856, 5512, 5502
9551, 5483, 5496, 5498
9552, 5498, 5496, 5499
9553, 5500, 5499, 5139
9554, 5499, 5497, 5501
9555, 5500, 5139, 5514
9556, 5500, 5152, 5517
9557, 5502, 5501, 5497
9558, 5494, 5512, 856
9559, 5524, 5497, 5517
9560, 855, 856, 5502
9561, 5482, 5504, 5472
9562, 5505, 859, 5519
9563, 5509, 5484, 5508
9564, 5510, 5511, 5509
9565, 5511, 5503, 5504
9566, 859, 5505, 5510
9567, 5506, 5467, 5521
9568, 5475, 5506, 5474
9569, 5508, 5507, 857
9570, 5493, 5507, 5484
9571, 857, 858, 5508
9572, 5508, 858, 5509
9573, 5510, 5509, 858
9574, 5484, 5509, 5504
9575, 859, 5510, 858
9576, 5511, 5510, 5505
9577, 5503, 5511, 5505
9578, 5509, 5511, 5504
9579, 5489, 5501, 5512
9580, 5489, 5513, 5493
9581, 5494, 5513, 5512
9582, 5515, 5514, 5139
9583, 4727, 4094, 5514
9584, 5492, 5515, 5139
9585, 5495, 214, 5523
9586, 5152, 5500, 5516
9587, 5514, 5516, 5500
9588, 5152, 5151, 5518
9589, 5502, 5524, 855
9590, 854, 855, 5518
9591, 5524, 5518, 855
9592, 5522, 5520, 860
9593, 5474, 5506, 5521
9594, 5505, 5519, 5521
9595, 5519, 859, 5520
9596, 5521, 5519, 5474
9597, 5455, 5522, 860
9598, 5519, 5522, 5474
9599, 5138, 5523, 214
9600, 5514, 5523, 4727
9601, 5497, 5524, 5502
9602, 5518, 5524, 5517
9603, 5525, 4721, 5818
9604, 5433, 5525, 5136
9605, 5527, 213, 212
9606, 5149, 5526, 5141
9607, 5150, 5527, 4728
9608, 5526, 5527, 5141
9609, 5529, 5528, 1179
9610, 5531, 5528, 5154
9611, 1179, 1180, 5529
9612, 5154, 5529, 1180
9613, 1180, 5836, 5530
9614, 5576, 5572, 5550
9615, 5528, 5531, 4730
9616, 5531, 5154, 5532
9617, 5154, 5534, 5532
9618, 5530, 5535, 5534
9619, 5533, 5156, 5538
9620, 5531, 5533, 4096
9621, 1180, 5534, 5154
9622, 5535, 5530, 4097
9623, 5156, 5532, 5535
9624, 5534, 5535, 5532
9625, 5539, 532, 5540
9626, 5156, 5535, 5536
9627, 5156, 5536, 5537
9628, 5537, 5536, 5539
9629, 5533, 5538, 4731
9630, 5156, 5537, 5538
9631, 5536, 4732, 5539
9632, 5157, 5539, 4732
9633, 5542, 4732, 4097
9634, 5539, 5540, 5537
9635, 5543, 5541, 5158
9636, 4097, 5589, 5570
9637, 5541, 5542, 5570
9638, 5547, 5546, 5543
9639, 5541, 5545, 533
9640, 5158, 5549, 5547
9641, 5551, 5555, 5554
9642, 5573, 5558, 5559
9643, 5543, 534, 5545
9644, 5569, 534, 5546
9645, 5158, 5570, 5549
9646, 5573, 5547, 5544
9647, 5552, 5571, 1183
9648, 5551, 5544, 5547
9649, 5541, 5570, 5158
9650, 5549, 5548, 5551
9651, 5589, 5530, 5576
9652, 5571, 5572, 1182
9653, 5548, 5552, 5551
9654, 5553, 5554, 5555
9655, 5571, 5552, 5548
9656, 5568, 5567, 5560
9657, 1184, 5567, 5568
9658, 5544, 5554, 5558
9659, 5555, 5551, 5552
9660, 5574, 5558, 5554
9661, 5552, 1183, 5555
9662, 5557, 1184, 5562
9663, 5555, 5557, 5562
9664, 5564, 5559, 5556
9665, 5555, 1183, 5557
9666, 536, 5564, 5565
9667, 5574, 5554, 5553
9668, 5559, 5558, 5556
9669, 5564, 5561, 5559
9670, 5573, 535, 5546
9671, 5579, 5585, 5590
9672, 5566, 5574, 5568
9673, 535, 5559, 5561
9674, 1184, 5568, 5562
9675, 5555, 5562, 5553
9676, 5565, 5566, 5580
9677, 5578, 5580, 5566
9678, 536, 5561, 5564
9679, 5566, 5565, 5556
9680, 5565, 5563, 7710
9681, 5574, 5566, 5556
9682, 5566, 5560, 5578
9683, 5579, 5567, 1185
9684, 5562, 5568, 5553
9685, 5566, 5568, 5560
9686, 4097, 5570, 5542
9687, 5546, 535, 5569
9688, 5549, 5570, 5550
9689, 5572, 5548, 5550
9690, 1183, 5571, 1182
9691, 5550, 5589, 5576
9692, 5577, 1182, 5572
9693, 5558, 5573, 5544
9694, 535, 5573, 5559
9695, 5558, 5574, 5556
9696, 5568, 5574, 5553
9697, 5578, 5560, 5579
9698, 5391, 5592, 5390
9699, 5836, 5576, 5530
9700, 5577, 5576, 1181
9701, 5560, 5567, 5579
9702, 5576, 5577, 5572
9703, 5580, 5578, 5575
9704, 5585, 5579, 1185
9705, 5575, 5578, 5579
9706, 5575, 7712, 5582
9707, 5580, 5563, 5565
9708, 5590, 5575, 5579
9709, 5583, 5584, 537
9710, 5575, 5582, 5580
9711, 5583, 5582, 5581
9712, 5584, 5583, 5581
9713, 5583, 537, 7710
9714, 5587, 5584, 7714
9715, 537, 5584, 538
9716, 1185, 1186, 5585
9717, 5585, 5593, 5590
9718, 5591, 7711, 7712
9719, 5593, 1186, 5596
9720, 7714, 5584, 5581
9721, 5592, 539, 5588
9722, 5592, 5391, 539
9723, 538, 5587, 5588
9724, 5570, 5589, 5550
9725, 5530, 5589, 4097
9726, 5593, 5585, 1186
9727, 5575, 5590, 7712
9728, 5594, 1187, 5597
9729, 7714, 7711, 5586
9730, 5586, 5390, 5592
9731, 5837, 5031, 5021
9732, 5590, 5593, 5591
9733, 5598, 5595, 5597
9734, 5593, 5596, 5591
9735, 5595, 5838, 7713
9736, 5597, 5596, 5594
9737, 7713, 5596, 5595
9738, 5598, 5597, 1187
9739, 5596, 5597, 5595
9740, 5393, 5598, 1187
9741, 5598, 5031, 5837
9742, 1222, 1223, 5599
9743, 5599, 1223, 5601
9744, 1224, 5612, 5604
9745, 5601, 5603, 5178
9746, 5599, 5601, 5178
9747, 5602, 5610, 5605
9748, 5607, 5614, 5610
9749, 5604, 5601, 5600
9750, 5605, 5603, 5602
9751, 5612, 5609, 5606
9752, 5602, 5603, 5604
9753, 6079, 5610, 5602
9754, 5171, 5608, 5179
9755, 5877, 5863, 5839
9756, 5607, 5610, 6079
9757, 5602, 5606, 5848
9758, 577, 576, 5841
9759, 5171, 5175, 5608
9760, 5611, 5608, 5175
9761, 5875, 5609, 1225
9762, 5612, 5602, 5604
9763, 5607, 5841, 5614
9764, 5164, 5611, 5175
9765, 5605, 5611, 5178
9766, 5609, 5612, 1224
9767, 5602, 5612, 5606
9768, 575, 5179, 5613
9769, 5614, 5179, 5610
9770, 576, 5613, 5614
9771, 5614, 5613, 5179
9772, 585, 5615, 586
9773, 5187, 5615, 5181
9774, 5880, 4771, 5881
9775, 5881, 4101, 5882
9776, 5881, 5616, 5880
9777, 5889, 5617, 5886
9778, 5631, 5618, 4771
9779, 5620, 5618, 5189
9780, 5189, 5632, 6084
9781, 5627, 5629, 5626
9782, 6084, 6085, 5189
9783, 5620, 5619, 5622
9784, 5853, 5860, 579
9785, 5623, 5624, 5619
9786, 5619, 5628, 5630
9787, 1231, 1232, 5887
9788, 6085, 5620, 5189
9789, 5624, 5623, 5621
9790, 6080, 6180, 6181
9791, 6180, 5890, 5624
9792, 5628, 1230, 5625
9793, 5629, 5625, 1231
9794, 5882, 5626, 5884
9795, 4101, 5622, 5627
9796, 5629, 5630, 5625
9797, 5882, 5627, 5626
9798, 5619, 5624, 5628
9799, 5890, 5628, 5624
9800, 5626, 5629, 1231
9801, 5625, 5630, 5628
9802, 5622, 5630, 5629
9803, 5632, 5631, 583
9804, 5618, 5631, 5189
9805, 583, 582, 5632
9806, 582, 6083, 6084
9807, 5677, 5633, 4772
9808, 5633, 5191, 5636
9809, 5638, 5191, 5678
9810, 5668, 5752, 5666
9811, 5636, 5635, 5633
9812, 5751, 5635, 5634
9813, 5637, 5636, 5191
9814, 5635, 5636, 5634
9815, 5642, 5641, 105
9816, 5634, 5637, 5666
9817, 106, 5639, 5638
9818, 5639, 5641, 5643
9819, 106, 105, 5639
9820, 5639, 105, 5641
9821, 5649, 5646, 104
9822, 5892, 5893, 5891
9823, 5642, 105, 104
9824, 5643, 5641, 5640
9825, 5646, 5642, 104
9826, 5640, 5641, 5642
9827, 5647, 5643, 5640
9828, 5638, 5643, 5637
9829, 5653, 5652, 103
9830, 740, 5891, 7717
9831, 7720, 5640, 5650
9832, 5666, 5645, 5668
9833, 5649, 104, 103
9834, 5650, 5646, 5644
9835, 5648, 5647, 5640
9836, 5647, 5645, 5666
9837, 7719, 7715, 5648
9838, 5648, 7715, 7717
9839, 5652, 5649, 103
9840, 5644, 5646, 5649
9841, 5644, 7719, 7720
9842, 5642, 5650, 5640
9843, 5653, 5664, 5651
9844, 5655, 5658, 5665
9845, 5653, 103, 102
9846, 5654, 5652, 5651
9847, 5653, 102, 5662
9848, 5651, 5652, 5653
9849, 5656, 5654, 5651
9850, 5649, 5654, 5644
9851, 5656, 5658, 5655
9852, 7716, 5655, 5665
9853, 5651, 5664, 5658
9854, 5655, 7721, 5656
9855, 5662, 5664, 5653
9856, 737, 7722, 6116
9857, 5651, 5658, 5656
9858, 5659, 5658, 5657
9859, 7722, 5894, 6116
9860, 7716, 5665, 739
9861, 5663, 5662, 102
9862, 5671, 5660, 5663
9863, 5663, 102, 101
9864, 5659, 738, 5661
9865, 5662, 5660, 5664
9866, 5670, 5671, 5672
9867, 5660, 5662, 5663
9868, 6094, 5664, 5660
9869, 5658, 5664, 5657
9870, 5659, 5661, 5665
9871, 739, 5665, 5661
9872, 5666, 5637, 5643
9873, 5893, 5668, 5645
9874, 5673, 5672, 101
9875, 5954, 5955, 5674
9876, 742, 5752, 5669
9877, 5750, 5751, 5752
9878, 5672, 5663, 101
9879, 5668, 741, 5669
9880, 5675, 6092, 5670
9881, 5672, 5671, 5663
9882, 6093, 5671, 5670
9883, 5673, 101, 100
9884, 5670, 5672, 5675
9885, 5954, 5676, 5673
9886, 5675, 5667, 6092
9887, 5942, 98, 5929
9888, 6106, 7727, 6105
9889, 5672, 5673, 5675
9890, 5676, 5675, 5673
9891, 5954, 5673, 100
9892, 5674, 6111, 6114
9893, 5678, 5677, 107
9894, 5633, 5677, 5191
9895, 107, 106, 5678
9896, 5678, 106, 5638
9897, 5680, 5679, 4104
9898, 5681, 5679, 5194
9899, 5682, 5680, 4104
9900, 5680, 5196, 5683
9901, 5681, 5194, 5684
9902, 5681, 54, 5193
9903, 4868, 5682, 4104
9904, 5682, 4774, 5691
9905, 5196, 5692, 5687
9906, 5683, 4105, 5686
9907, 5686, 5684, 5194
9908, 5684, 4775, 5197
9909, 54, 5681, 5685
9910, 5684, 5685, 5681
9911, 5683, 5686, 5194
9912, 5686, 4105, 5694
9913, 691, 5688, 5687
9914, 5688, 5689, 5687
9915, 691, 692, 5688
9916, 5688, 692, 5689
9917, 5707, 5714, 693
9918, 5694, 5699, 5198
9919, 5687, 5689, 5690
9920, 5713, 5690, 5689
9921, 5692, 5691, 690
9922, 5682, 5691, 5196
9923, 690, 691, 5692
9924, 5692, 691, 5687
9925, 4775, 5686, 5694
9926, 5695, 5693, 5198
9927, 5694, 5713, 5699
9928, 5198, 5693, 5694
9929, 5700, 5698, 5695
9930, 5693, 5697, 56
9931, 693, 5715, 5718
9932, 5702, 5705, 5696
9933, 5708, 5698, 5696
9934, 5695, 57, 5697
9935, 5712, 57, 5698
9936, 5707, 5689, 5714
9937, 5701, 5716, 5909
9938, 5702, 5703, 5701
9939, 5696, 5698, 5700
9940, 5703, 5702, 5700
9941, 5718, 5707, 693
9942, 5703, 5700, 5198
9943, 5705, 5701, 5704
9944, 5198, 5699, 5703
9945, 5707, 5703, 5699
9946, 5909, 694, 5717
9947, 5721, 5722, 695
9948, 5701, 5705, 5702
9949, 5706, 5705, 5704
9950, 5704, 5909, 5719
9951, 5706, 5723, 5725
9952, 5689, 5707, 5699
9953, 5722, 5721, 5720
9954, 5696, 5709, 5708
9955, 5710, 5708, 5711
9956, 5705, 5709, 5696
9957, 5709, 5706, 5711
9958, 58, 5708, 5710
9959, 5708, 5709, 5711
9960, 5725, 5723, 5726
9961, 60, 59, 5895
9962, 5690, 5713, 4105
9963, 5698, 58, 5712
9964, 5689, 5699, 5713
9965, 5689, 692, 5714
9966, 693, 5714, 692
9967, 694, 5716, 5715
9968, 5718, 5703, 5707
9969, 5701, 5703, 5718
9970, 695, 5719, 5717
9971, 5909, 5704, 5701
9972, 5715, 5716, 5718
9973, 5701, 5718, 5716
9974, 5704, 5719, 5723
9975, 5898, 5902, 5903
9976, 5722, 5719, 695
9977, 696, 5720, 5721
9978, 5723, 5719, 5722
9979, 5723, 5722, 5720
9980, 5723, 5720, 5726
9981, 5723, 5706, 5704
9982, 696, 5907, 5720
9983, 5711, 5896, 5895
9984, 5896, 5725, 5724
9985, 5711, 5706, 5725
9986, 5899, 5726, 5720
9987, 5725, 5726, 5724
9988, 6260, 5925, 6186
9989, 5201, 6449, 6448
9990, 4799, 5728, 4178
9991, 5212, 5728, 4797
9992, 5921, 6096, 5927
9993, 5730, 5230, 5732
9994, 5233, 5729, 5731
9995, 5731, 5730, 5732
9996, 5732, 5230, 5913
9997, 5731, 5732, 5233
9998, 5733, 5913, 5912
9999, 5733, 5912, 5920
10000, 5205, 5734, 4782
10001, 5237, 5734, 5238
10002, 5237, 5735, 4785
10003, 5238, 5737, 8944
10004, 5226, 6236, 6449
10005, 6097, 5925, 6224
10006, 5238, 5205, 5737
10007, 5208, 6448, 5205
10008, 6278, 5938, 6188
10009, 5241, 6465, 6464
10010, 4823, 5739, 4244
10011, 5252, 5739, 4821
10012, 5934, 6100, 5940
10013, 5741, 5270, 5743
10014, 5273, 5740, 5742
10015, 5742, 5741, 5743
10016, 5743, 5270, 5923
10017, 5742, 5743, 5273
10018, 5744, 5923, 5916
10019, 5744, 5916, 5933
10020, 5245, 5745, 4806
10021, 5277, 5745, 5278
10022, 5277, 5746, 4809
10023, 5278, 5748, 8951
10024, 5266, 6262, 6465
10025, 6101, 5938, 6266
10026, 5278, 5245, 5748
10027, 5248, 6464, 5245
10028, 5290, 5749, 4890
10029, 5635, 5749, 4103
10030, 743, 5291, 5750
10031, 5751, 5750, 5291
10032, 5635, 5751, 5291
10033, 5634, 5666, 5752
10034, 5752, 5668, 5669
10035, 5634, 5752, 5751
10036, 4902, 4904, 5755
10037, 6105, 5944, 6104
10038, 5949, 5950, 733
10039, 5951, 5754, 5950
10040, 4904, 4907, 5950
10041, 5755, 5754, 5738
10042, 97, 96, 5756
10043, 5295, 5756, 96
10044, 5757, 5968, 5967
10045, 5975, 5982, 5974
10046, 5317, 5758, 5310
10047, 5760, 5758, 5963
10048, 5759, 5760, 5963
10049, 5961, 6117, 5959
10050, 5963, 5758, 5315
10051, 699, 5760, 5759
10052, 5763, 1842, 1
10053, 3627, 5762, 5761
10054, 5319, 3777, 5763
10055, 5763, 3906, 1842
10056, 5761, 5762, 5763
10057, 5320, 5764, 3627
10058, 5321, 5764, 5322
10059, 5770, 5767, 5769
10060, 5771, 5774, 5765
10061, 7706, 7707, 5331
10062, 4944, 5765, 5766
10063, 5777, 5767, 6135
10064, 4946, 5792, 5776
10065, 5771, 5765, 5769
10066, 5771, 5775, 5768
10067, 5770, 5769, 5329
10068, 5771, 5769, 5767
10069, 5329, 5325, 5789
10070, 5770, 4593, 5989
10071, 5777, 5775, 5771
10072, 5771, 5768, 5774
10073, 4921, 5790, 4949
10074, 5772, 5790, 5794
10075, 5775, 5777, 5773
10076, 5788, 5993, 5994
10077, 5768, 5782, 5776
10078, 5765, 5774, 5331
10079, 5777, 5771, 5767
10080, 5992, 5779, 5990
10081, 5780, 5328, 7706
10082, 5774, 5776, 5780
10083, 5778, 6135, 5989
10084, 5989, 6135, 5767
10085, 5778, 5989, 5803
10086, 6006, 6007, 6009
10087, 5785, 5781, 5786
10088, 5783, 4946, 5782
10089, 4946, 5776, 5782
10090, 5774, 5780, 5331
10091, 5773, 5781, 5775
10092, 5783, 5990, 5779
10093, 5785, 5783, 5782
10094, 5770, 5989, 5767
10095, 5785, 5786, 5784
10096, 5785, 5782, 5781
10097, 5786, 5781, 5773
10098, 5785, 5784, 5990
10099, 6008, 6134, 6001
10100, 5773, 6134, 5786
10101, 6127, 5999, 6125
10102, 6000, 5997, 5995
10103, 6134, 5773, 6135
10104, 6119, 5993, 5788
10105, 4949, 5772, 5789
10106, 5770, 5789, 5772
10107, 4917, 5797, 4933
10108, 5794, 5791, 5796
10109, 5791, 5799, 4593
10110, 4593, 5796, 5791
10111, 5782, 5768, 5781
10112, 5776, 5774, 5768
10113, 4943, 5794, 5798
10114, 5794, 5790, 5798
10115, 5793, 4943, 5798
10116, 4943, 5791, 5794
10117, 5770, 5796, 4593
10118, 5791, 4943, 5800
10119, 5794, 5796, 5772
10120, 4933, 5798, 5790
10121, 5797, 1285, 5793
10122, 5797, 5793, 5798
10123, 5795, 5801, 5799
10124, 5801, 5804, 5799
10125, 4943, 5795, 5800
10126, 5799, 5800, 5795
10127, 5795, 4936, 5801
10128, 5804, 5801, 4936
10129, 6006, 6005, 6007
10130, 5787, 6008, 6007
10131, 4593, 5799, 5803
10132, 5803, 5799, 5804
10133, 6002, 5802, 6004
10134, 6135, 6136, 6001
10135, 5348, 5805, 4962
10136, 5805, 5346, 5349
10137, 5402, 5807, 4968
10138, 5399, 5806, 5351
10139, 5806, 5807, 5351
10140, 6013, 5382, 5381
10141, 6039, 5813, 6046
10142, 5370, 5809, 5412
10143, 6016, 5809, 5808
10144, 5810, 5347, 5349
10145, 5810, 5343, 5811
10146, 5345, 5811, 5343
10147, 4642, 5809, 6016
10148, 5811, 5812, 5405
10149, 6049, 6051, 6015
10150, 6015, 5814, 4642
10151, 5415, 5814, 5413
10152, 5440, 5815, 5439
10153, 5435, 5448, 5815
10154, 5816, 5448, 5830
10155, 5439, 5816, 5447
10156, 5136, 5525, 5818
10157, 5821, 224, 5827
10158, 5820, 5818, 4721
10159, 5827, 224, 223
10160, 5435, 5819, 5817
10161, 5136, 5818, 5819
10162, 5822, 5820, 4721
10163, 5826, 5820, 225
10164, 5817, 5818, 5821
10165, 5820, 5821, 5818
10166, 4722, 5822, 4721
10167, 5823, 5822, 4723
10168, 4700, 5823, 4723
10169, 225, 5820, 5825
10170, 5823, 5825, 5822
10171, 5823, 226, 5824
10172, 225, 5825, 5824
10173, 225, 224, 5826
10174, 5821, 5826, 224
10175, 5828, 5827, 223
10176, 5817, 5821, 5827
10177, 5828, 223, 5829
10178, 5831, 5828, 5448
10179, 223, 222, 5829
10180, 5832, 5829, 222
10181, 5448, 5828, 5830
10182, 5829, 5830, 5828
10183, 5435, 5831, 5448
10184, 5827, 5831, 5817
10185, 222, 221, 5833
10186, 5830, 5832, 5445
10187, 5462, 5833, 221
10188, 5456, 5457, 5834
10189, 5832, 5834, 5445
10190, 5456, 5834, 5833
10191, 5468, 5835, 5470
10192, 1180, 1181, 5836
10193, 5576, 5836, 1181
10194, 5837, 5021, 5392
10195, 5598, 5837, 5595
10196, 5595, 5837, 5838
10197, 5390, 5838, 5837
10198, 5858, 5864, 5854
10199, 5842, 5844, 5846
10200, 5848, 5606, 5875
10201, 5844, 5842, 5840
10202, 5614, 5841, 576
10203, 5607, 6079, 5842
10204, 5873, 5844, 5845
10205, 5841, 5842, 5846
10206, 5862, 5839, 5858
10207, 5847, 577, 5846
10208, 5845, 5844, 5840
10209, 5846, 5844, 5843
10210, 5848, 5845, 5840
10211, 5839, 5862, 5873
10212, 5847, 5846, 5843
10213, 5846, 577, 5841
10214, 5862, 5849, 5872
10215, 577, 5847, 578
10216, 5848, 5840, 6079
10217, 1225, 5877, 5875
10218, 5849, 5858, 5854
10219, 5853, 5855, 5860
10220, 5872, 5847, 5843
10221, 5851, 5850, 5849
10222, 5856, 5857, 5854
10223, 578, 5851, 579
10224, 5852, 5853, 5856
10225, 5871, 5861, 5869
10226, 5857, 5851, 5849
10227, 5853, 5852, 5855
10228, 5849, 5862, 5858
10229, 5864, 5859, 5867
10230, 5855, 5852, 5869
10231, 5868, 5876, 5869
10232, 5857, 5856, 5853
10233, 5867, 5856, 5854
10234, 5851, 5857, 5853
10235, 5849, 5854, 5857
10236, 5839, 5863, 5858
10237, 5863, 6081, 5864
10238, 6091, 1227, 6089
10239, 5856, 5867, 5852
10240, 5870, 5871, 5852
10241, 5855, 580, 5860
10242, 1229, 5890, 6180
10243, 5872, 5849, 5850
10244, 5862, 5872, 5873
10245, 5839, 5875, 5877
10246, 5864, 6081, 5865
10247, 1226, 5866, 6081
10248, 5864, 5865, 5859
10249, 5858, 5863, 5864
10250, 1227, 5865, 5866
10251, 6080, 6090, 1228
10252, 5864, 5867, 5854
10253, 5870, 5867, 5859
10254, 6082, 5868, 5861
10255, 580, 5876, 6088
10256, 5852, 5867, 5870
10257, 5868, 5869, 5861
10258, 1227, 6091, 5865
10259, 5870, 6090, 6080
10260, 5852, 5871, 5869
10261, 6183, 5870, 6080
10262, 5847, 5872, 5850
10263, 5873, 5872, 5843
10264, 5844, 5873, 5843
10265, 5839, 5873, 5845
10266, 5839, 5845, 5875
10267, 1226, 5863, 5874
10268, 5875, 5606, 5609
10269, 1225, 5874, 5877
10270, 5869, 5876, 5855
10271, 6088, 5876, 5868
10272, 5874, 5863, 5877
10273, 5879, 585, 584
10274, 5617, 5878, 5616
10275, 5616, 5878, 5879
10276, 585, 5879, 5878
10277, 5616, 5879, 5880
10278, 584, 5880, 5879
10279, 4101, 5627, 5882
10280, 5616, 5881, 5883
10281, 5887, 5884, 5626
10282, 5616, 5883, 5617
10283, 5881, 5882, 5883
10284, 5886, 5883, 5882
10285, 5888, 5884, 5887
10286, 1233, 5183, 5885
10287, 5183, 4769, 5885
10288, 4769, 5889, 5886
10289, 5886, 5617, 5883
10290, 5884, 5885, 5886
10291, 1231, 5887, 5626
10292, 5888, 5887, 1232
10293, 1232, 1233, 5888
10294, 5885, 5888, 1233
10295, 5185, 5889, 4769
10296, 5186, 5617, 5889
10297, 1229, 1230, 5890
10298, 5628, 5890, 1230
10299, 5893, 5892, 741
10300, 5645, 5648, 5891
10301, 5668, 5893, 741
10302, 5891, 740, 5892
10303, 5645, 5891, 5893
10304, 6092, 6113, 5894
10305, 5659, 7725, 738
10306, 59, 5711, 5895
10307, 5711, 5725, 5896
10308, 5896, 5724, 5898
10309, 5908, 5901, 5898
10310, 5724, 5902, 5898
10311, 5897, 5903, 5905
10312, 5899, 5902, 5726
10313, 5903, 5908, 5898
10314, 5981, 5980, 5905
10315, 5903, 5897, 5908
10316, 5978, 5900, 5983
10317, 5900, 5978, 5979
10318, 5898, 5901, 5896
10319, 60, 5901, 5900
10320, 5726, 5902, 5724
10321, 5903, 5902, 5899
10322, 5720, 5907, 5899
10323, 5899, 5907, 5906
10324, 698, 5985, 5984
10325, 5903, 5899, 5906
10326, 697, 5906, 5904
10327, 5986, 5906, 697
10328, 5905, 5903, 5906
10329, 696, 5904, 5907
10330, 5906, 5907, 5904
10331, 5983, 5897, 5975
10332, 5901, 5908, 5900
10333, 694, 5909, 5716
10334, 5719, 5909, 5717
10335, 5925, 5926, 6186
10336, 6097, 5926, 5925
10337, 6375, 5917, 6258
10338, 5732, 5913, 5733
10339, 6258, 5917, 5919
10340, 5230, 5911, 5913
10341, 5913, 5911, 5914
10342, 6600, 6881, 6373
10343, 5913, 5914, 5912
10344, 6645, 6366, 6642
10345, 6379, 6386, 6382
10346, 6413, 6420, 6416
10347, 6260, 5234, 5925
10348, 6367, 6375, 6381
10349, 6258, 6365, 6371
10350, 6372, 6453, 6256
10351, 5918, 5926, 5921
10352, 6372, 6256, 6505
10353, 5917, 6375, 6367
10354, 6370, 6258, 5919
10355, 5920, 5918, 5921
10356, 6276, 5930, 5932
10357, 5927, 6096, 5233
10358, 6096, 5736, 5729
10359, 5921, 6097, 6096
10360, 5923, 5727, 5916
10361, 5270, 5924, 5923
10362, 6756, 6400, 6753
10363, 6389, 6359, 6493
10364, 6186, 5926, 5918
10365, 6409, 5930, 6276
10366, 5938, 5939, 6188
10367, 6711, 6893, 6407
10368, 5732, 5927, 5233
10369, 5920, 5927, 5733
10370, 6278, 5274, 5938
10371, 6108, 5943, 5947
10372, 6401, 6409, 6415
10373, 6276, 6399, 6405
10374, 6406, 6469, 6274
10375, 5931, 5939, 5934
10376, 6406, 6274, 6514
10377, 5930, 6409, 6401
10378, 6404, 6276, 5932
10379, 5933, 5931, 5934
10380, 5929, 5753, 5943
10381, 5940, 6100, 5273
10382, 6100, 5747, 5740
10383, 5934, 6101, 6100
10384, 5738, 5754, 5948
10385, 5952, 5929, 5945
10386, 5910, 5738, 5753
10387, 6423, 6393, 6513
10388, 6188, 5939, 5931
10389, 5755, 5937, 4902
10390, 5937, 5294, 4902
10391, 5929, 5936, 5910
10392, 5743, 5940, 5273
10393, 5933, 5940, 5744
10394, 5945, 5929, 5943
10395, 6107, 6109, 6110
10396, 5953, 5955, 5954
10397, 5947, 5943, 5753
10398, 5945, 5943, 5941
10399, 5753, 5948, 5947
10400, 6104, 734, 6103
10401, 6108, 6110, 5941
10402, 5952, 5942, 5929
10403, 5676, 5954, 5674
10404, 5946, 5952, 5945
10405, 5753, 5738, 5948
10406, 5947, 5944, 6108
10407, 5950, 5754, 5755
10408, 5944, 5947, 5948
10409, 5951, 734, 6104
10410, 5951, 5944, 5948
10411, 4904, 5950, 5755
10412, 5951, 5948, 5754
10413, 734, 5951, 5949
10414, 99, 5942, 5952
10415, 99, 5955, 5953
10416, 5955, 5952, 5946
10417, 5952, 5955, 99
10418, 5954, 100, 5953
10419, 5955, 5946, 5674
10420, 5968, 5964, 5958
10421, 5956, 5968, 5959
10422, 5311, 5957, 5315
10423, 5964, 5957, 5309
10424, 5958, 5964, 5965
10425, 5966, 5969, 5958
10426, 5959, 5757, 5961
10427, 5963, 5959, 5759
10428, 5962, 6118, 5961
10429, 5987, 5988, 5960
10430, 5962, 5961, 5757
10431, 5988, 6117, 5960
10432, 5757, 5967, 5971
10433, 5975, 5897, 5980
10434, 5957, 5963, 5315
10435, 5959, 5963, 5956
10436, 5957, 5964, 5956
10437, 5965, 5964, 5309
10438, 5312, 5965, 5309
10439, 5966, 63, 5969
10440, 62, 5972, 5970
10441, 5965, 64, 5966
10442, 5757, 5971, 5962
10443, 5964, 5968, 5956
10444, 5968, 5958, 5969
10445, 5970, 5969, 63
10446, 5968, 5969, 5967
10447, 5967, 5972, 5971
10448, 5969, 5970, 5967
10449, 5977, 62, 5973
10450, 5970, 5972, 5967
10451, 61, 5976, 5973
10452, 5976, 5978, 5983
10453, 5971, 5974, 5962
10454, 5972, 5974, 5971
10455, 5972, 5977, 5974
10456, 5974, 5977, 5976
10457, 5897, 5905, 5980
10458, 5974, 5976, 5975
10459, 62, 5977, 5972
10460, 5976, 5977, 5973
10461, 5900, 5979, 60
10462, 5900, 5908, 5983
10463, 5905, 5906, 5986
10464, 5978, 61, 5979
10465, 5982, 5980, 5981
10466, 5987, 5981, 5985
10467, 5981, 5987, 6118
10468, 5974, 5982, 5962
10469, 5975, 5980, 5982
10470, 5897, 5983, 5908
10471, 5976, 5983, 5975
10472, 5987, 5985, 698
10473, 5985, 5905, 5986
10474, 5905, 5985, 5981
10475, 697, 5984, 5986
10476, 5985, 5986, 5984
10477, 5988, 699, 6117
10478, 6118, 5987, 5960
10479, 5803, 5989, 4593
10480, 5987, 698, 5988
10481, 5785, 5990, 5783
10482, 5784, 5786, 5994
10483, 6008, 6119, 5788
10484, 6127, 6198, 6189
10485, 5784, 5992, 5990
10486, 5992, 5996, 5997
10487, 5997, 5996, 5991
10488, 5994, 5992, 5784
10489, 5788, 5994, 5786
10490, 5994, 5993, 5996
10491, 6125, 5997, 5991
10492, 5992, 6000, 5779
10493, 5994, 5996, 5992
10494, 6121, 5996, 5993
10495, 6123, 5991, 6121
10496, 6133, 5997, 5999
10497, 5991, 5996, 6121
10498, 6132, 6127, 6124
10499, 5995, 6133, 5326
10500, 5997, 6000, 5992
10501, 5995, 5779, 6000
10502, 5804, 6002, 6137
10503, 6002, 6004, 6137
10504, 5804, 4936, 6002
10505, 6004, 6006, 6003
10506, 6006, 6004, 6126
10507, 6137, 6004, 6003
10508, 4935, 6192, 6197
10509, 5999, 6189, 6347
10510, 6126, 6004, 5802
10511, 6005, 6194, 6007
10512, 5787, 6119, 6008
10513, 6008, 6009, 6007
10514, 6134, 6008, 5788
10515, 6009, 6003, 6006
10516, 6008, 6001, 6009
10517, 6136, 6009, 6001
10518, 6029, 6010, 5372
10519, 5809, 6010, 5808
10520, 6024, 6039, 6022
10521, 6022, 6046, 6014
10522, 5381, 6140, 6013
10523, 6138, 6032, 6012
10524, 6140, 5381, 5377
10525, 6142, 6013, 6012
10526, 6049, 6017, 6014
10527, 3999, 6053, 6060
10528, 5814, 6015, 5413
10529, 4642, 6016, 6017
10530, 6029, 6028, 6018
10531, 6016, 5808, 6019
10532, 4642, 6017, 6015
10533, 6022, 6014, 6016
10534, 6033, 6034, 6025
10535, 6050, 6049, 6014
10536, 6029, 6019, 5808
10537, 6019, 6018, 6022
10538, 6028, 6025, 6027
10539, 6145, 6043, 6144
10540, 6016, 6019, 6022
10541, 6046, 6022, 6039
10542, 6027, 6025, 6024
10543, 6057, 6062, 6052
10544, 6061, 6160, 6057
10545, 6031, 5813, 6039
10546, 6027, 6022, 6018
10547, 6031, 6039, 6040
10548, 6025, 6028, 6033
10549, 6023, 6024, 6025
10550, 6034, 6037, 6048
10551, 6075, 6063, 6161
10552, 6022, 6027, 6024
10553, 6028, 6027, 6018
10554, 6018, 6019, 6029
10555, 6033, 6028, 6011
10556, 6010, 6029, 5808
10557, 6142, 6032, 6029
10558, 6011, 6032, 6138
10559, 6034, 6023, 6025
10560, 6040, 6024, 6023
10561, 6041, 5813, 6145
10562, 6011, 6029, 6032
10563, 6142, 6029, 5372
10564, 6138, 6033, 6011
10565, 6033, 6030, 6034
10566, 6164, 6165, 6169
10567, 6034, 6030, 6037
10568, 6071, 6070, 6065
10569, 6058, 6048, 6150
10570, 6035, 6164, 6076
10571, 6058, 6040, 6023
10572, 6038, 6037, 6030
10573, 6059, 4600, 6146
10574, 6141, 6030, 6138
10575, 4598, 6228, 6203
10576, 6040, 6039, 6024
10577, 6144, 6043, 6053
10578, 6037, 6038, 6059
10579, 6043, 6040, 6026
10580, 6020, 6049, 6050
10581, 6154, 6061, 6152
10582, 6054, 6053, 6026
10583, 6065, 6068, 6052
10584, 6040, 6043, 6031
10585, 3999, 6143, 6144
10586, 6054, 6056, 6060
10587, 5416, 6045, 4000
10588, 6015, 6045, 5413
10589, 6050, 6046, 5813
10590, 6163, 6171, 6173
10591, 6053, 6043, 6026
10592, 6158, 6200, 6149
10593, 6159, 6165, 6170
10594, 6046, 6050, 6014
10595, 6051, 6049, 6020
10596, 5813, 6041, 6050
10597, 6020, 6050, 6041
10598, 4000, 6051, 6020
10599, 6015, 6051, 6045
10600, 6057, 6052, 6054
10601, 6054, 6052, 6056
10602, 6054, 6066, 6057
10603, 6058, 6066, 6040
10604, 6150, 6061, 6058
10605, 6065, 6052, 6064
10606, 6047, 6056, 6068
10607, 6066, 6054, 6026
10608, 6048, 6058, 6023
10609, 6034, 6048, 6023
10610, 6151, 6149, 6152
10611, 6203, 6208, 6202
10612, 6155, 6154, 6152
10613, 3999, 6060, 6047
10614, 6054, 6060, 6053
10615, 6147, 6148, 6076
10616, 6052, 6062, 6064
10617, 6066, 6061, 6057
10618, 4600, 6059, 6038
10619, 6036, 6170, 6161
10620, 6071, 6065, 6063
10621, 6148, 6035, 6076
10622, 6065, 6064, 6063
10623, 6067, 6070, 6071
10624, 6065, 6070, 6068
10625, 6058, 6061, 6066
10626, 6040, 6066, 6026
10627, 6071, 6074, 6073
10628, 6068, 6070, 6021
10629, 6047, 6068, 6021
10630, 6052, 6068, 6056
10631, 6069, 6147, 6166
10632, 6226, 6207, 6074
10633, 6067, 6021, 6070
10634, 6075, 6071, 6063
10635, 6042, 6067, 6073
10636, 6062, 6036, 6064
10637, 6073, 6074, 6042
10638, 6067, 6071, 6073
10639, 6071, 6075, 6074
10640, 6350, 6078, 6209
10641, 6226, 6072, 6147
10642, 6036, 6063, 6064
10643, 6074, 6075, 6072
10644, 6037, 6157, 6151
10645, 6157, 6059, 6158
10646, 6226, 6209, 6078
10647, 6179, 6042, 6207
10648, 6069, 6209, 6226
10649, 6350, 6351, 6078
10650, 5848, 6079, 5602
10651, 5842, 6079, 5840
10652, 5871, 5870, 6183
10653, 1229, 6180, 6184
10654, 1226, 6081, 5863
10655, 5865, 6081, 5866
10656, 6182, 6082, 5861
10657, 6082, 5621, 6083
10658, 5621, 5623, 6085
10659, 6086, 6087, 581
10660, 582, 6084, 5632
10661, 6085, 6083, 5621
10662, 6085, 5623, 5620
10663, 6083, 6085, 6084
10664, 5868, 6082, 6086
10665, 6083, 6086, 6082
10666, 6089, 1228, 6090
10667, 6083, 582, 6087
10668, 6086, 6088, 5868
10669, 6090, 5870, 6091
10670, 6091, 5870, 5859
10671, 6091, 5859, 5865
10672, 6089, 6090, 6091
10673, 6113, 5667, 6112
10674, 6093, 6092, 5894
10675, 7723, 7722, 737
10676, 6094, 6093, 7724
10677, 5664, 6094, 5657
10678, 5660, 6093, 6094
10679, 8946, 8942, 8945
10680, 6451, 6450, 6185
10681, 5233, 6096, 5729
10682, 5921, 5926, 6097
10683, 6247, 6252, 6248
10684, 6096, 6097, 6252
10685, 5918, 6364, 6186
10686, 6251, 6361, 6451
10687, 8953, 8949, 8952
10688, 6467, 6466, 6187
10689, 5273, 6100, 5740
10690, 5934, 5939, 6101
10691, 6268, 6269, 6265
10692, 6100, 6101, 6269
10693, 5931, 6398, 6188
10694, 6267, 6395, 6467
10695, 6105, 6110, 6108
10696, 6104, 6103, 6106
10697, 5951, 6104, 5944
10698, 6103, 735, 6106
10699, 6106, 735, 7727
10700, 736, 6112, 7728
10701, 6104, 6106, 6105
10702, 6107, 6112, 6111
10703, 6109, 5674, 5946
10704, 6108, 5941, 5943
10705, 5944, 6105, 6108
10706, 5941, 6109, 5946
10707, 6111, 6109, 6107
10708, 6110, 6105, 7727
10709, 6109, 5941, 6110
10710, 6107, 7728, 6112
10711, 6111, 5667, 6114
10712, 6116, 6113, 6112
10713, 5667, 6111, 6112
10714, 5667, 6113, 6092
10715, 7722, 7725, 7724
10716, 5675, 6114, 5667
10717, 5674, 6114, 5676
10718, 6115, 6112, 736
10719, 737, 6116, 6115
10720, 6113, 6116, 5894
10721, 5959, 6117, 5759
10722, 5960, 6117, 5961
10723, 5961, 6118, 5960
10724, 5982, 6118, 5962
10725, 6120, 6123, 6122
10726, 5993, 6119, 6121
10727, 6195, 6191, 6194
10728, 6120, 6129, 6124
10729, 6122, 6121, 6119
10730, 6121, 6122, 6123
10731, 5787, 6193, 6119
10732, 6129, 6120, 6280
10733, 6123, 6120, 6124
10734, 5997, 6125, 5999
10735, 6006, 6126, 6005
10736, 6328, 6312, 6317
10737, 5991, 6123, 6125
10738, 6127, 6123, 6124
10739, 6321, 6326, 6325
10740, 5998, 5326, 6347
10741, 6286, 6129, 6280
10742, 6123, 6127, 6125
10743, 6425, 6326, 6327
10744, 6283, 6192, 4935
10745, 6191, 6281, 6280
10746, 6126, 6197, 6192
10747, 6005, 6192, 6195
10748, 6290, 6129, 6288
10749, 6131, 5998, 6348
10750, 6327, 6324, 6339
10751, 6124, 6129, 6290
10752, 6347, 6196, 6348
10753, 5997, 6133, 5995
10754, 6347, 6133, 5999
10755, 5786, 6134, 5788
10756, 6135, 5773, 5777
10757, 6136, 6135, 5778
10758, 6134, 6135, 6001
10759, 5778, 5803, 6137
10760, 6009, 6136, 6003
10761, 6003, 6136, 6137
10762, 6137, 6136, 5778
10763, 6141, 4600, 6038
10764, 6033, 6138, 6030
10765, 6013, 6140, 6012
10766, 6138, 5377, 6139
10767, 5377, 6138, 6140
10768, 6138, 6139, 6141
10769, 6141, 6139, 4600
10770, 6013, 6142, 5382
10771, 6032, 6142, 6012
10772, 3999, 6144, 6053
10773, 6043, 6145, 6031
10774, 6145, 6144, 6143
10775, 6041, 6145, 6143
10776, 6031, 6145, 5813
10777, 6148, 6161, 6035
10778, 6166, 6147, 6076
10779, 6042, 6074, 6207
10780, 6148, 6147, 6072
10781, 6075, 6148, 6072
10782, 6062, 6057, 6160
10783, 6152, 6150, 6151
10784, 6151, 6150, 6048
10785, 6048, 6037, 6151
10786, 6157, 6037, 6059
10787, 6152, 6149, 6155
10788, 6061, 6150, 6152
10789, 6200, 6199, 6168
10790, 6203, 6174, 4598
10791, 6153, 6159, 6154
10792, 6160, 6036, 6062
10793, 6157, 6158, 6149
10794, 6154, 6155, 6153
10795, 6055, 6199, 6156
10796, 6176, 6165, 6153
10797, 6158, 6059, 6146
10798, 6149, 6151, 6157
10799, 6235, 6199, 6055
10800, 6146, 6156, 6201
10801, 6159, 6153, 6165
10802, 6160, 6159, 6036
10803, 6061, 6154, 6160
10804, 6160, 6154, 6159
10805, 6075, 6161, 6148
10806, 6063, 6036, 6161
10807, 6221, 6211, 6222
10808, 6172, 6169, 6162
10809, 6178, 6169, 6176
10810, 6044, 6218, 6219
10811, 6170, 6035, 6161
10812, 6169, 6178, 6162
10813, 6153, 6200, 6176
10814, 6035, 6165, 6164
10815, 6171, 6166, 6076
10816, 6220, 6166, 6163
10817, 6171, 6164, 6172
10818, 6172, 6173, 6171
10819, 6199, 6200, 6201
10820, 6169, 6172, 6164
10821, 6176, 6169, 6165
10822, 6177, 6167, 6250
10823, 6159, 6170, 6036
10824, 6165, 6035, 6170
10825, 6166, 6171, 6163
10826, 6164, 6171, 6076
10827, 6204, 6174, 6203
10828, 6173, 6172, 6162
10829, 6163, 6173, 6044
10830, 6175, 6202, 6173
10831, 6173, 6162, 6175
10832, 6204, 6162, 6250
10833, 6175, 6203, 6202
10834, 6200, 6153, 6155
10835, 6176, 6168, 6178
10836, 6204, 6250, 6167
10837, 6250, 6178, 6235
10838, 6168, 6199, 6235
10839, 6235, 6177, 6250
10840, 6163, 6219, 6220
10841, 6175, 6204, 6203
10842, 6181, 6180, 5624
10843, 6184, 6180, 6080
10844, 6182, 5621, 6082
10845, 6183, 6181, 6182
10846, 6183, 6182, 5861
10847, 5621, 6182, 6181
10848, 5871, 6183, 5861
10849, 6080, 6181, 6183
10850, 6236, 6230, 6233
10851, 6080, 1228, 6184
10852, 6361, 6095, 6362
10853, 6257, 5918, 5920
10854, 6098, 6186, 6365
10855, 6262, 6263, 6261
10856, 6395, 6099, 6396
10857, 6275, 5931, 5933
10858, 6102, 6188, 6399
10859, 6122, 6191, 6120
10860, 6149, 6200, 6155
10861, 6285, 6281, 6283
10862, 6198, 6132, 6425
10863, 6122, 6193, 6191
10864, 6191, 6193, 6194
10865, 6200, 6168, 6176
10866, 6201, 6200, 6158
10867, 6119, 6193, 6122
10868, 6194, 6193, 5787
10869, 6007, 6194, 5787
10870, 6194, 6005, 6195
10871, 6005, 6126, 6192
10872, 6195, 6283, 6281
10873, 6347, 6198, 6196
10874, 6304, 6303, 6316
10875, 5802, 6197, 6126
10876, 6127, 6132, 6198
10877, 6199, 6201, 6156
10878, 6146, 6201, 6158
10879, 7988, 8016, 8031
10880, 6213, 6238, 6229
10881, 6173, 6202, 6044
10882, 6162, 6204, 6175
10883, 6167, 6174, 6204
10884, 6231, 6210, 6211
10885, 6240, 6234, 6221
10886, 6217, 6223, 6206
10887, 7961, 6445, 7959
10888, 6202, 6208, 6044
10889, 6077, 6222, 6218
10890, 6233, 6249, 6251
10891, 6044, 6077, 6218
10892, 6228, 4598, 6229
10893, 6350, 6444, 6441
10894, 6208, 6228, 6237
10895, 6356, 6255, 6360
10896, 6214, 6216, 6217
10897, 7993, 6210, 6231
10898, 6229, 6238, 6352
10899, 6215, 6443, 6220
10900, 6210, 6216, 6211
10901, 6349, 6227, 6442
10902, 6247, 6251, 6249
10903, 6220, 6214, 6215
10904, 6234, 6231, 6211
10905, 6217, 6216, 6210
10906, 6216, 6214, 6218
10907, 6217, 6210, 6223
10908, 6217, 6206, 6444
10909, 6219, 6218, 6214
10910, 6077, 6044, 6208
10911, 6220, 6219, 6214
10912, 6163, 6044, 6219
10913, 6215, 6214, 6217
10914, 6220, 6069, 6166
10915, 6228, 6208, 6203
10916, 8009, 7983, 7986
10917, 6069, 6226, 6147
10918, 6353, 6240, 6238
10919, 6252, 5922, 6096
10920, 6247, 5922, 6252
10921, 6078, 6207, 6226
10922, 6237, 6222, 6077
10923, 6074, 6072, 6226
10924, 5227, 6230, 5222
10925, 7993, 6223, 6210
10926, 6351, 6350, 6442
10927, 6216, 6222, 6211
10928, 6352, 6237, 6228
10929, 6221, 6222, 6237
10930, 6351, 6207, 6078
10931, 8033, 7991, 7988
10932, 6237, 6352, 6221
10933, 6239, 6245, 6232
10934, 7990, 6234, 6242
10935, 6243, 7955, 7956
10936, 6221, 6234, 6211
10937, 6234, 6232, 6242
10938, 6178, 6250, 6162
10939, 6251, 6253, 6233
10940, 6168, 6235, 6178
10941, 6356, 6224, 5234
10942, 6237, 6077, 6208
10943, 6229, 6352, 6228
10944, 6239, 6241, 6354
10945, 6234, 6240, 6232
10946, 6185, 6449, 6236
10947, 6353, 6238, 6213
10948, 6221, 6238, 6240
10949, 6239, 6353, 6241
10950, 6241, 6353, 6213
10951, 6241, 6212, 6354
10952, 6242, 6245, 6446
10953, 6242, 6232, 6245
10954, 6243, 6245, 6239
10955, 6445, 7956, 7957
10956, 7963, 7965, 7960
10957, 6233, 5236, 6249
10958, 6232, 6240, 6239
10959, 7959, 6355, 7963
10960, 5922, 6249, 5236
10961, 7996, 7965, 7979
10962, 5925, 5234, 6224
10963, 6360, 6095, 6356
10964, 6230, 6236, 5222
10965, 8944, 3310, 5735
10966, 6246, 8947, 8948
10967, 6097, 6224, 6252
10968, 6055, 6177, 6235
10969, 6251, 6248, 6095
10970, 5236, 6233, 6230
10971, 6251, 6247, 6248
10972, 6248, 6224, 6356
10973, 6252, 6224, 6248
10974, 6361, 6254, 6451
10975, 6363, 6362, 6095
10976, 6493, 6359, 6357
10977, 8943, 5737, 6448
10978, 6457, 6508, 6453
10979, 6364, 6365, 6186
10980, 5920, 5912, 6257
10981, 6459, 7731, 6385
10982, 6370, 5919, 6372
10983, 6376, 6257, 5912
10984, 6389, 6577, 6447
10985, 6259, 6260, 6186
10986, 6186, 6098, 6259
10987, 6580, 6506, 6378
10988, 5935, 6264, 5276
10989, 6261, 5276, 6264
10990, 6187, 6465, 6262
10991, 6263, 6262, 5262
10992, 5267, 6263, 5262
10993, 5276, 6261, 6263
10994, 6269, 5935, 6100
10995, 6261, 6264, 6267
10996, 6390, 6273, 6394
10997, 6270, 8954, 8955
10998, 5938, 5274, 6266
10999, 6390, 6266, 5274
11000, 6268, 6267, 6264
11001, 8951, 3295, 5746
11002, 6268, 5935, 6269
11003, 6267, 6268, 6265
11004, 6101, 6266, 6269
11005, 6269, 6266, 6265
11006, 6394, 6099, 6390
11007, 6267, 6271, 6261
11008, 6265, 6266, 6390
11009, 6267, 6265, 6099
11010, 6397, 6396, 6099
11011, 6395, 6272, 6467
11012, 6513, 6393, 6391
11013, 8950, 5748, 6464
11014, 6473, 6517, 6469
11015, 6398, 6399, 6188
11016, 5933, 5916, 6275
11017, 6475, 7735, 6419
11018, 6404, 5932, 6406
11019, 6410, 6275, 5916
11020, 6423, 6584, 6463
11021, 6277, 6278, 6188
11022, 6188, 6102, 6277
11023, 6587, 6515, 6412
11024, 6285, 6289, 6287
11025, 6286, 6288, 6129
11026, 6120, 6191, 6280
11027, 6281, 6191, 6195
11028, 6195, 6192, 6283
11029, 6285, 6283, 6282
11030, 6294, 6296, 6284
11031, 6283, 4935, 6282
11032, 6279, 6289, 6291
11033, 6287, 6281, 6285
11034, 6291, 6282, 6279
11035, 6286, 6287, 6293
11036, 6287, 6286, 6280
11037, 6288, 6286, 6284
11038, 6281, 6287, 6280
11039, 6291, 6285, 6282
11040, 6284, 6296, 6297
11041, 6288, 6190, 6290
11042, 6299, 6301, 6424
11043, 6286, 6293, 6284
11044, 6425, 6290, 6190
11045, 6124, 6290, 6132
11046, 6292, 6301, 6294
11047, 6285, 6291, 6289
11048, 6300, 6295, 6296
11049, 6289, 6294, 6293
11050, 6287, 6289, 6293
11051, 6292, 6289, 6279
11052, 6296, 6301, 6300
11053, 6284, 6293, 6294
11054, 6306, 6305, 6313
11055, 6303, 6307, 6309
11056, 6130, 6424, 6298
11057, 6297, 6190, 6288
11058, 6296, 6295, 6297
11059, 6325, 6295, 6321
11060, 6424, 6130, 6313
11061, 6289, 6292, 6294
11062, 6296, 6294, 6301
11063, 6304, 6295, 6300
11064, 6298, 6424, 6292
11065, 6304, 6300, 6299
11066, 6279, 6298, 6292
11067, 6299, 6305, 6304
11068, 6307, 6302, 6315
11069, 6299, 6313, 6305
11070, 6431, 6315, 6330
11071, 6307, 6306, 6302
11072, 6304, 6316, 6312
11073, 6307, 6305, 6306
11074, 6304, 6305, 6303
11075, 6424, 6313, 6299
11076, 6335, 6320, 6428
11077, 6303, 6305, 6307
11078, 6432, 6434, 6430
11079, 6310, 6319, 6317
11080, 6307, 6315, 6309
11081, 6433, 6316, 6309
11082, 6330, 6308, 4924
11083, 6430, 6433, 6431
11084, 6304, 6312, 6295
11085, 6310, 6317, 6311
11086, 6312, 6311, 6317
11087, 6300, 6301, 6299
11088, 6306, 6313, 6130
11089, 6332, 6434, 6432
11090, 6440, 6322, 6336
11091, 6302, 6308, 6315
11092, 6315, 6308, 6330
11093, 6309, 6316, 6303
11094, 6311, 6312, 6316
11095, 6343, 6336, 6128
11096, 6319, 6323, 6328
11097, 6327, 6334, 6196
11098, 6318, 6323, 6319
11099, 6320, 6335, 6337
11100, 6321, 6323, 6324
11101, 6440, 6329, 6345
11102, 6440, 6343, 6329
11103, 6297, 6325, 6190
11104, 6295, 6312, 6328
11105, 6329, 6320, 6345
11106, 6330, 6314, 6431
11107, 6324, 6323, 6318
11108, 6323, 6321, 6328
11109, 6429, 6331, 6339
11110, 6425, 6132, 6290
11111, 6295, 6325, 6297
11112, 6326, 6321, 6324
11113, 6327, 6326, 6324
11114, 6190, 6325, 6326
11115, 6338, 6339, 6324
11116, 6196, 6198, 6425
11117, 6328, 6317, 6319
11118, 6295, 6328, 6321
11119, 6341, 6335, 6310
11120, 6329, 6333, 6428
11121, 6318, 6333, 6342
11122, 6318, 6319, 6333
11123, 6338, 6324, 6318
11124, 6131, 6334, 6340
11125, 6480, 6488, 6486
11126, 6435, 6480, 6485
11127, 6428, 6319, 6310
11128, 6329, 6342, 6333
11129, 6331, 6340, 6339
11130, 6348, 6334, 6131
11131, 6341, 6310, 6311
11132, 6338, 6318, 6342
11133, 6333, 6319, 6428
11134, 6320, 6337, 6346
11135, 6335, 6332, 6337
11136, 6432, 6437, 6435
11137, 6339, 6338, 6429
11138, 6339, 6340, 6334
11139, 6327, 6339, 6334
11140, 6331, 6131, 6340
11141, 6433, 6430, 6341
11142, 6335, 6341, 6434
11143, 6128, 6342, 6343
11144, 6342, 6128, 6429
11145, 6329, 6343, 6342
11146, 6480, 6426, 6332
11147, 6439, 6322, 6497
11148, 6346, 6345, 6320
11149, 6345, 6344, 6497
11150, 6346, 6337, 6487
11151, 6345, 6346, 6344
11152, 6347, 5326, 6133
11153, 6347, 6189, 6198
11154, 6347, 6348, 5998
11155, 6334, 6348, 6196
11156, 6209, 6443, 6350
11157, 8016, 6441, 6206
11158, 6444, 6206, 6441
11159, 6227, 6179, 6351
11160, 6207, 6351, 6179
11161, 6221, 6352, 6238
11162, 6240, 6353, 6239
11163, 7954, 6354, 6212
11164, 6243, 6239, 6354
11165, 6243, 7954, 7955
11166, 7994, 7958, 7967
11167, 6500, 6260, 6259
11168, 5231, 6358, 6363
11169, 6450, 6448, 6185
11170, 6255, 6357, 6359
11171, 6255, 5231, 6363
11172, 6236, 6253, 6185
11173, 6357, 6356, 6484
11174, 6359, 5231, 6255
11175, 6360, 6363, 6095
11176, 6251, 6095, 6361
11177, 6246, 6362, 6358
11178, 6254, 6361, 6362
11179, 6255, 6363, 6360
11180, 6358, 6362, 6363
11181, 6257, 6364, 5918
11182, 6371, 6364, 6257
11183, 6453, 6372, 5919
11184, 6259, 6504, 6500
11185, 6384, 6367, 6381
11186, 6370, 6098, 6365
11187, 6365, 6364, 6371
11188, 6379, 5917, 6367
11189, 6381, 6462, 6388
11190, 6454, 5917, 6382
11191, 6379, 6384, 6380
11192, 6372, 6098, 6370
11193, 6378, 6583, 6581
11194, 6258, 6370, 6365
11195, 6371, 6257, 6377
11196, 6371, 6377, 6462
11197, 6462, 5915, 6388
11198, 6613, 6629, 6626
11199, 6375, 6258, 6371
11200, 6377, 6257, 6376
11201, 6385, 7731, 7734
11202, 6386, 6378, 6506
11203, 6376, 5915, 6377
11204, 6462, 6375, 6371
11205, 5919, 6454, 6453
11206, 6379, 6382, 5917
11207, 7731, 6384, 7732
11208, 6381, 7732, 6384
11209, 6582, 6458, 6452
11210, 6383, 6583, 6386
11211, 6582, 6452, 6580
11212, 6506, 6382, 6386
11213, 6383, 6380, 6460
11214, 5914, 4133, 8536
11215, 6384, 7731, 6460
11216, 7732, 6388, 7734
11217, 6376, 5912, 5914
11218, 6379, 6367, 6384
11219, 6376, 5914, 8536
11220, 6379, 6380, 6386
11221, 6383, 6386, 6380
11222, 6387, 8537, 8535
11223, 6385, 7733, 6368
11224, 6381, 6375, 6462
11225, 7731, 6459, 6460
11226, 6357, 6255, 6356
11227, 6098, 6505, 6504
11228, 6510, 6278, 6277
11229, 5271, 6392, 6397
11230, 6466, 6464, 6187
11231, 6273, 6391, 6393
11232, 6273, 5271, 6397
11233, 6262, 6271, 6187
11234, 6391, 6390, 6511
11235, 6393, 5271, 6273
11236, 6394, 6397, 6099
11237, 6267, 6099, 6395
11238, 6270, 6396, 6392
11239, 6272, 6395, 6396
11240, 6273, 6397, 6394
11241, 6392, 6396, 6397
11242, 6275, 6398, 5931
11243, 6405, 6398, 6275
11244, 6469, 6406, 5932
11245, 6277, 6512, 6510
11246, 6418, 6401, 6415
11247, 6404, 6102, 6399
11248, 6399, 6398, 6405
11249, 6413, 5930, 6401
11250, 6415, 6478, 6422
11251, 6470, 5930, 6416
11252, 6413, 6418, 6414
11253, 6406, 6102, 6404
11254, 6412, 6590, 6588
11255, 6276, 6404, 6399
11256, 6405, 6275, 6411
11257, 6405, 6411, 6478
11258, 6478, 5928, 6422
11259, 6724, 6740, 6737
11260, 6409, 6276, 6405
11261, 6411, 6275, 6410
11262, 6419, 7735, 7738
11263, 6420, 6412, 6515
11264, 6410, 5928, 6411
11265, 6478, 6409, 6405
11266, 5932, 6470, 6469
11267, 6413, 6416, 5930
11268, 7735, 6418, 7736
11269, 6415, 7736, 6418
11270, 6589, 6474, 6468
11271, 6417, 6590, 6420
11272, 6589, 6468, 6587
11273, 6515, 6416, 6420
11274, 6417, 6414, 6476
11275, 5727, 4199, 8539
11276, 6418, 7735, 6476
11277, 7736, 6422, 7738
11278, 6410, 5916, 5727
11279, 6413, 6401, 6418
11280, 6410, 5727, 8539
11281, 6413, 6414, 6420
11282, 6417, 6420, 6414
11283, 6421, 8540, 8538
11284, 6419, 7737, 6402
11285, 6415, 6409, 6478
11286, 7735, 6475, 6476
11287, 6391, 6273, 6390
11288, 6102, 6514, 6512
11289, 6292, 6424, 6301
11290, 6326, 6425, 6190
11291, 6425, 6327, 6196
11292, 7153, 7180, 7179
11293, 6591, 6346, 6487
11294, 6332, 6485, 6480
11295, 6560, 6563, 6562
11296, 6335, 6428, 6310
11297, 6329, 6428, 6320
11298, 6342, 6429, 6338
11299, 6128, 6331, 6429
11300, 6430, 6314, 6432
11301, 6433, 6341, 6311
11302, 6315, 6431, 6309
11303, 6314, 6430, 6431
11304, 6437, 6432, 6314
11305, 6526, 6491, 6523
11306, 6316, 6433, 6311
11307, 6431, 6433, 6309
11308, 6335, 6434, 6332
11309, 6430, 6434, 6341
11310, 6435, 6521, 6481
11311, 6332, 6426, 6337
11312, 6435, 6427, 6480
11313, 6479, 6487, 6496
11314, 4924, 6521, 6330
11315, 6491, 6489, 6490
11316, 6592, 6496, 6486
11317, 6490, 6489, 6499
11318, 6440, 6336, 6343
11319, 6591, 6519, 6497
11320, 6345, 6322, 6440
11321, 3998, 6349, 6441
11322, 6441, 6349, 6442
11323, 6351, 6442, 6227
11324, 6441, 6442, 6350
11325, 6220, 6443, 6209
11326, 6215, 6217, 6444
11327, 6350, 6443, 6444
11328, 6444, 6443, 6215
11329, 7956, 6445, 6446
11330, 7961, 7960, 7966
11331, 6243, 6446, 6245
11332, 7968, 6445, 7961
11333, 5234, 6484, 6356
11334, 6260, 6500, 6484
11335, 5205, 6448, 5737
11336, 6449, 5201, 5226
11337, 6185, 6448, 6449
11338, 6451, 6185, 6253
11339, 8943, 8945, 8944
11340, 6451, 6253, 6251
11341, 6254, 6450, 6451
11342, 6506, 6580, 6452
11343, 6578, 6508, 3308
11344, 6455, 6453, 6454
11345, 6458, 6457, 6455
11346, 5917, 6454, 5919
11347, 6455, 6454, 6382
11348, 6506, 6455, 6382
11349, 6458, 6456, 6457
11350, 6458, 6455, 6452
11351, 6455, 6457, 6453
11352, 6508, 6456, 3308
11353, 6580, 6507, 6582
11354, 6456, 6458, 6374
11355, 6643, 6642, 6366
11356, 6604, 6606, 6461
11357, 6384, 6460, 6380
11358, 6608, 6607, 6609
11359, 6612, 6607, 6606
11360, 6606, 6618, 6615
11361, 6462, 6377, 5915
11362, 5915, 8536, 8537
11363, 5274, 6511, 6390
11364, 6278, 6510, 6511
11365, 5245, 6464, 5748
11366, 6465, 5241, 5266
11367, 6187, 6464, 6465
11368, 6467, 6187, 6271
11369, 8950, 8952, 8951
11370, 6467, 6271, 6267
11371, 6272, 6466, 6467
11372, 6515, 6587, 6468
11373, 6585, 6517, 3293
11374, 6471, 6469, 6470
11375, 6474, 6473, 6471
11376, 5930, 6470, 5932
11377, 6471, 6470, 6416
11378, 6515, 6471, 6416
11379, 6474, 6472, 6473
11380, 6474, 6471, 6468
11381, 6471, 6473, 6469
11382, 6517, 6472, 3293
11383, 6587, 6516, 6589
11384, 6472, 6474, 6408
11385, 6754, 6753, 6400
11386, 6715, 6717, 6477
11387, 6418, 6476, 6414
11388, 6719, 6718, 6720
11389, 6723, 6718, 6717
11390, 6717, 6729, 6726
11391, 6478, 6411, 5928
11392, 5928, 8539, 8540
11393, 6491, 6481, 6482
11394, 6439, 6519, 4591
11395, 6483, 6522, 6520
11396, 6432, 6485, 6332
11397, 6493, 6484, 6500
11398, 6521, 6435, 6437
11399, 6314, 6330, 6521
11400, 6488, 6480, 6427
11401, 6487, 6426, 6496
11402, 6435, 6481, 6427
11403, 6486, 6426, 6480
11404, 6536, 6533, 6535
11405, 6499, 6498, 6490
11406, 6519, 6591, 6479
11407, 6337, 6426, 6487
11408, 6490, 6488, 6427
11409, 6498, 6492, 6593
11410, 6427, 6491, 6490
11411, 6256, 6508, 6578
11412, 6427, 6481, 6491
11413, 6499, 6503, 6492
11414, 6522, 6523, 6482
11415, 6526, 6523, 6483
11416, 6531, 6489, 6528
11417, 6544, 6598, 6546
11418, 6541, 6547, 6503
11419, 6490, 6498, 6488
11420, 6503, 6499, 6489
11421, 6345, 6497, 6322
11422, 6260, 6484, 5234
11423, 6593, 6592, 6486
11424, 6426, 6486, 6496
11425, 6488, 6498, 6486
11426, 6535, 6503, 6531
11427, 6529, 6525, 6532
11428, 6498, 6499, 6492
11429, 6497, 6344, 6591
11430, 6484, 6493, 6357
11431, 6554, 6529, 6532
11432, 6098, 6504, 6259
11433, 6491, 6525, 6528
11434, 6543, 6548, 6537
11435, 6558, 6574, 6542
11436, 6577, 6505, 6578
11437, 6492, 6503, 6547
11438, 6500, 6504, 6389
11439, 6389, 6493, 6500
11440, 6372, 6505, 6098
11441, 6455, 6506, 6452
11442, 6580, 6378, 6581
11443, 6600, 6507, 6602
11444, 6453, 6508, 6256
11445, 6456, 6508, 6457
11446, 6368, 6621, 6631
11447, 6603, 6604, 6634
11448, 6510, 6512, 6423
11449, 6278, 6511, 5274
11450, 6513, 6511, 6510
11451, 6102, 6512, 6277
11452, 6584, 6514, 6585
11453, 6511, 6513, 6391
11454, 6423, 6513, 6510
11455, 6406, 6514, 6102
11456, 6274, 6517, 6585
11457, 6587, 6412, 6588
11458, 6471, 6515, 6468
11459, 6711, 6516, 6713
11460, 6469, 6517, 6274
11461, 6472, 6517, 6473
11462, 6402, 6732, 6742
11463, 6714, 6715, 6745
11464, 6519, 6439, 6497
11465, 6595, 6519, 6479
11466, 4924, 6520, 6521
11467, 6482, 6481, 6521
11468, 6521, 6520, 6522
11469, 6523, 6522, 6483
11470, 6521, 6522, 6482
11471, 6524, 6436, 6525
11472, 6491, 6482, 6523
11473, 6525, 6529, 6528
11474, 6483, 6524, 6526
11475, 6491, 6528, 6489
11476, 6524, 6525, 6526
11477, 6491, 6526, 6525
11478, 6566, 6556, 6527
11479, 6554, 6534, 6538
11480, 6528, 6529, 6531
11481, 6532, 6525, 6436
11482, 6529, 6494, 6531
11483, 6555, 6530, 6527
11484, 6554, 6530, 6555
11485, 6536, 6535, 6531
11486, 6489, 6531, 6503
11487, 6533, 6540, 6545
11488, 6532, 6436, 6530
11489, 6503, 6535, 6541
11490, 6539, 6502, 6540
11491, 6540, 6536, 6538
11492, 6536, 6531, 6494
11493, 6543, 6541, 6535
11494, 6494, 6538, 6536
11495, 6539, 6540, 6538
11496, 6537, 6541, 6543
11497, 6595, 6592, 6596
11498, 6554, 6538, 6494
11499, 6538, 6534, 6539
11500, 6556, 6534, 6555
11501, 6539, 6534, 6556
11502, 6502, 6558, 6545
11503, 6533, 6536, 6540
11504, 6543, 6535, 6533
11505, 6544, 6552, 6553
11506, 6542, 6545, 6558
11507, 6876, 6877, 6875
11508, 6545, 6543, 6533
11509, 6598, 6876, 6546
11510, 6537, 6548, 6544
11511, 6547, 6561, 6563
11512, 6502, 6545, 6540
11513, 6877, 6549, 6542
11514, 6542, 6574, 6905
11515, 6905, 6574, 6571
11516, 6561, 6541, 6537
11517, 6537, 6553, 6561
11518, 6549, 6543, 6545
11519, 6553, 6537, 6544
11520, 6543, 6549, 6548
11521, 6545, 6542, 6549
11522, 6501, 6551, 6552
11523, 6877, 6598, 6549
11524, 6544, 6501, 6552
11525, 6552, 6551, 6553
11526, 6551, 6559, 6553
11527, 6547, 6541, 6561
11528, 6529, 6554, 6494
11529, 6530, 6554, 6532
11530, 6556, 6555, 6527
11531, 6554, 6555, 6534
11532, 6502, 6539, 6564
11533, 6556, 6566, 6539
11534, 6569, 6570, 6572
11535, 6527, 6557, 6566
11536, 6572, 6570, 6502
11537, 6551, 6550, 6559
11538, 6559, 6550, 6562
11539, 6519, 6595, 4591
11540, 6592, 6479, 6496
11541, 6562, 6561, 6553
11542, 6561, 6562, 6563
11543, 6553, 6559, 6562
11544, 6822, 6594, 6596
11545, 6593, 6563, 6560
11546, 6492, 6547, 6563
11547, 6557, 6438, 6567
11548, 6569, 6564, 6567
11549, 6571, 6574, 6575
11550, 6919, 6909, 6907
11551, 6567, 6566, 6557
11552, 6539, 6566, 6564
11553, 7162, 7207, 7170
11554, 6566, 6567, 6564
11555, 7156, 6573, 7163
11556, 6909, 6878, 6875
11557, 7160, 7372, 7183
11558, 6568, 6570, 7370
11559, 7157, 6599, 7152
11560, 6558, 6502, 6570
11561, 6558, 6575, 6574
11562, 6825, 6826, 6636
11563, 6502, 6564, 6572
11564, 6569, 6572, 6564
11565, 6576, 6573, 6565
11566, 7167, 7367, 7202
11567, 6575, 6558, 6570
11568, 6495, 6879, 6919
11569, 7155, 6576, 7157
11570, 6568, 6575, 6570
11571, 7169, 7164, 7167
11572, 7155, 7164, 7163
11573, 6389, 6504, 6577
11574, 6505, 6577, 6504
11575, 3308, 6447, 6578
11576, 6578, 6447, 6577
11577, 6600, 6579, 6582
11578, 6583, 6378, 6386
11579, 6603, 6581, 6509
11580, 6507, 6600, 6582
11581, 6507, 6580, 6581
11582, 6579, 6374, 6582
11583, 6582, 6374, 6458
11584, 6383, 6608, 6609
11585, 6509, 6581, 6583
11586, 6423, 6512, 6584
11587, 6514, 6584, 6512
11588, 3293, 6463, 6585
11589, 6585, 6463, 6584
11590, 6711, 6586, 6589
11591, 6590, 6412, 6420
11592, 6714, 6588, 6518
11593, 6516, 6711, 6589
11594, 6516, 6587, 6588
11595, 6586, 6408, 6589
11596, 6589, 6408, 6474
11597, 6417, 6719, 6720
11598, 6518, 6588, 6590
11599, 6346, 6591, 6344
11600, 6479, 6591, 6487
11601, 6486, 6498, 6593
11602, 6593, 6596, 6592
11603, 6563, 6593, 6492
11604, 6596, 6593, 6560
11605, 4591, 6594, 6597
11606, 6595, 6594, 4591
11607, 6592, 6595, 6479
11608, 6594, 6595, 6596
11609, 6562, 6822, 6560
11610, 6822, 6596, 6560
11611, 6822, 6562, 6550
11612, 6546, 6823, 6501
11613, 6544, 6546, 6501
11614, 6575, 6599, 6571
11615, 7366, 7368, 7151
11616, 6507, 6603, 6602
11617, 6373, 6579, 6600
11618, 6610, 6622, 6461
11619, 6602, 6881, 6600
11620, 6603, 6507, 6581
11621, 6601, 6880, 6881
11622, 6604, 6603, 6509
11623, 6602, 6603, 6601
11624, 6825, 6636, 6369
11625, 6604, 6461, 6634
11626, 6608, 6459, 6619
11627, 6617, 6610, 6615
11628, 6612, 6604, 6509
11629, 6611, 6633, 6617
11630, 6609, 6509, 6583
11631, 6383, 6460, 6608
11632, 6460, 6459, 6608
11633, 6615, 6610, 6606
11634, 6609, 6607, 6612
11635, 6383, 6609, 6583
11636, 6618, 6606, 6607
11637, 6832, 6668, 6672
11638, 6613, 6626, 6649
11639, 6461, 6606, 6610
11640, 6604, 6612, 6606
11641, 6609, 6612, 6509
11642, 6620, 6630, 6615
11643, 6622, 6610, 6614
11644, 6624, 6638, 6628
11645, 6625, 6614, 6633
11646, 6826, 6620, 6605
11647, 6629, 6639, 6626
11648, 6628, 6637, 6624
11649, 6610, 6617, 6614
11650, 6669, 6617, 6615
11651, 6619, 6607, 6608
11652, 6607, 6619, 6618
11653, 6631, 6459, 6385
11654, 6459, 6631, 6619
11655, 6615, 6618, 6620
11656, 6619, 6620, 6618
11657, 6620, 6632, 6605
11658, 6619, 6631, 6632
11659, 6614, 6617, 6633
11660, 6624, 6622, 6625
11661, 6682, 6681, 6693
11662, 6625, 6623, 6626
11663, 6627, 6629, 6635
11664, 6601, 6634, 6637
11665, 6614, 6625, 6622
11666, 6832, 6674, 6652
11667, 6625, 6626, 6624
11668, 6882, 6638, 6616
11669, 6629, 6613, 6651
11670, 6601, 6628, 6880
11671, 6624, 6637, 6622
11672, 6629, 6627, 6639
11673, 6666, 6647, 6648
11674, 6638, 6641, 6616
11675, 6672, 6668, 6669
11676, 6605, 6636, 6826
11677, 6632, 6631, 6621
11678, 6605, 6632, 6621
11679, 6619, 6632, 6620
11680, 6651, 6613, 6655
11681, 6625, 6633, 6623
11682, 6634, 6601, 6603
11683, 6622, 6634, 6461
11684, 6672, 6825, 6369
11685, 6704, 6702, 6703
11686, 6630, 6826, 6825
11687, 6601, 6637, 6628
11688, 6622, 6637, 6634
11689, 6624, 6639, 6638
11690, 6643, 6828, 6642
11691, 6639, 6624, 6626
11692, 6639, 6627, 6828
11693, 6638, 6639, 6828
11694, 6828, 6643, 6640
11695, 6640, 6616, 6641
11696, 6627, 6635, 6642
11697, 6642, 6635, 6645
11698, 6366, 6640, 6643
11699, 6640, 6641, 6828
11700, 6658, 6651, 6654
11701, 6648, 6647, 6645
11702, 6647, 6366, 6645
11703, 6629, 6651, 6635
11704, 6682, 6835, 6683
11705, 6635, 6657, 6645
11706, 6648, 6653, 6662
11707, 6655, 6649, 6670
11708, 6663, 6646, 6883
11709, 6655, 6654, 6651
11710, 6635, 6658, 6657
11711, 6655, 6613, 6649
11712, 6680, 6660, 6650
11713, 6684, 6679, 6687
11714, 6662, 6661, 6830
11715, 6658, 6653, 6657
11716, 6657, 6653, 6648
11717, 6649, 6623, 6652
11718, 6664, 6675, 6833
11719, 6662, 6682, 6661
11720, 6654, 6650, 6660
11721, 6835, 6658, 6654
11722, 6691, 6698, 6656
11723, 6645, 6657, 6648
11724, 6635, 6651, 6658
11725, 6623, 6649, 6626
11726, 6654, 6660, 6835
11727, 6668, 6633, 6611
11728, 6666, 6830, 6883
11729, 6623, 6633, 6652
11730, 6650, 6654, 6655
11731, 6668, 6652, 6633
11732, 6650, 6671, 6677
11733, 6831, 6673, 6667
11734, 6673, 6830, 6661
11735, 6667, 6891, 6831
11736, 6825, 6672, 6669
11737, 6675, 6834, 6678
11738, 6671, 6650, 6670
11739, 6674, 6671, 6670
11740, 6647, 6666, 6646
11741, 6830, 6648, 6662
11742, 6709, 6667, 6829
11743, 6710, 6709, 6702
11744, 6669, 6668, 6611
11745, 6671, 6674, 6832
11746, 6669, 6611, 6617
11747, 6630, 6669, 6615
11748, 6655, 6670, 6650
11749, 6674, 6649, 6652
11750, 6833, 6672, 6665
11751, 6678, 6677, 6671
11752, 6829, 6661, 6694
11753, 6672, 6369, 6665
11754, 6891, 6708, 6886
11755, 6649, 6674, 6670
11756, 6668, 6832, 6652
11757, 6665, 6664, 6833
11758, 6692, 6659, 6676
11759, 6834, 6692, 6676
11760, 6834, 6675, 6664
11761, 6676, 6677, 6678
11762, 6650, 6677, 6680
11763, 6675, 6678, 6671
11764, 6659, 6679, 6676
11765, 6691, 6681, 6689
11766, 6683, 6660, 6680
11767, 6679, 6684, 6677
11768, 6682, 6693, 6694
11769, 6684, 6683, 6680
11770, 6687, 6679, 6688
11771, 6653, 6835, 6662
11772, 6682, 6662, 6835
11773, 6680, 6677, 6684
11774, 6682, 6683, 6681
11775, 6688, 6685, 6687
11776, 6681, 6683, 6684
11777, 6688, 6679, 6659
11778, 6685, 6697, 6689
11779, 6696, 6839, 6697
11780, 6687, 6689, 6684
11781, 6659, 6686, 6688
11782, 6689, 6687, 6685
11783, 6686, 6695, 6688
11784, 6697, 6691, 6689
11785, 6684, 6689, 6681
11786, 6685, 6695, 6696
11787, 6885, 6708, 6710
11788, 6698, 6691, 6690
11789, 6693, 6691, 6656
11790, 6676, 6679, 6677
11791, 6676, 6678, 6834
11792, 6691, 6693, 6681
11793, 6694, 6693, 6656
11794, 6694, 6656, 6709
11795, 6682, 6694, 6661
11796, 6686, 6838, 6695
11797, 6685, 6688, 6695
11798, 1123, 6837, 6836
11799, 6838, 6837, 6696
11800, 6696, 6697, 6685
11801, 6690, 6691, 6697
11802, 6703, 6698, 6690
11803, 6702, 6656, 6698
11804, 6701, 6842, 6841
11805, 6699, 6847, 6844
11806, 6890, 6889, 7043
11807, 6667, 6709, 6708
11808, 6839, 6696, 6837
11809, 6705, 6841, 6846
11810, 6702, 6698, 6703
11811, 6704, 6710, 6702
11812, 6842, 6690, 6839
11813, 6703, 6701, 6704
11814, 6705, 6704, 6701
11815, 6707, 6887, 6704
11816, 6842, 6701, 6703
11817, 6705, 6846, 7035
11818, 7107, 7075, 7102
11819, 6741, 6850, 6780
11820, 6705, 6707, 6704
11821, 6887, 6885, 6710
11822, 6885, 6890, 6886
11823, 6661, 6829, 6673
11824, 6702, 6709, 6656
11825, 6673, 6829, 6667
11826, 6708, 6885, 6886
11827, 6709, 6710, 6708
11828, 6516, 6714, 6713
11829, 6407, 6586, 6711
11830, 6721, 6733, 6477
11831, 6713, 6893, 6711
11832, 6714, 6516, 6588
11833, 6712, 6892, 6893
11834, 6715, 6714, 6518
11835, 6713, 6714, 6712
11836, 6850, 6747, 6403
11837, 6715, 6477, 6745
11838, 6719, 6475, 6730
11839, 6728, 6721, 6726
11840, 6723, 6715, 6518
11841, 6722, 6744, 6728
11842, 6720, 6518, 6590
11843, 6417, 6476, 6719
11844, 6476, 6475, 6719
11845, 6726, 6721, 6717
11846, 6720, 6718, 6723
11847, 6417, 6720, 6590
11848, 6729, 6717, 6718
11849, 6857, 6779, 6783
11850, 6724, 6737, 6760
11851, 6477, 6717, 6721
11852, 6715, 6723, 6717
11853, 6720, 6723, 6518
11854, 6731, 6741, 6726
11855, 6733, 6721, 6725
11856, 6735, 6749, 6739
11857, 6736, 6725, 6744
11858, 6851, 6731, 6716
11859, 6740, 6750, 6737
11860, 6739, 6748, 6735
11861, 6721, 6728, 6725
11862, 6780, 6728, 6726
11863, 6730, 6718, 6719
11864, 6718, 6730, 6729
11865, 6742, 6475, 6419
11866, 6475, 6742, 6730
11867, 6726, 6729, 6731
11868, 6730, 6731, 6729
11869, 6731, 6743, 6716
11870, 6730, 6742, 6743
11871, 6725, 6728, 6744
11872, 6735, 6733, 6736
11873, 6793, 6792, 6804
11874, 6736, 6734, 6737
11875, 6738, 6740, 6746
11876, 6712, 6745, 6748
11877, 6725, 6736, 6733
11878, 6857, 6785, 6763
11879, 6736, 6737, 6735
11880, 6894, 6749, 6727
11881, 6740, 6724, 6762
11882, 6712, 6739, 6892
11883, 6735, 6748, 6733
11884, 6740, 6738, 6750
11885, 6777, 6758, 6759
11886, 6749, 6752, 6727
11887, 6783, 6779, 6780
11888, 6716, 6747, 6851
11889, 6743, 6742, 6732
11890, 6716, 6743, 6732
11891, 6730, 6743, 6731
11892, 6762, 6724, 6766
11893, 6736, 6744, 6734
11894, 6745, 6712, 6714
11895, 6733, 6745, 6477
11896, 6783, 6850, 6403
11897, 6815, 6813, 6814
11898, 6741, 6851, 6850
11899, 6712, 6748, 6739
11900, 6733, 6748, 6745
11901, 6735, 6750, 6749
11902, 6754, 6853, 6753
11903, 6750, 6735, 6737
11904, 6750, 6738, 6853
11905, 6749, 6750, 6853
11906, 6853, 6754, 6751
11907, 6751, 6727, 6752
11908, 6738, 6746, 6753
11909, 6753, 6746, 6756
11910, 6400, 6751, 6754
11911, 6751, 6752, 6853
11912, 6769, 6762, 6765
11913, 6759, 6758, 6756
11914, 6758, 6400, 6756
11915, 6740, 6762, 6746
11916, 6793, 6860, 6794
11917, 6746, 6768, 6756
11918, 6759, 6764, 6773
11919, 6766, 6760, 6781
11920, 6774, 6757, 6895
11921, 6766, 6765, 6762
11922, 6746, 6769, 6768
11923, 6766, 6724, 6760
11924, 6791, 6771, 6761
11925, 6795, 6790, 6798
11926, 6773, 6772, 6855
11927, 6769, 6764, 6768
11928, 6768, 6764, 6759
11929, 6760, 6734, 6763
11930, 6775, 6786, 6858
11931, 6773, 6793, 6772
11932, 6765, 6761, 6771
11933, 6860, 6769, 6765
11934, 6802, 6809, 6767
11935, 6756, 6768, 6759
11936, 6746, 6762, 6769
11937, 6734, 6760, 6737
11938, 6765, 6771, 6860
11939, 6779, 6744, 6722
11940, 6777, 6855, 6895
11941, 6734, 6744, 6763
11942, 6761, 6765, 6766
11943, 6779, 6763, 6744
11944, 6761, 6782, 6788
11945, 6856, 6784, 6778
11946, 6784, 6855, 6772
11947, 6778, 6903, 6856
11948, 6850, 6783, 6780
11949, 6786, 6859, 6789
11950, 6782, 6761, 6781
11951, 6785, 6782, 6781
11952, 6758, 6777, 6757
11953, 6855, 6759, 6773
11954, 6820, 6778, 6854
11955, 6821, 6820, 6813
11956, 6780, 6779, 6722
11957, 6782, 6785, 6857
11958, 6780, 6722, 6728
11959, 6741, 6780, 6726
11960, 6766, 6781, 6761
11961, 6785, 6760, 6763
11962, 6858, 6783, 6776
11963, 6789, 6788, 6782
11964, 6854, 6772, 6805
11965, 6783, 6403, 6776
11966, 6903, 6819, 6898
11967, 6760, 6785, 6781
11968, 6779, 6857, 6763
11969, 6776, 6775, 6858
11970, 6803, 6770, 6787
11971, 6859, 6803, 6787
11972, 6859, 6786, 6775
11973, 6787, 6788, 6789
11974, 6761, 6788, 6791
11975, 6786, 6789, 6782
11976, 6770, 6790, 6787
11977, 6802, 6792, 6800
11978, 6794, 6771, 6791
11979, 6790, 6795, 6788
11980, 6793, 6804, 6805
11981, 6795, 6794, 6791
11982, 6798, 6790, 6799
11983, 6764, 6860, 6773
11984, 6793, 6773, 6860
11985, 6791, 6788, 6795
11986, 6793, 6794, 6792
11987, 6799, 6796, 6798
11988, 6792, 6794, 6795
11989, 6799, 6790, 6770
11990, 6796, 6808, 6800
11991, 6807, 6864, 6808
11992, 6798, 6800, 6795
11993, 6770, 6797, 6799
11994, 6800, 6798, 6796
11995, 6797, 6806, 6799
11996, 6808, 6802, 6800
11997, 6795, 6800, 6792
11998, 6796, 6806, 6807
11999, 6897, 6819, 6821
12000, 6809, 6802, 6801
12001, 6804, 6802, 6767
12002, 6787, 6790, 6788
12003, 6787, 6789, 6859
12004, 6802, 6804, 6792
12005, 6805, 6804, 6767
12006, 6805, 6767, 6820
12007, 6793, 6805, 6772
12008, 6797, 6863, 6806
12009, 6796, 6799, 6806
12010, 960, 6862, 6861
12011, 6863, 6862, 6807
12012, 6807, 6808, 6796
12013, 6801, 6802, 6808
12014, 6814, 6809, 6801
12015, 6813, 6767, 6809
12016, 6812, 6867, 6866
12017, 6810, 6872, 6869
12018, 6902, 6901, 7121
12019, 6778, 6820, 6819
12020, 6864, 6807, 6862
12021, 6816, 6866, 6871
12022, 6813, 6809, 6814
12023, 6815, 6821, 6813
12024, 6867, 6801, 6864
12025, 6814, 6812, 6815
12026, 6816, 6815, 6812
12027, 6818, 6899, 6815
12028, 6867, 6812, 6814
12029, 6816, 6871, 7113
12030, 7144, 7336, 7355
12031, 6571, 6599, 6904
12032, 6816, 6818, 6815
12033, 6899, 6897, 6821
12034, 6897, 6902, 6898
12035, 6772, 6854, 6784
12036, 6813, 6820, 6767
12037, 6784, 6854, 6778
12038, 6819, 6897, 6898
12039, 6820, 6821, 6819
12040, 6550, 6597, 6822
12041, 6822, 6597, 6594
12042, 6598, 6548, 6549
12043, 6630, 6825, 6669
12044, 6904, 6599, 6565
12045, 6598, 6544, 6548
12046, 6828, 6641, 6638
12047, 6620, 6826, 6630
12048, 6882, 6827, 6880
12049, 6642, 6828, 6627
12050, 6709, 6829, 6694
12051, 6883, 6673, 6663
12052, 6648, 6830, 6666
12053, 6644, 6663, 6831
12054, 6673, 6831, 6663
12055, 6671, 6832, 6675
12056, 6675, 6832, 6833
12057, 6672, 6833, 6832
12058, 6664, 6692, 6834
12059, 6835, 6653, 6658
12060, 6683, 6835, 6660
12061, 7037, 7038, 6920
12062, 6838, 6836, 6837
12063, 6697, 6839, 6690
12064, 6695, 6838, 6696
12065, 6686, 6836, 6838
12066, 6927, 6910, 6924
12067, 6842, 6703, 6690
12068, 6847, 6846, 6841
12069, 6943, 6951, 6940
12070, 6701, 6841, 6705
12071, 7516, 7262, 7506
12072, 7288, 7268, 7253
12073, 7034, 6920, 7038
12074, 6842, 6849, 6844
12075, 6837, 6849, 6839
12076, 6925, 6924, 6928
12077, 6849, 6921, 6844
12078, 6887, 6889, 6885
12079, 1123, 6921, 6849
12080, 6842, 6839, 6849
12081, 6844, 6847, 6841
12082, 7037, 6933, 7038
12083, 6842, 6844, 6841
12084, 6910, 6913, 6924
12085, 6850, 6851, 6747
12086, 6731, 6851, 6741
12087, 6853, 6752, 6749
12088, 6894, 6852, 6892
12089, 6753, 6853, 6738
12090, 6820, 6854, 6805
12091, 6895, 6784, 6774
12092, 6759, 6855, 6777
12093, 6755, 6774, 6856
12094, 6784, 6856, 6774
12095, 6782, 6857, 6786
12096, 6786, 6857, 6858
12097, 6783, 6858, 6857
12098, 6775, 6803, 6859
12099, 6860, 6764, 6769
12100, 6794, 6860, 6771
12101, 7115, 7116, 6977
12102, 6863, 6861, 6862
12103, 6808, 6864, 6801
12104, 6806, 6863, 6807
12105, 6797, 6861, 6863
12106, 6984, 6914, 6981
12107, 6867, 6814, 6801
12108, 6872, 6871, 6866
12109, 7000, 7008, 6997
12110, 6812, 6866, 6816
12111, 8570, 8568, 8569
12112, 8568, 8580, 8581
12113, 7112, 6977, 7116
12114, 6867, 6874, 6869
12115, 6862, 6874, 6864
12116, 6982, 6981, 6985
12117, 6874, 6978, 6869
12118, 6899, 6901, 6897
12119, 960, 6978, 6874
12120, 6867, 6864, 6874
12121, 6869, 6872, 6866
12122, 7115, 6990, 7116
12123, 6867, 6869, 6866
12124, 6914, 6917, 6981
12125, 6823, 6876, 6878
12126, 6878, 6876, 6875
12127, 6823, 6546, 6876
12128, 6877, 6542, 6905
12129, 6598, 6877, 6876
12130, 6875, 6907, 6909
12131, 6823, 6878, 6824
12132, 6907, 6905, 6904
12133, 6909, 6824, 6878
12134, 6882, 6880, 6628
12135, 6881, 6827, 6373
12136, 6601, 6881, 6602
12137, 6827, 6881, 6880
12138, 6638, 6882, 6628
12139, 6616, 6827, 6882
12140, 6666, 6883, 6646
12141, 6673, 6883, 6830
12142, 6913, 6846, 6847
12143, 6699, 6844, 6921
12144, 6706, 6700, 6890
12145, 6700, 6644, 6886
12146, 6891, 6886, 6644
12147, 6704, 6887, 6710
12148, 6889, 6887, 7034
12149, 7035, 6920, 7034
12150, 7043, 6706, 6890
12151, 7034, 6887, 6707
12152, 6889, 6888, 7043
12153, 6886, 6890, 6700
12154, 6889, 6890, 6885
12155, 6831, 6891, 6644
12156, 6708, 6891, 6667
12157, 6894, 6892, 6739
12158, 6893, 6852, 6407
12159, 6712, 6893, 6713
12160, 6852, 6893, 6892
12161, 6749, 6894, 6739
12162, 6727, 6852, 6894
12163, 6777, 6895, 6757
12164, 6784, 6895, 6855
12165, 6917, 6871, 6872
12166, 6810, 6869, 6978
12167, 6817, 6811, 6902
12168, 6811, 6755, 6898
12169, 6903, 6898, 6755
12170, 6815, 6899, 6821
12171, 6901, 6899, 7112
12172, 7113, 6977, 7112
12173, 7121, 6817, 6902
12174, 7112, 6899, 6818
12175, 6901, 6900, 7121
12176, 6898, 6902, 6811
12177, 6901, 6902, 6897
12178, 6856, 6903, 6755
12179, 6819, 6903, 6778
12180, 6908, 6904, 6565
12181, 6904, 6908, 6907
12182, 6875, 6877, 6905
12183, 6571, 6904, 6905
12184, 7374, 7177, 7192
12185, 6908, 7150, 6906
12186, 6879, 6909, 6919
12187, 6905, 6907, 6875
12188, 7150, 6908, 6565
12189, 6908, 6906, 6919
12190, 6824, 6909, 6879
12191, 6922, 6925, 6699
12192, 6934, 6935, 6927
12193, 6912, 6922, 6699
12194, 1123, 6849, 6837
12195, 6924, 6923, 6927
12196, 6913, 6910, 7037
12197, 6979, 6982, 6810
12198, 6991, 6992, 6984
12199, 6916, 6979, 6810
12200, 960, 6874, 6862
12201, 6981, 6980, 6984
12202, 6917, 6914, 7115
12203, 6599, 7157, 6576
12204, 7161, 6495, 7159
12205, 6908, 6919, 6907
12206, 7158, 7159, 6906
12207, 6913, 6920, 6846
12208, 6932, 6933, 7037
12209, 6912, 6699, 6921
12210, 6912, 6911, 6922
12211, 6911, 6929, 6925
12212, 6911, 6926, 6929
12213, 6934, 6923, 6931
12214, 6913, 6847, 6924
12215, 6928, 6924, 6847
12216, 6911, 6925, 6922
12217, 6924, 6925, 6923
12218, 7036, 6931, 6926
12219, 6925, 6929, 6923
12220, 6923, 6929, 6931
12221, 6932, 6927, 6884
12222, 6847, 6699, 6928
12223, 6925, 6928, 6699
12224, 7036, 6926, 6848
12225, 6943, 6938, 6936
12226, 6923, 6934, 6927
12227, 6926, 6931, 6929
12228, 6934, 6931, 6930
12229, 6884, 7044, 6932
12230, 6910, 6927, 6932
12231, 6963, 6952, 6936
12232, 7038, 6888, 7034
12233, 6941, 6939, 6930
12234, 6884, 6927, 6935
12235, 6950, 6953, 6947
12236, 6935, 6934, 6938
12237, 6884, 6940, 7048
12238, 6953, 6959, 6957
12239, 6934, 6939, 6938
12240, 6963, 6936, 6955
12241, 6939, 6934, 6930
12242, 6939, 6955, 6936
12243, 6947, 6955, 6941
12244, 6941, 6930, 7036
12245, 6952, 6961, 6954
12246, 6943, 6935, 6938
12247, 6964, 6959, 6953
12248, 6943, 6936, 6954
12249, 6962, 6968, 6966
12250, 6974, 6976, 6973
12251, 7056, 7053, 7051
12252, 6954, 6936, 6952
12253, 6946, 6947, 6941
12254, 6848, 6945, 6946
12255, 6941, 6848, 6946
12256, 6946, 6945, 6947
12257, 6945, 6950, 6947
12258, 6966, 6964, 6967
12259, 6938, 6939, 6936
12260, 6957, 6956, 6952
12261, 6884, 6943, 6940
12262, 6935, 6943, 6884
12263, 6945, 6942, 6950
12264, 6961, 6952, 7053
12265, 6951, 6954, 6961
12266, 6941, 6955, 6939
12267, 7039, 7047, 7384
12268, 6962, 6967, 6942
12269, 7386, 6949, 7385
12270, 7199, 7220, 7219
12271, 6970, 6971, 6966
12272, 6971, 6937, 6966
12273, 7040, 7385, 6949
12274, 6947, 6953, 6960
12275, 6951, 6961, 7199
12276, 6976, 6974, 6937
12277, 6960, 6957, 6963
12278, 6949, 7219, 7220
12279, 6971, 6976, 6937
12280, 6956, 6957, 6959
12281, 6947, 6960, 6955
12282, 6953, 6957, 6960
12283, 7053, 6952, 6956
12284, 6961, 6958, 7199
12285, 6937, 6964, 6966
12286, 6964, 6965, 6967
12287, 6960, 6963, 6955
12288, 6952, 6963, 6957
12289, 6959, 6964, 6937
12290, 6965, 6964, 6953
12291, 6953, 6950, 6965
12292, 6942, 6965, 6950
12293, 6968, 6970, 6966
12294, 6942, 6967, 6965
12295, 6962, 6966, 6967
12296, 6962, 6840, 6968
12297, 6975, 6971, 6970
12298, 7084, 7100, 7091
12299, 7217, 7213, 7221
12300, 7388, 7392, 7390
12301, 7073, 7075, 7078
12302, 7046, 7387, 7392
12303, 6974, 6959, 6937
12304, 7071, 7062, 7072
12305, 7057, 7061, 7063
12306, 7052, 6956, 6974
12307, 7052, 6974, 6973
12308, 6956, 6959, 6974
12309, 6968, 6840, 7046
12310, 7060, 6975, 6972
12311, 6971, 6975, 6976
12312, 7060, 6976, 6975
12313, 6917, 6977, 6871
12314, 6989, 6990, 7115
12315, 6916, 6810, 6978
12316, 6916, 6915, 6979
12317, 6915, 6986, 6982
12318, 6915, 6983, 6986
12319, 6991, 6980, 6988
12320, 6917, 6872, 6981
12321, 6985, 6981, 6872
12322, 6915, 6982, 6979
12323, 6981, 6982, 6980
12324, 7114, 6988, 6983
12325, 6982, 6986, 6980
12326, 6980, 6986, 6988
12327, 6989, 6984, 6896
12328, 6872, 6810, 6985
12329, 6982, 6985, 6810
12330, 7114, 6983, 6873
12331, 7000, 6995, 6993
12332, 6980, 6991, 6984
12333, 6983, 6988, 6986
12334, 6991, 6988, 6987
12335, 6896, 7122, 6989
12336, 6914, 6984, 6989
12337, 7020, 7009, 6993
12338, 7116, 6900, 7112
12339, 6998, 6996, 6987
12340, 6896, 6984, 6992
12341, 7007, 7010, 7004
12342, 6992, 6991, 6995
12343, 6896, 6997, 7126
12344, 7010, 7016, 7014
12345, 6991, 6996, 6995
12346, 7020, 6993, 7012
12347, 6996, 6991, 6987
12348, 6996, 7012, 6993
12349, 7004, 7012, 6998
12350, 6998, 6987, 7114
12351, 7009, 7018, 7011
12352, 7000, 6992, 6995
12353, 7021, 7016, 7010
12354, 7000, 6993, 7011
12355, 7019, 7025, 7023
12356, 7415, 7330, 7327
12357, 7323, 7330, 7318
12358, 7011, 6993, 7009
12359, 7003, 7004, 6998
12360, 6873, 7002, 7003
12361, 6998, 6873, 7003
12362, 7003, 7002, 7004
12363, 7002, 7007, 7004
12364, 7023, 7021, 7024
12365, 6995, 6996, 6993
12366, 7014, 7013, 7009
12367, 6896, 7000, 6997
12368, 6992, 7000, 6896
12369, 7002, 6999, 7007
12370, 7323, 7018, 7013
12371, 7008, 7011, 7018
12372, 6998, 7012, 6996
12373, 7117, 7125, 7411
12374, 7019, 7024, 6999
12375, 7413, 7006, 7412
12376, 7321, 7315, 7005
12377, 7027, 7030, 7023
12378, 7030, 6994, 7023
12379, 7118, 7412, 7006
12380, 7004, 7010, 7017
12381, 7008, 7018, 7313
12382, 7326, 7329, 7410
12383, 7017, 7014, 7020
12384, 7313, 7320, 7314
12385, 6994, 7410, 7329
12386, 7013, 7014, 7016
12387, 7004, 7017, 7012
12388, 7010, 7014, 7017
12389, 7013, 7018, 7009
12390, 7018, 7015, 7313
12391, 6994, 7021, 7023
12392, 7021, 7022, 7024
12393, 7017, 7020, 7012
12394, 7009, 7020, 7014
12395, 7016, 7021, 6994
12396, 7022, 7021, 7010
12397, 7010, 7007, 7022
12398, 6999, 7022, 7007
12399, 7025, 7027, 7023
12400, 6999, 7024, 7022
12401, 7019, 7023, 7024
12402, 7019, 6865, 7025
12403, 7341, 7026, 7740
12404, 7322, 7319, 7315
12405, 7321, 7316, 7315
12406, 7135, 7133, 7028
12407, 7027, 7128, 7032
12408, 7347, 8542, 7359
12409, 7421, 7344, 7342
12410, 7029, 7032, 7028
12411, 7138, 7029, 7028
12412, 7032, 7030, 7027
12413, 7410, 7030, 7029
12414, 7136, 7146, 6865
12415, 7139, 7132, 7138
12416, 7133, 7031, 7139
12417, 7030, 7032, 7029
12418, 7157, 7372, 7166
12419, 7159, 7181, 7180
12420, 6889, 7034, 6888
12421, 7035, 7034, 6707
12422, 6705, 7035, 6707
12423, 6846, 6920, 7035
12424, 6941, 7036, 6848
12425, 6931, 7036, 6930
12426, 6913, 7037, 6920
12427, 6932, 7037, 6910
12428, 6933, 7039, 7038
12429, 1291, 7042, 7039
12430, 6933, 7044, 7047
12431, 1291, 7041, 7042
12432, 7049, 6949, 7386
12433, 1291, 7384, 7222
12434, 7039, 7042, 7038
12435, 7042, 6888, 7038
12436, 7043, 7041, 6706
12437, 6888, 7042, 7043
12438, 7041, 7043, 7042
12439, 6932, 7044, 6933
12440, 6940, 7219, 7049
12441, 7039, 6933, 7047
12442, 6949, 7220, 7040
12443, 7045, 7067, 6948
12444, 7048, 7047, 7044
12445, 6972, 6975, 7389
12446, 6884, 7048, 7044
12447, 7049, 7048, 6940
12448, 7219, 6940, 6951
12449, 7385, 7040, 7222
12450, 7051, 7059, 7056
12451, 7392, 7393, 7224
12452, 7053, 7056, 6958
12453, 7058, 7052, 6973
12454, 7052, 7051, 7053
12455, 6961, 7053, 6958
12456, 7052, 7053, 6956
12457, 7051, 7052, 7058
12458, 7065, 7069, 7063
12459, 7045, 7059, 7069
12460, 7051, 7058, 7059
12461, 7217, 7056, 7055
12462, 7061, 7058, 6973
12463, 7063, 7069, 7057
12464, 7061, 6973, 7060
12465, 7058, 7057, 7059
12466, 7059, 7057, 7069
12467, 7056, 7059, 7055
12468, 7058, 7061, 7057
12469, 6976, 7060, 6973
12470, 6972, 7064, 7060
12471, 7063, 7072, 7062
12472, 7063, 7061, 7064
12473, 7080, 7076, 7071
12474, 7061, 7060, 7064
12475, 7065, 7063, 7062
12476, 7064, 6972, 7068
12477, 7063, 7064, 7072
12478, 7076, 7077, 7071
12479, 7084, 7226, 7225
12480, 7078, 7079, 7073
12481, 7075, 7092, 7102
12482, 7045, 6948, 7213
12483, 7045, 7055, 7059
12484, 6975, 6970, 7388
12485, 7078, 7074, 7068
12486, 7223, 7065, 7054
12487, 7065, 7223, 7069
12488, 7075, 7073, 7083
12489, 7075, 7107, 7078
12490, 7071, 7077, 7062
12491, 7064, 7068, 7072
12492, 7072, 7068, 7074
12493, 7079, 7068, 6972
12494, 7070, 7089, 7086
12495, 7095, 7092, 7083
12496, 7072, 7074, 7071
12497, 7083, 7070, 7086
12498, 7078, 7107, 7074
12499, 7065, 7077, 7054
12500, 7077, 7065, 7062
12501, 7079, 7078, 7068
12502, 7054, 7077, 7076
12503, 7110, 6944, 7080
12504, 7389, 6975, 7388
12505, 7073, 7079, 7391
12506, 7076, 7080, 6944
12507, 7074, 7107, 7071
12508, 7083, 7073, 7070
12509, 7092, 7105, 7102
12510, 7098, 7408, 7097
12511, 7240, 7234, 7230
12512, 7086, 7090, 7095
12513, 7088, 7091, 7094
12514, 7099, 7085, 7310
12515, 7050, 7087, 7394
12516, 7090, 7086, 7084
12517, 7235, 7232, 7238
12518, 7089, 7226, 7086
12519, 7088, 7090, 7091
12520, 7092, 7075, 7083
12521, 7391, 7389, 7390
12522, 7050, 7394, 7224
12523, 7091, 7090, 7084
12524, 7088, 7092, 7095
12525, 6969, 7229, 7225
12526, 7094, 7085, 7096
12527, 7088, 7096, 7092
12528, 7105, 7096, 7098
12529, 7111, 7234, 7108
12530, 7101, 7100, 7229
12531, 7232, 7236, 7104
12532, 7094, 7091, 7109
12533, 7086, 7095, 7083
12534, 7088, 7095, 7090
12535, 7094, 7096, 7088
12536, 7098, 7096, 7085
12537, 7098, 7099, 7408
12538, 7102, 7097, 7106
12539, 7099, 7098, 7085
12540, 7097, 7102, 7105
12541, 7111, 7085, 7094
12542, 7408, 7081, 7097
12543, 7225, 7100, 7084
12544, 7229, 6969, 7093
12545, 7280, 7242, 7241
12546, 7303, 7103, 7281
12547, 7106, 7097, 7081
12548, 7082, 7110, 7106
12549, 7231, 7230, 7234
12550, 7280, 7275, 7281
12551, 7225, 7229, 7100
12552, 7397, 7232, 7396
12553, 7096, 7105, 7092
12554, 7097, 7105, 7098
12555, 7081, 7082, 7106
12556, 7110, 7080, 7107
12557, 7106, 7107, 7102
12558, 7071, 7107, 7080
12559, 7094, 7109, 7234
12560, 7303, 7311, 7103
12561, 7101, 7091, 7100
12562, 7101, 7231, 7091
12563, 7110, 7082, 6944
12564, 7107, 7106, 7110
12565, 7234, 7111, 7094
12566, 7310, 7111, 7108
12567, 6901, 7112, 6900
12568, 7113, 7112, 6818
12569, 6816, 7113, 6818
12570, 6871, 6977, 7113
12571, 6998, 7114, 6873
12572, 6988, 7114, 6987
12573, 6917, 7115, 6977
12574, 6989, 7115, 6914
12575, 6990, 7117, 7116
12576, 1290, 7120, 7117
12577, 6990, 7122, 7125
12578, 1290, 7119, 7120
12579, 7127, 7006, 7413
12580, 1290, 7411, 7331
12581, 7117, 7120, 7116
12582, 7120, 6900, 7116
12583, 7121, 7119, 6817
12584, 6900, 7120, 7121
12585, 7119, 7121, 7120
12586, 6989, 7122, 6990
12587, 6997, 7314, 7127
12588, 7117, 6990, 7125
12589, 7006, 7320, 7118
12590, 7124, 7136, 7123
12591, 7126, 7125, 7122
12592, 7332, 7123, 7129
12593, 6896, 7126, 7122
12594, 7127, 7126, 6997
12595, 7314, 6997, 7008
12596, 7412, 7118, 7331
12597, 7131, 7135, 7147
12598, 7025, 6865, 7027
12599, 7124, 7137, 7147
12600, 7141, 7416, 7328
12601, 7319, 7476, 7315
12602, 7032, 7128, 7135
12603, 7133, 7135, 7131
12604, 7341, 7739, 7129
12605, 7028, 7139, 7138
12606, 7149, 7133, 7131
12607, 7345, 8554, 8545
12608, 7145, 7144, 7355
12609, 7032, 7135, 7028
12610, 7147, 7135, 7128
12611, 7124, 7123, 7332
12612, 7027, 7146, 7128
12613, 7148, 7149, 7337
12614, 7028, 7133, 7139
12615, 7327, 7138, 7132
12616, 7142, 7139, 7031
12617, 7324, 7325, 7142
12618, 7140, 7142, 7144
12619, 7417, 7418, 7001
12620, 7142, 7140, 7324
12621, 7005, 7476, 7130
12622, 7336, 7144, 7142
12623, 7140, 7418, 7328
12624, 7031, 7133, 7149
12625, 7742, 7355, 7348
12626, 7336, 7142, 7031
12627, 8556, 8599, 8555
12628, 7348, 7355, 7421
12629, 7353, 7335, 7359
12630, 6865, 7146, 7027
12631, 7124, 7146, 7136
12632, 7124, 7147, 7128
12633, 7337, 7147, 7137
12634, 7131, 7147, 7337
12635, 7356, 7421, 7342
12636, 7337, 7149, 7131
12637, 7336, 7149, 7148
12638, 7152, 7372, 7157
12639, 7158, 7181, 7159
12640, 7371, 7183, 7151
12641, 6575, 6568, 6599
12642, 6569, 6438, 7369
12643, 7176, 7173, 7165
12644, 7170, 7168, 7163
12645, 6569, 6567, 6438
12646, 6565, 6599, 6576
12647, 7164, 7162, 7163
12648, 7156, 7168, 7173
12649, 7150, 6573, 7156
12650, 6919, 6906, 7159
12651, 7155, 7163, 6573
12652, 7150, 7158, 6906
12653, 6918, 7181, 7156
12654, 6599, 6568, 7152
12655, 6576, 7155, 6573
12656, 7370, 6570, 6569
12657, 6919, 7159, 6495
12658, 7156, 7163, 7168
12659, 7156, 7158, 7150
12660, 7150, 6565, 6573
12661, 7155, 7166, 7164
12662, 7166, 7160, 7167
12663, 7185, 7206, 7207
12664, 6918, 7173, 7175
12665, 7157, 7166, 7155
12666, 7202, 7367, 7154
12667, 7164, 7169, 7162
12668, 7164, 7166, 7167
12669, 7170, 7163, 7162
12670, 7173, 7168, 7165
12671, 7202, 7169, 7167
12672, 7171, 7172, 7206
12673, 7169, 7208, 7162
12674, 7165, 7168, 7170
12675, 7171, 7190, 7187
12676, 7165, 7170, 7172
12677, 7176, 7177, 7174
12678, 7153, 7179, 7178
12679, 7176, 7175, 7173
12680, 7156, 7173, 6918
12681, 7165, 7186, 7176
12682, 7172, 7171, 7187
12683, 7375, 7178, 7182
12684, 7180, 7153, 7161
12685, 7186, 7165, 7172
12686, 7174, 7175, 7176
12687, 7186, 7187, 7177
12688, 7374, 7192, 7198
12689, 6918, 7175, 7179
12690, 7174, 7182, 7175
12691, 7179, 7175, 7182
12692, 7180, 7161, 7159
12693, 6918, 7179, 7180
12694, 7156, 7181, 7158
12695, 6918, 7180, 7181
12696, 7182, 7174, 7375
12697, 7179, 7182, 7178
12698, 7183, 7201, 7151
12699, 6438, 7201, 7369
12700, 7184, 7381, 7383
12701, 7185, 7208, 7204
12702, 7205, 7185, 7204
12703, 7187, 7186, 7172
12704, 7176, 7186, 7177
12705, 7423, 7545, 7549
12706, 7193, 7192, 7187
12707, 7216, 7195, 7197
12708, 7192, 7177, 7187
12709, 7171, 7373, 7215
12710, 7193, 7191, 7192
12711, 7215, 7190, 7171
12712, 7190, 7189, 7193
12713, 7200, 7191, 7193
12714, 7049, 7219, 6949
12715, 7187, 7190, 7193
12716, 7192, 7191, 7198
12717, 7189, 7195, 7193
12718, 7189, 7197, 7195
12719, 7204, 7194, 7205
12720, 7374, 7174, 7177
12721, 7197, 7189, 7215
12722, 7190, 7215, 7189
12723, 7858, 7834, 7845
12724, 7882, 7886, 7903
12725, 6970, 7046, 7388
12726, 7211, 7426, 7428
12727, 7431, 7428, 7433
12728, 7425, 7198, 7191
12729, 7198, 7425, 7211
12730, 7377, 7375, 7374
12731, 7195, 7200, 7193
12732, 1292, 7432, 7500
12733, 7201, 7183, 7369
12734, 7152, 6568, 7370
12735, 7202, 7194, 7204
12736, 7169, 7202, 7204
12737, 7203, 7194, 7202
12738, 7202, 7154, 7203
12739, 7194, 7203, 7184
12740, 7383, 7205, 7194
12741, 7206, 7373, 7171
12742, 7172, 7170, 7207
12743, 7373, 7206, 7185
12744, 7207, 7162, 7208
12745, 7172, 7207, 7206
12746, 7204, 7208, 7169
12747, 7207, 7208, 7185
12748, 7584, 7577, 7578
12749, 7423, 7501, 7542
12750, 7212, 7215, 7382
12751, 7213, 7217, 7055
12752, 7212, 7216, 7197
12753, 7379, 7376, 7033
12754, 7184, 7383, 7194
12755, 7641, 7643, 7685
12756, 7214, 7521, 7581
12757, 7200, 7426, 7425
12758, 6958, 7217, 7199
12759, 6958, 7056, 7217
12760, 7212, 7197, 7215
12761, 7213, 7055, 7045
12762, 6948, 7218, 7221
12763, 6951, 7199, 7219
12764, 7221, 7213, 6948
12765, 7199, 7217, 7221
12766, 7040, 7220, 7218
12767, 7218, 7220, 7221
12768, 7221, 7220, 7199
12769, 7054, 7067, 7223
12770, 7223, 7045, 7069
12771, 7045, 7223, 7067
12772, 7089, 7070, 7224
12773, 7084, 7086, 7226
12774, 7087, 6969, 7227
12775, 7395, 7089, 7394
12776, 7226, 7395, 7227
12777, 6969, 7225, 7227
12778, 7226, 7227, 7225
12779, 6843, 7257, 7244
12780, 7229, 7093, 7236
12781, 7236, 7232, 7235
12782, 7238, 7240, 7230
12783, 7091, 7231, 7109
12784, 7235, 7231, 7101
12785, 7260, 7396, 7104
12786, 7240, 7238, 7228
12787, 7240, 7252, 7233
12788, 7311, 7242, 7103
12789, 7234, 7109, 7231
12790, 7234, 7233, 7242
12791, 7231, 7235, 7230
12792, 7236, 7235, 7101
12793, 7229, 7236, 7101
12794, 7104, 7236, 7093
12795, 6843, 7244, 7237
12796, 7238, 7239, 7228
12797, 7235, 7238, 7230
12798, 7243, 7244, 7239
12799, 7237, 7243, 7260
12800, 7228, 7239, 7261
12801, 7252, 7240, 7228
12802, 7234, 7240, 7233
12803, 7247, 7249, 7261
12804, 7267, 7275, 7265
12805, 7234, 7242, 7108
12806, 7241, 7242, 7233
12807, 7243, 7239, 7397
12808, 7239, 7238, 7397
12809, 7264, 7249, 7246
12810, 7396, 7232, 7104
12811, 7282, 7439, 7272
12812, 7261, 7252, 7228
12813, 7244, 7257, 7247
12814, 7271, 7270, 7266
12815, 7247, 7246, 7249
12816, 7253, 7265, 7266
12817, 7247, 7251, 7246
12818, 7246, 7254, 7264
12819, 7252, 7249, 7241
12820, 7233, 7252, 7241
12821, 7244, 7247, 7239
12822, 7254, 7256, 7264
12823, 7246, 7251, 7254
12824, 7271, 7277, 7273
12825, 7257, 7263, 7251
12826, 7254, 7251, 7258
12827, 7265, 7278, 7259
12828, 7257, 7251, 7247
12829, 7249, 7259, 7241
12830, 7267, 7265, 7253
12831, 6843, 7255, 7257
12832, 7263, 7257, 7255
12833, 7398, 7258, 7263
12834, 7451, 7446, 7460
12835, 7265, 7256, 7266
12836, 7264, 7265, 7259
12837, 7260, 7243, 7396
12838, 7243, 7237, 7244
12839, 7247, 7261, 7239
12840, 7252, 7261, 7249
12841, 7505, 7506, 7490
12842, 7271, 7256, 7254
12843, 7398, 7263, 7255
12844, 7251, 7263, 7258
12845, 7265, 7264, 7256
12846, 7249, 7264, 7259
12847, 7282, 7272, 7304
12848, 7401, 7285, 7268
12849, 7292, 7407, 7289
12850, 7278, 7265, 7275
12851, 7267, 7253, 7268
12852, 7277, 7258, 7276
12853, 7293, 7288, 7297
12854, 7270, 7288, 7266
12855, 7292, 7273, 7304
12856, 7259, 7278, 7241
12857, 7256, 7271, 7266
12858, 7271, 7273, 7270
12859, 7303, 7402, 7291
12860, 7279, 7400, 7285
12861, 7271, 7254, 7277
12862, 7469, 7470, 7468
12863, 7299, 7283, 7296
12864, 7290, 7293, 7296
12865, 7284, 7275, 7267
12866, 7242, 7280, 7103
12867, 7398, 7276, 7258
12868, 7399, 7458, 7459
12869, 7258, 7277, 7254
12870, 7277, 7276, 7282
12871, 7267, 7268, 7285
12872, 7280, 7278, 7275
12873, 7280, 7281, 7103
12874, 7278, 7280, 7241
12875, 7275, 7284, 7281
12876, 7286, 7281, 7284
12877, 7402, 7286, 7269
12878, 7277, 7282, 7273
12879, 7439, 7282, 7276
12880, 7292, 7270, 7273
12881, 7293, 7268, 7288
12882, 7401, 7279, 7285
12883, 7285, 7284, 7267
12884, 7269, 7400, 7279
12885, 7286, 7400, 7269
12886, 7400, 7284, 7285
12887, 7409, 7312, 7403
12888, 7266, 7288, 7253
12889, 7269, 7287, 7402
12890, 7297, 7270, 7307
12891, 7442, 7272, 7399
12892, 7292, 7307, 7270
12893, 7066, 7403, 7287
12894, 7294, 7268, 7293
12895, 7312, 7310, 7311
12896, 7273, 7282, 7304
12897, 7296, 7283, 7290
12898, 7290, 7294, 7293
12899, 7290, 6845, 7294
12900, 7294, 6845, 7401
12901, 7289, 7302, 7292
12902, 7296, 7300, 7299
12903, 7308, 7293, 7297
12904, 7302, 7298, 7300
12905, 7270, 7297, 7288
12906, 7295, 7300, 7308
12907, 7468, 7472, 7404
12908, 7283, 7299, 7301
12909, 7296, 7308, 7300
12910, 7299, 7298, 7471
12911, 7302, 7300, 7295
12912, 7298, 7299, 7300
12913, 7302, 7295, 7307
12914, 7468, 7404, 7469
12915, 7298, 7302, 7289
12916, 7402, 7303, 7281
12917, 7291, 7312, 7311
12918, 7306, 7304, 7272
12919, 7292, 7304, 7407
12920, 7306, 7442, 7443
12921, 7475, 7482, 7406
12922, 7399, 7272, 7439
12923, 7443, 7475, 7306
12924, 7302, 7307, 7292
12925, 7297, 7307, 7295
12926, 7293, 7308, 7296
12927, 7295, 7308, 7297
12928, 7111, 7310, 7085
12929, 7409, 7309, 7408
12930, 7310, 7108, 7311
12931, 7311, 7108, 7242
12932, 7303, 7291, 7311
12933, 7312, 7291, 7403
12934, 7099, 7310, 7312
12935, 7316, 7313, 7015
12936, 7314, 7320, 7006
12937, 7127, 7314, 7006
12938, 7008, 7313, 7314
12939, 7315, 7316, 7322
12940, 7414, 7419, 7318
12941, 7005, 7317, 7321
12942, 7146, 7124, 7128
12943, 7322, 7316, 7015
12944, 7322, 7015, 7323
12945, 7142, 7325, 7139
12946, 7352, 7134, 7339
12947, 7141, 7328, 7417
12948, 7313, 7316, 7321
12949, 7118, 7320, 7317
12950, 7317, 7320, 7321
12951, 7313, 7321, 7320
12952, 7015, 7018, 7323
12953, 7132, 7325, 7414
12954, 7323, 7013, 7329
12955, 7318, 7322, 7323
12956, 7140, 7328, 7324
12957, 7140, 7334, 7418
12958, 7325, 7132, 7139
12959, 7319, 7318, 7419
12960, 7329, 7013, 7016
12961, 7138, 7327, 7029
12962, 7327, 7132, 7415
12963, 7327, 7326, 7410
12964, 7414, 7325, 7324
12965, 7414, 7318, 7415
12966, 6994, 7329, 7016
12967, 7329, 7326, 7330
12968, 7329, 7330, 7323
12969, 7327, 7330, 7326
12970, 7137, 7124, 7332
12971, 7137, 7739, 7338
12972, 7339, 7342, 7340
12973, 7344, 7338, 7342
12974, 7318, 7319, 7322
12975, 7145, 7140, 7144
12976, 7355, 7336, 7421
12977, 7334, 7140, 7145
12978, 7149, 7336, 7031
12979, 7137, 7332, 7739
12980, 7337, 7137, 7338
12981, 7341, 7740, 7739
12982, 7338, 7340, 7342
12983, 7333, 7340, 7739
12984, 7360, 7354, 7361
12985, 7026, 7343, 7333
12986, 7342, 7339, 7346
12987, 7445, 7483, 7459
12988, 7739, 7340, 7338
12989, 7343, 8545, 8544
12990, 7337, 7344, 7148
12991, 7422, 7353, 7351
12992, 7352, 8544, 8546
12993, 7338, 7344, 7337
12994, 7339, 7134, 7346
12995, 7361, 7358, 7351
12996, 7333, 7343, 7352
12997, 7343, 7026, 7349
12998, 7145, 7365, 7334
12999, 7339, 7333, 7352
13000, 7358, 7354, 7362
13001, 7353, 7422, 7335
13002, 7356, 7342, 7346
13003, 7351, 7348, 7356
13004, 7352, 7343, 8544
13005, 7347, 7335, 7134
13006, 7479, 7354, 7360
13007, 8550, 8552, 7741
13008, 7742, 7358, 7362
13009, 7348, 7351, 7358
13010, 7353, 7359, 7360
13011, 7493, 7491, 7492
13012, 7422, 7356, 7346
13013, 7422, 7134, 7335
13014, 7365, 7001, 7334
13015, 7421, 7336, 7148
13016, 7340, 7333, 7339
13017, 7361, 7351, 7353
13018, 7354, 7478, 7362
13019, 7347, 7359, 7335
13020, 7360, 7359, 7357
13021, 7491, 7496, 7492
13022, 7211, 7425, 7426
13023, 7360, 7361, 7353
13024, 7354, 7358, 7361
13025, 7364, 7362, 7350
13026, 7742, 7145, 7355
13027, 7350, 7363, 7364
13028, 7742, 7364, 7365
13029, 7365, 7364, 7363
13030, 7365, 7363, 7001
13031, 7365, 7145, 7742
13032, 7366, 7154, 7367
13033, 7366, 7367, 7368
13034, 7368, 7367, 7167
13035, 7167, 7160, 7368
13036, 7368, 7160, 7371
13037, 7183, 7372, 7370
13038, 6569, 7369, 7370
13039, 7183, 7370, 7369
13040, 7368, 7371, 7151
13041, 7160, 7183, 7371
13042, 7372, 7160, 7166
13043, 7370, 7372, 7152
13044, 7185, 7205, 7373
13045, 7215, 7373, 7205
13046, 7431, 7376, 7378
13047, 7375, 7033, 7178
13048, 7174, 7374, 7375
13049, 7374, 7198, 7377
13050, 7378, 7211, 7431
13051, 7378, 7379, 7377
13052, 7211, 7377, 7198
13053, 7211, 7378, 7377
13054, 7377, 7379, 7375
13055, 7379, 7033, 7375
13056, 7376, 7379, 7378
13057, 7433, 7434, 7380
13058, 7200, 7429, 7426
13059, 7529, 7527, 7528
13060, 1286, 7382, 7381
13061, 7383, 7382, 7215
13062, 7382, 7383, 7381
13063, 7215, 7205, 7383
13064, 7039, 7384, 1291
13065, 7384, 7047, 7386
13066, 7384, 7385, 7222
13067, 7386, 7047, 7048
13068, 7049, 7386, 7048
13069, 7384, 7386, 7385
13070, 7387, 7050, 7393
13071, 7388, 7046, 7392
13072, 7046, 6840, 7387
13073, 6972, 7389, 7079
13074, 7388, 7390, 7389
13075, 7224, 7391, 7390
13076, 7393, 7392, 7387
13077, 7391, 7224, 7070
13078, 7073, 7391, 7070
13079, 7079, 7389, 7391
13080, 6968, 7046, 6970
13081, 7224, 7390, 7392
13082, 7224, 7393, 7050
13083, 7395, 7394, 7087
13084, 7089, 7224, 7394
13085, 7227, 7395, 7087
13086, 7089, 7395, 7226
13087, 7232, 7397, 7238
13088, 7243, 7397, 7396
13089, 7255, 7248, 7398
13090, 7458, 7399, 7439
13091, 7452, 7453, 7305
13092, 7458, 7250, 7459
13093, 7284, 7400, 7286
13094, 7294, 7401, 7268
13095, 7279, 7401, 6845
13096, 7286, 7402, 7281
13097, 7403, 7402, 7287
13098, 7403, 7066, 7409
13099, 7402, 7403, 7291
13100, 7406, 7289, 7407
13101, 7305, 7443, 7452
13102, 7446, 7447, 7444
13103, 7448, 7484, 7445
13104, 7451, 7482, 7447
13105, 7289, 7473, 7472
13106, 7304, 7306, 7407
13107, 7407, 7306, 7475
13108, 7409, 7408, 7099
13109, 7081, 7408, 7309
13110, 7312, 7409, 7099
13111, 7066, 7309, 7409
13112, 7030, 7410, 6994
13113, 7327, 7410, 7029
13114, 7117, 7411, 1290
13115, 7411, 7125, 7413
13116, 7411, 7412, 7331
13117, 7413, 7125, 7126
13118, 7127, 7413, 7126
13119, 7411, 7413, 7412
13120, 7416, 7414, 7324
13121, 7416, 7419, 7414
13122, 7415, 7318, 7330
13123, 7132, 7414, 7415
13124, 7418, 7334, 7001
13125, 7417, 7328, 7418
13126, 7141, 7130, 7420
13127, 7324, 7328, 7416
13128, 7420, 7416, 7141
13129, 7476, 7419, 7130
13130, 7130, 7419, 7420
13131, 7416, 7420, 7419
13132, 7344, 7421, 7148
13133, 7348, 7421, 7356
13134, 7356, 7422, 7351
13135, 7134, 7422, 7346
13136, 7514, 7515, 7517
13137, 7492, 7143, 7479
13138, 7350, 7478, 7424
13139, 7478, 7479, 7424
13140, 7521, 7212, 7522
13141, 7543, 7542, 7501
13142, 7200, 7425, 7191
13143, 1292, 7380, 7434
13144, 7432, 7434, 7435
13145, 7433, 7428, 7434
13146, 7200, 7195, 7430
13147, 7429, 7427, 7568
13148, 7427, 7429, 7430
13149, 7200, 7430, 7429
13150, 7431, 7210, 7376
13151, 7211, 7428, 7431
13152, 7435, 7428, 7426
13153, 7432, 7435, 7437
13154, 7380, 7210, 7433
13155, 7431, 7433, 7210
13156, 7435, 7434, 7428
13157, 1292, 7434, 7432
13158, 7568, 7426, 7429
13159, 7498, 7427, 7430
13160, 7214, 7430, 7216
13161, 7569, 7520, 7567
13162, 7426, 7568, 7435
13163, 7594, 7560, 7647
13164, 7542, 7545, 7423
13165, 7482, 7305, 7447
13166, 7398, 7441, 7276
13167, 7276, 7441, 7439
13168, 7441, 7398, 7248
13169, 7248, 7440, 7441
13170, 7458, 7441, 7440
13171, 7442, 7399, 7459
13172, 7272, 7442, 7306
13173, 7502, 7454, 7444
13174, 7443, 7305, 7475
13175, 7484, 7483, 7445
13176, 7454, 7446, 7444
13177, 7405, 7485, 7487
13178, 7483, 7442, 7459
13179, 7483, 7443, 7442
13180, 7460, 7462, 7449
13181, 7487, 7488, 7405
13182, 7447, 7446, 7451
13183, 7444, 7453, 7405
13184, 7452, 7484, 7485
13185, 7456, 7455, 7460
13186, 7449, 7404, 7473
13187, 7305, 7453, 7447
13188, 7444, 7447, 7453
13189, 7456, 7460, 7446
13190, 7451, 7449, 7482
13191, 7536, 7538, 7619
13192, 7446, 7454, 7456
13193, 7502, 7444, 7405
13194, 7453, 7452, 7485
13195, 7450, 7529, 7456
13196, 7455, 7529, 7528
13197, 7467, 7469, 7462
13198, 7450, 7456, 7454
13199, 7462, 7460, 7464
13200, 7463, 7460, 7455
13201, 7451, 7460, 7449
13202, 7441, 7458, 7439
13203, 7250, 7458, 7440
13204, 7461, 7463, 7504
13205, 7459, 7250, 7445
13206, 7449, 7462, 7404
13207, 7490, 7457, 7513
13208, 7460, 7463, 7464
13209, 7464, 7467, 7462
13210, 7504, 7463, 7455
13211, 7464, 7463, 7461
13212, 7461, 7465, 7464
13213, 7466, 7467, 7465
13214, 7513, 7465, 7461
13215, 7470, 7469, 7274
13216, 7465, 7467, 7464
13217, 7465, 7457, 7466
13218, 7474, 7466, 7274
13219, 7471, 7468, 7470
13220, 7468, 7471, 7472
13221, 7462, 7469, 7404
13222, 7467, 7466, 7474
13223, 7274, 7301, 7470
13224, 7471, 7470, 7301
13225, 7299, 7471, 7301
13226, 7472, 7471, 7298
13227, 7298, 7289, 7472
13228, 7473, 7289, 7406
13229, 7473, 7406, 7482
13230, 7404, 7472, 7473
13231, 7274, 7469, 7474
13232, 7467, 7474, 7469
13233, 7482, 7475, 7305
13234, 7407, 7475, 7406
13235, 7315, 7476, 7005
13236, 7419, 7476, 7319
13237, 8548, 7491, 7493
13238, 7570, 7520, 7551
13239, 7362, 7478, 7350
13240, 7479, 7478, 7354
13241, 7802, 7801, 7643
13242, 7143, 7424, 7479
13243, 7473, 7482, 7449
13244, 7360, 7493, 7492
13245, 1292, 7500, 7543
13246, 7499, 7585, 7522
13247, 7452, 7443, 7483
13248, 7485, 7484, 7448
13249, 7483, 7484, 7452
13250, 7502, 7488, 7524
13251, 7485, 7405, 7453
13252, 7448, 7487, 7485
13253, 7448, 7486, 7487
13254, 7503, 7486, 7245
13255, 7503, 7487, 7486
13256, 7748, 7507, 7533
13257, 7746, 7517, 7511
13258, 7489, 7508, 7506
13259, 8549, 8542, 8541
13260, 7461, 7504, 7505
13261, 8569, 8547, 8565
13262, 7360, 7492, 7479
13263, 7477, 7494, 7496
13264, 7360, 7357, 7493
13265, 8569, 8564, 8573
13266, 7496, 7495, 7492
13267, 7143, 7492, 7495
13268, 7494, 7143, 7495
13269, 8564, 8571, 8572
13270, 7495, 7496, 7494
13271, 7628, 7534, 7624
13272, 7499, 7522, 1286
13273, 7521, 7216, 7212
13274, 7584, 7436, 7577
13275, 7511, 7515, 7512
13276, 7454, 7502, 7450
13277, 7566, 7432, 7437
13278, 7565, 7542, 7543
13279, 7405, 7488, 7502
13280, 7543, 7500, 7566
13281, 7623, 7637, 7586
13282, 7487, 7503, 7488
13283, 7539, 7525, 7527
13284, 7505, 7504, 7489
13285, 7506, 7505, 7489
13286, 7505, 7490, 7513
13287, 7516, 7508, 7515
13288, 7490, 7506, 7262
13289, 7480, 7524, 7523
13290, 7489, 7504, 7528
13291, 7489, 7525, 7508
13292, 7512, 7508, 7510
13293, 7515, 7508, 7512
13294, 7503, 7531, 7488
13295, 7532, 7523, 7524
13296, 7746, 7745, 7517
13297, 7512, 7510, 7536
13298, 7511, 7517, 7515
13299, 7465, 7513, 7457
13300, 7505, 7513, 7461
13301, 7508, 7516, 7506
13302, 7514, 7262, 7516
13303, 7514, 7516, 7515
13304, 7535, 7746, 7511
13305, 7514, 7517, 7509
13306, 7536, 7535, 7511
13307, 7744, 7748, 7743
13308, 7520, 7570, 7567
13309, 7546, 7553, 7544
13310, 7580, 7582, 7583
13311, 7548, 7550, 7571
13312, 7216, 7521, 7214
13313, 7212, 7382, 7522
13314, 7522, 7382, 1286
13315, 7580, 7581, 7582
13316, 7530, 7635, 7629
13317, 7502, 7524, 7450
13318, 7532, 7524, 7488
13319, 7619, 7624, 7534
13320, 7529, 7480, 7527
13321, 7540, 7480, 7523
13322, 7508, 7525, 7510
13323, 7527, 7525, 7528
13324, 7524, 7480, 7450
13325, 7504, 7455, 7528
13326, 7455, 7456, 7529
13327, 7450, 7480, 7529
13328, 7489, 7528, 7525
13329, 7245, 7531, 7503
13330, 7526, 7799, 7638
13331, 7611, 7610, 7561
13332, 7531, 7532, 7488
13333, 7629, 7635, 7623
13334, 7536, 7511, 7512
13335, 7748, 7755, 7507
13336, 7539, 7538, 7510
13337, 7758, 7750, 7747
13338, 7743, 7535, 7634
13339, 7534, 7628, 7634
13340, 7538, 7536, 7510
13341, 7534, 7535, 7536
13342, 7540, 7539, 7527
13343, 7631, 7532, 7630
13344, 7510, 7525, 7539
13345, 7538, 7537, 7619
13346, 7527, 7480, 7540
13347, 7537, 7538, 7539
13348, 7632, 7630, 7531
13349, 7539, 7540, 7649
13350, 7618, 7622, 7586
13351, 7629, 7631, 7630
13352, 1292, 7543, 7501
13353, 7546, 7545, 7542
13354, 7432, 7566, 7500
13355, 7544, 7545, 7546
13356, 7591, 7544, 7553
13357, 7546, 7542, 7519
13358, 7596, 7547, 7549
13359, 7571, 7551, 7555
13360, 7546, 7519, 7550
13361, 7556, 7558, 7560
13362, 7544, 7549, 7545
13363, 7550, 7548, 7556
13364, 7596, 7549, 7606
13365, 7423, 7549, 7547
13366, 7551, 7550, 7519
13367, 7556, 7553, 7550
13368, 7570, 7519, 7554
13369, 7520, 7579, 7551
13370, 7548, 7587, 7558
13371, 7587, 7577, 7616
13372, 7550, 7553, 7546
13373, 7592, 7591, 7594
13374, 7565, 7554, 7519
13375, 7566, 7567, 7554
13376, 7579, 7575, 7555
13377, 7557, 7609, 7647
13378, 7558, 7556, 7548
13379, 7552, 7553, 7556
13380, 7598, 7563, 7602
13381, 7556, 7560, 7552
13382, 7587, 7557, 7558
13383, 7644, 7645, 7562
13384, 7572, 7548, 7555
13385, 7609, 7648, 7647
13386, 7562, 7557, 7587
13387, 7603, 7577, 7436
13388, 7548, 7572, 7587
13389, 7578, 7587, 7572
13390, 7593, 7613, 7481
13391, 7606, 7593, 7596
13392, 7604, 7602, 7610
13393, 7558, 7557, 7560
13394, 7598, 7595, 7597
13395, 7590, 7591, 7592
13396, 7542, 7565, 7519
13397, 7566, 7565, 7543
13398, 7567, 7566, 7437
13399, 7566, 7554, 7565
13400, 7437, 7568, 7567
13401, 7567, 7568, 7569
13402, 7435, 7568, 7437
13403, 7569, 7568, 7427
13404, 7427, 7498, 7569
13405, 7580, 7576, 7498
13406, 7519, 7570, 7551
13407, 7567, 7570, 7554
13408, 7551, 7571, 7550
13409, 7555, 7548, 7571
13410, 7572, 7555, 7575
13411, 7578, 7572, 7575
13412, 7569, 7576, 7520
13413, 7573, 7576, 7580
13414, 7603, 7559, 7644
13415, 7573, 7584, 7575
13416, 7555, 7551, 7579
13417, 7574, 7584, 7583
13418, 7498, 7576, 7569
13419, 7573, 7575, 7576
13420, 7673, 7665, 7674
13421, 7587, 7578, 7577
13422, 7578, 7575, 7584
13423, 7520, 7576, 7579
13424, 7575, 7579, 7576
13425, 7581, 7498, 7214
13426, 7583, 7582, 7497
13427, 7581, 7585, 7582
13428, 7498, 7581, 7580
13429, 7585, 7581, 7521
13430, 7499, 7497, 7582
13431, 7574, 7583, 7497
13432, 7580, 7583, 7573
13433, 7583, 7584, 7573
13434, 7436, 7584, 7574
13435, 7522, 7585, 7521
13436, 7499, 7582, 7585
13437, 7619, 7618, 7624
13438, 7622, 7618, 7649
13439, 7676, 7657, 7675
13440, 7647, 7648, 7564
13441, 7601, 7660, 7639
13442, 7654, 7652, 7614
13443, 7547, 7596, 7481
13444, 7552, 7591, 7553
13445, 7599, 7607, 7592
13446, 7591, 7552, 7594
13447, 7544, 7591, 7590
13448, 7597, 7592, 7564
13449, 7599, 7592, 7597
13450, 7590, 7607, 7593
13451, 7593, 7481, 7596
13452, 7560, 7594, 7552
13453, 7564, 7592, 7594
13454, 7564, 7598, 7597
13455, 7655, 7641, 7686
13456, 7562, 7609, 7557
13457, 7606, 7549, 7544
13458, 7599, 7597, 7595
13459, 7675, 7657, 7682
13460, 7595, 7598, 7601
13461, 7640, 7651, 7639
13462, 7615, 7589, 7605
13463, 7816, 7683, 7684
13464, 7659, 7643, 7588
13465, 7602, 7601, 7598
13466, 7663, 7601, 7602
13467, 7645, 7609, 7562
13468, 7664, 7679, 7677
13469, 7598, 7564, 7648
13470, 7616, 7562, 7587
13471, 7612, 7611, 7188
13472, 7610, 7602, 7563
13473, 7544, 7590, 7606
13474, 7593, 7607, 7608
13475, 7593, 7606, 7590
13476, 7592, 7607, 7590
13477, 7608, 7607, 7599
13478, 7608, 7599, 7617
13479, 7608, 7605, 7613
13480, 7563, 7561, 7610
13481, 7561, 7563, 7648
13482, 7604, 7610, 7612
13483, 7646, 7561, 7645
13484, 7611, 7612, 7610
13485, 7608, 7613, 7593
13486, 7605, 7481, 7613
13487, 7651, 7599, 7595
13488, 7654, 7640, 7642
13489, 7605, 7608, 7615
13490, 7615, 7608, 7617
13491, 7577, 7603, 7616
13492, 7644, 7616, 7603
13493, 7617, 7599, 7651
13494, 7615, 7617, 7614
13495, 7537, 7539, 7649
13496, 7625, 7624, 7618
13497, 7619, 7534, 7536
13498, 7537, 7618, 7619
13499, 7631, 7523, 7532
13500, 7622, 7623, 7586
13501, 7621, 7624, 7625
13502, 7518, 7753, 7755
13503, 7649, 7618, 7537
13504, 7623, 7622, 7620
13505, 7623, 7620, 7629
13506, 7627, 7637, 7638
13507, 7625, 7618, 7586
13508, 7628, 7624, 7768
13509, 7636, 7637, 7623
13510, 7776, 7586, 7627
13511, 7752, 7518, 7626
13512, 7744, 7743, 7634
13513, 7766, 7763, 7762
13514, 7586, 7776, 7625
13515, 7768, 7624, 7621
13516, 7628, 7626, 7634
13517, 7620, 7649, 7631
13518, 7630, 7532, 7531
13519, 7632, 7531, 7245
13520, 7530, 7629, 7630
13521, 7620, 7631, 7629
13522, 7540, 7523, 7631
13523, 7245, 7530, 7632
13524, 7530, 7630, 7632
13525, 7634, 7535, 7534
13526, 7623, 7541, 7636
13527, 7626, 7518, 7744
13528, 7530, 7541, 7635
13529, 7623, 7635, 7541
13530, 7541, 7633, 7636
13531, 7636, 7633, 7637
13532, 7638, 7637, 7633
13533, 7627, 7586, 7637
13534, 7633, 7526, 7638
13535, 7669, 7658, 7771
13536, 7640, 7639, 7588
13537, 7595, 7601, 7639
13538, 7642, 7640, 7588
13539, 7617, 7651, 7614
13540, 7641, 7642, 7643
13541, 7652, 7653, 7589
13542, 7643, 7642, 7588
13543, 7438, 7653, 7655
13544, 7656, 7668, 7666
13545, 7805, 7682, 7671
13546, 7645, 7644, 7559
13547, 7616, 7644, 7562
13548, 7646, 7645, 7559
13549, 7645, 7561, 7609
13550, 7559, 7611, 7646
13551, 7561, 7646, 7611
13552, 7594, 7647, 7564
13553, 7557, 7647, 7560
13554, 7561, 7648, 7609
13555, 7598, 7648, 7563
13556, 7631, 7649, 7540
13557, 7622, 7649, 7620
13558, 7639, 7651, 7595
13559, 7800, 7650, 7787
13560, 7651, 7640, 7614
13561, 7654, 7655, 7652
13562, 7652, 7655, 7653
13563, 7652, 7615, 7614
13564, 7641, 7655, 7654
13565, 7640, 7654, 7614
13566, 7641, 7654, 7642
13567, 7652, 7589, 7615
13568, 7665, 7659, 7660
13569, 7674, 7660, 7601
13570, 7643, 7659, 7662
13571, 7656, 7666, 7675
13572, 7761, 7766, 7758
13573, 7769, 7770, 7794
13574, 7588, 7639, 7660
13575, 7672, 7663, 7604
13576, 7674, 7601, 7663
13577, 7588, 7660, 7659
13578, 7787, 7772, 7658
13579, 7668, 7807, 7802
13580, 7604, 7663, 7602
13581, 7686, 7685, 7822
13582, 7612, 7667, 7604
13583, 7661, 7687, 7676
13584, 7672, 7677, 7678
13585, 7804, 7814, 7803
13586, 7675, 7673, 7676
13587, 7665, 7666, 7662
13588, 7665, 7660, 7674
13589, 7662, 7666, 7668
13590, 7188, 7664, 7667
13591, 7682, 7805, 7656
13592, 7667, 7612, 7188
13593, 7526, 7669, 7799
13594, 7682, 7657, 7683
13595, 7831, 7833, 7858
13596, 7659, 7665, 7662
13597, 7673, 7666, 7665
13598, 7828, 7819, 7826
13599, 7672, 7667, 7677
13600, 7641, 7685, 7686
13601, 7667, 7672, 7604
13602, 7663, 7672, 7674
13603, 7666, 7673, 7675
13604, 7673, 7674, 7678
13605, 7679, 7676, 7677
13606, 7664, 7677, 7667
13607, 7678, 7676, 7673
13608, 7672, 7678, 7674
13609, 7676, 7678, 7677
13610, 7664, 7661, 7679
13611, 7661, 7676, 7679
13612, 7801, 7807, 7821
13613, 7842, 7836, 7843
13614, 7675, 7682, 7656
13615, 7676, 7687, 7657
13616, 7657, 7687, 7683
13617, 7684, 7683, 7681
13618, 7671, 7682, 7683
13619, 7681, 7600, 7684
13620, 7600, 7815, 7684
13621, 7801, 7685, 7643
13622, 7821, 7822, 7801
13623, 7824, 7822, 7823
13624, 7686, 7438, 7655
13625, 7661, 7681, 7687
13626, 7683, 7687, 7681
13627, 7688, 1367, 1698
13628, 7689, 652, 653
13629, 1422, 7689, 1513
13630, 652, 7689, 7688
13631, 2084, 7690, 2083
13632, 7692, 7690, 1825
13633, 2083, 7691, 2568
13634, 2539, 7691, 7690
13635, 7694, 7692, 1825
13636, 1635, 2537, 7693
13637, 2539, 7693, 2538
13638, 7693, 7692, 1635
13639, 2043, 7694, 1825
13640, 1635, 7694, 2540
13641, 2300, 7695, 3239
13642, 1559, 7696, 1500
13643, 625, 7696, 1559
13644, 7696, 7695, 2300
13645, 2833, 636, 7697
13646, 7699, 636, 1836
13647, 4931, 7698, 3953
13648, 2833, 7697, 7698
13649, 3899, 7699, 1836
13650, 7697, 636, 7699
13651, 3985, 7700, 1193
13652, 3983, 7700, 3978
13653, 7703, 7702, 4654
13654, 7701, 7702, 7703
13655, 379, 7702, 7701
13656, 4659, 7703, 4654
13657, 380, 7703, 4662
13658, 7708, 7706, 7705
13659, 5318, 7704, 4930
13660, 7706, 5331, 5780
13661, 7707, 7706, 5330
13662, 4947, 7707, 5330
13663, 5331, 7707, 5766
13664, 4592, 7708, 637
13665, 7706, 7708, 5330
13666, 3329, 7709, 5373
13667, 796, 7709, 3635
13668, 537, 536, 7710
13669, 5565, 7710, 536
13670, 5581, 5582, 7712
13671, 5591, 5596, 7713
13672, 5591, 7712, 5590
13673, 5581, 7712, 7711
13674, 5586, 7713, 5838
13675, 5591, 7713, 7711
13676, 5587, 7714, 5586
13677, 5581, 7711, 7714
13678, 7717, 7718, 740
13679, 5648, 7720, 7719
13680, 7718, 7716, 739
13681, 7716, 7715, 7721
13682, 5648, 7717, 5891
13683, 7718, 7717, 7715
13684, 7719, 5644, 5654
13685, 7716, 7718, 7715
13686, 7721, 7719, 5656
13687, 5640, 7720, 5648
13688, 5644, 7720, 5650
13689, 7716, 7721, 5655
13690, 7715, 7719, 7721
13691, 5659, 5657, 7725
13692, 7724, 5657, 6094
13693, 7725, 5657, 7724
13694, 7724, 5894, 7722
13695, 5894, 7724, 6093
13696, 7725, 7722, 7723
13697, 738, 7725, 7723
13698, 6107, 6110, 7727
13699, 7727, 7726, 7728
13700, 735, 7726, 7727
13701, 7727, 7728, 6107
13702, 736, 7728, 7726
13703, 7968, 7969, 7990
13704, 7954, 6212, 7953
13705, 7992, 6223, 7993
13706, 7734, 7731, 7732
13707, 6381, 6388, 7732
13708, 7733, 7734, 6387
13709, 6387, 7734, 6388
13710, 6631, 6385, 6368
13711, 7734, 7733, 6385
13712, 7738, 7735, 7736
13713, 6415, 6422, 7736
13714, 7737, 7738, 6421
13715, 6421, 7738, 6422
13716, 6742, 6419, 6402
13717, 7738, 7737, 6419
13718, 7129, 7739, 7332
13719, 7026, 7333, 7740
13720, 7739, 7740, 7333
13721, 8600, 8676, 8578
13722, 8548, 7357, 8549
13723, 7358, 7742, 7348
13724, 7742, 7362, 7364
13725, 7745, 7743, 7533
13726, 7626, 7744, 7634
13727, 7755, 7748, 7518
13728, 7533, 7509, 7745
13729, 7517, 7745, 7509
13730, 7535, 7743, 7746
13731, 7745, 7746, 7743
13732, 7752, 7764, 7750
13733, 7768, 7626, 7628
13734, 7743, 7748, 7533
13735, 7518, 7748, 7744
13736, 7764, 7747, 7750
13737, 7762, 7763, 7749
13738, 7757, 7769, 7794
13739, 7753, 7518, 7752
13740, 7766, 7750, 7758
13741, 7752, 7626, 7764
13742, 7753, 7752, 7750
13743, 7760, 7777, 7767
13744, 7751, 7755, 7762
13745, 7762, 7749, 7751
13746, 7762, 7755, 7753
13747, 7751, 7507, 7755
13748, 7769, 7747, 7764
13749, 7781, 7777, 7760
13750, 7621, 7770, 7769
13751, 7773, 7767, 7758
13752, 7759, 7763, 7766
13753, 7761, 7759, 7766
13754, 7758, 7767, 7761
13755, 7759, 7775, 7779
13756, 7792, 7779, 7775
13757, 7773, 7758, 7757
13758, 7790, 7791, 7793
13759, 7792, 7778, 7789
13760, 7766, 7753, 7750
13761, 7762, 7753, 7766
13762, 7779, 7789, 7765
13763, 7779, 7749, 7763
13764, 7764, 7768, 7769
13765, 7798, 7782, 7788
13766, 7757, 7758, 7747
13767, 7761, 7767, 7780
13768, 7788, 7782, 7650
13769, 7783, 7777, 7781
13770, 7769, 7768, 7621
13771, 7760, 7784, 7781
13772, 7626, 7768, 7764
13773, 7625, 7776, 7621
13774, 7747, 7769, 7757
13775, 7799, 7627, 7638
13776, 7770, 7658, 7794
13777, 7627, 7799, 7771
13778, 7771, 7770, 7776
13779, 7787, 7782, 7785
13780, 7786, 7767, 7773
13781, 7773, 7794, 7786
13782, 7786, 7785, 7760
13783, 7789, 1125, 7765
13784, 7780, 7775, 7761
13785, 7777, 7754, 7793
13786, 7759, 7761, 7775
13787, 7771, 7776, 7627
13788, 7621, 7776, 7770
13789, 7775, 7791, 7792
13790, 7779, 7763, 7759
13791, 7749, 7779, 7765
13792, 7767, 7777, 7780
13793, 7780, 7777, 7793
13794, 7785, 7784, 7760
13795, 7777, 7783, 7754
13796, 7781, 7797, 7774
13797, 7795, 7797, 7798
13798, 7786, 7760, 7767
13799, 7781, 7774, 7783
13800, 7785, 7782, 7784
13801, 7785, 7772, 7787
13802, 7787, 7650, 7782
13803, 7794, 7773, 7757
13804, 7772, 7785, 7786
13805, 7658, 7772, 7794
13806, 7800, 7658, 7669
13807, 1125, 7789, 7778
13808, 7795, 7798, 7796
13809, 7791, 7756, 7792
13810, 7791, 7775, 7780
13811, 7756, 7791, 7790
13812, 7778, 7792, 7756
13813, 7779, 7792, 7789
13814, 7790, 7793, 7754
13815, 7780, 7793, 7791
13816, 7658, 7770, 7771
13817, 7786, 7794, 7772
13818, 7797, 7781, 7784
13819, 7774, 7797, 7795
13820, 7798, 7784, 7782
13821, 7796, 1124, 7795
13822, 7796, 7798, 7788
13823, 7784, 7798, 7797
13824, 7669, 7771, 7799
13825, 7658, 7800, 7787
13826, 7669, 7650, 7800
13827, 7668, 7805, 7808
13828, 7801, 7802, 7807
13829, 7643, 7662, 7802
13830, 7668, 7802, 7662
13831, 7806, 7807, 7808
13832, 7812, 7813, 7810
13833, 7812, 7814, 7804
13834, 7808, 7805, 7813
13835, 7807, 7806, 7821
13836, 7808, 7812, 7804
13837, 7656, 7805, 7668
13838, 7821, 7809, 7823
13839, 7808, 7807, 7668
13840, 7821, 7806, 7830
13841, 7818, 7820, 7815
13842, 7806, 7808, 7804
13843, 7812, 7810, 7814
13844, 7806, 7804, 7803
13845, 7824, 7438, 7686
13846, 7808, 7813, 7812
13847, 7813, 7805, 7671
13848, 7820, 7818, 7819
13849, 7815, 7671, 7816
13850, 7671, 7815, 7813
13851, 7829, 7844, 7828
13852, 7834, 7803, 7835
13853, 7600, 7817, 7818
13854, 7813, 7820, 7810
13855, 7683, 7816, 7671
13856, 7684, 7815, 7816
13857, 7817, 7826, 7818
13858, 7815, 7600, 7818
13859, 7817, 7811, 7826
13860, 7926, 7925, 7936
13861, 7815, 7820, 7813
13862, 7844, 7820, 7819
13863, 7830, 7806, 7803
13864, 7823, 7809, 7680
13865, 7801, 7822, 7685
13866, 7823, 7822, 7821
13867, 7831, 7821, 7830
13868, 7824, 7823, 7680
13869, 7438, 7824, 7680
13870, 7686, 7822, 7824
13871, 7837, 7829, 7836
13872, 7670, 7845, 7848
13873, 7828, 7924, 7827
13874, 7818, 7826, 7819
13875, 7835, 7842, 7825
13876, 7844, 7829, 7837
13877, 7811, 7828, 7826
13878, 7827, 7840, 7828
13879, 7839, 7836, 7829
13880, 7834, 7835, 7825
13881, 7833, 7830, 7803
13882, 7833, 7831, 7830
13883, 7857, 7858, 7845
13884, 7831, 7832, 7809
13885, 7670, 7857, 7845
13886, 7821, 7831, 7809
13887, 7834, 7833, 7803
13888, 7832, 7857, 7670
13889, 7835, 7803, 7814
13890, 7834, 7825, 7845
13891, 7836, 7814, 7837
13892, 7835, 7814, 7836
13893, 7840, 7838, 7839
13894, 7839, 7843, 7836
13895, 7814, 7810, 7837
13896, 7844, 7837, 7810
13897, 7915, 7910, 7925
13898, 7209, 7866, 7868
13899, 7840, 7839, 7829
13900, 7908, 7843, 7839
13901, 7828, 7840, 7829
13902, 7840, 7827, 7911
13903, 7855, 7852, 7853
13904, 7853, 7851, 7855
13905, 7836, 7842, 7835
13906, 7842, 7841, 7849
13907, 7908, 7839, 7838
13908, 7842, 7843, 7841
13909, 7820, 7844, 7810
13910, 7828, 7844, 7819
13911, 7849, 7825, 7842
13912, 7858, 7832, 7831
13913, 7845, 7850, 7848
13914, 7849, 7852, 7850
13915, 7846, 7670, 7847
13916, 7850, 7845, 7825
13917, 7847, 7670, 7848
13918, 7907, 7841, 7906
13919, 7846, 7847, 7852
13920, 7848, 7850, 7847
13921, 7825, 7849, 7850
13922, 7906, 7908, 7909
13923, 7862, 7866, 7859
13924, 7850, 7852, 7847
13925, 7853, 7852, 7849
13926, 7841, 7853, 7849
13927, 7854, 7855, 7859
13928, 7859, 7855, 7851
13929, 7854, 7846, 7855
13930, 7854, 7859, 7209
13931, 7855, 7846, 7852
13932, 7883, 7873, 7874
13933, 7946, 7884, 7919
13934, 7834, 7858, 7833
13935, 7832, 7858, 7857
13936, 7862, 7859, 7851
13937, 7856, 7862, 7860
13938, 7904, 7851, 7907
13939, 7893, 7938, 7939
13940, 7867, 7873, 7878
13941, 7870, 7864, 7868
13942, 7904, 7902, 7903
13943, 8824, 8813, 8823
13944, 7209, 7859, 7866
13945, 7866, 7862, 7856
13946, 7933, 8824, 8826
13947, 7869, 7856, 7860
13948, 7866, 7856, 7871
13949, 7938, 7896, 7941
13950, 7870, 7872, 7874
13951, 7890, 7883, 7881
13952, 7870, 7868, 7871
13953, 7872, 7870, 7871
13954, 7872, 7856, 7869
13955, 7890, 7878, 7883
13956, 7866, 7871, 7868
13957, 7872, 7871, 7856
13958, 7860, 7886, 7869
13959, 7872, 7881, 7883
13960, 7876, 7873, 7867
13961, 7880, 7864, 7870
13962, 7903, 7905, 7882
13963, 8809, 7898, 7899
13964, 7897, 7885, 7891
13965, 7900, 7934, 7901
13966, 7880, 7873, 7876
13967, 7876, 7864, 7880
13968, 7867, 7878, 7889
13969, 7898, 7867, 7899
13970, 7925, 7926, 7915
13971, 7888, 7890, 7881
13972, 7869, 7886, 7887
13973, 7881, 7872, 7869
13974, 7874, 7880, 7870
13975, 7874, 7873, 7880
13976, 7888, 7918, 7919
13977, 7876, 7898, 7861
13978, 7873, 7883, 7878
13979, 7869, 7887, 7881
13980, 7872, 7883, 7874
13981, 7891, 7889, 7878
13982, 7934, 7899, 7901
13983, 7860, 7904, 7903
13984, 7886, 7882, 7887
13985, 7922, 7912, 7917
13986, 7881, 7887, 7888
13987, 7914, 7912, 7905
13988, 7912, 7914, 7917
13989, 7891, 7878, 7890
13990, 7889, 7885, 7899
13991, 7884, 7892, 7888
13992, 7889, 7891, 7885
13993, 7890, 7892, 7891
13994, 7931, 7893, 7879
13995, 7888, 7892, 7890
13996, 7892, 7884, 7894
13997, 7894, 7891, 7892
13998, 7894, 7893, 7897
13999, 7884, 7896, 7894
14000, 7939, 7938, 7949
14001, 7946, 7951, 7945
14002, 7940, 8815, 8816
14003, 7896, 7884, 7946
14004, 7896, 7895, 7941
14005, 7894, 7897, 7891
14006, 7931, 7897, 7893
14007, 7876, 7867, 7898
14008, 7867, 7889, 7899
14009, 7901, 7931, 7900
14010, 7899, 7885, 7901
14011, 7900, 7931, 7950
14012, 8809, 8782, 7861
14013, 7931, 7901, 7885
14014, 8782, 8812, 8810
14015, 7860, 7862, 7904
14016, 7918, 7922, 7917
14017, 7860, 7903, 7886
14018, 7903, 7902, 7905
14019, 7862, 7851, 7904
14020, 7851, 7853, 7907
14021, 7923, 7909, 7910
14022, 7902, 7923, 7905
14023, 7908, 7906, 7841
14024, 7902, 7904, 7906
14025, 7841, 7907, 7853
14026, 7904, 7907, 7906
14027, 7843, 7908, 7841
14028, 7909, 7908, 7838
14029, 7909, 7838, 7910
14030, 7902, 7906, 7909
14031, 7838, 7840, 7911
14032, 7915, 7905, 7910
14033, 7930, 7935, 7924
14034, 7838, 7911, 7910
14035, 7905, 7915, 7914
14036, 7882, 7905, 7912
14037, 7921, 7927, 7928
14038, 7887, 7882, 7922
14039, 7827, 7924, 7935
14040, 7927, 7914, 7915
14041, 7909, 7923, 7902
14042, 7917, 7921, 7916
14043, 7951, 7916, 7929
14044, 7927, 7921, 7914
14045, 7918, 7917, 7916
14046, 7919, 7918, 7916
14047, 7888, 7887, 7922
14048, 7913, 7920, 7951
14049, 7888, 7919, 7884
14050, 7945, 7865, 7895
14051, 7865, 7945, 7920
14052, 7929, 7921, 7928
14053, 7914, 7921, 7917
14054, 7912, 7922, 7882
14055, 7888, 7922, 7918
14056, 7910, 7905, 7923
14057, 7930, 7924, 7811
14058, 7935, 7936, 7925
14059, 7911, 7925, 7910
14060, 7925, 7911, 7935
14061, 7196, 7877, 7926
14062, 7877, 7928, 7927
14063, 7915, 7926, 7927
14064, 7877, 7927, 7926
14065, 7877, 7913, 7928
14066, 7929, 7928, 7913
14067, 7924, 7828, 7811
14068, 7916, 7921, 7929
14069, 7827, 7935, 7911
14070, 7936, 7935, 7930
14071, 7931, 7879, 7950
14072, 7897, 7931, 7885
14073, 7947, 8784, 7937
14074, 7949, 7941, 7948
14075, 8821, 8823, 8813
14076, 8836, 7943, 8810
14077, 7934, 7900, 7944
14078, 7930, 7196, 7936
14079, 7936, 7196, 7926
14080, 7893, 7894, 7938
14081, 7875, 8840, 8958
14082, 7896, 7938, 7894
14083, 8939, 8811, 7933
14084, 7937, 8818, 8817
14085, 7879, 7893, 7939
14086, 7947, 7942, 7932
14087, 7944, 7940, 8811
14088, 7865, 7941, 7895
14089, 7937, 8784, 8818
14090, 7865, 7942, 7948
14091, 8810, 7944, 8808
14092, 7944, 7900, 7950
14093, 7865, 7948, 7941
14094, 7934, 8809, 7899
14095, 7895, 7896, 7946
14096, 7929, 7913, 7951
14097, 7919, 7916, 7951
14098, 7946, 7945, 7895
14099, 8956, 8784, 8957
14100, 7939, 7949, 7937
14101, 7942, 7947, 7948
14102, 7947, 7937, 7949
14103, 7941, 7949, 7938
14104, 7947, 7949, 7948
14105, 7879, 8817, 8815
14106, 7944, 7950, 7940
14107, 7945, 7951, 7920
14108, 7951, 7946, 7919
14109, 8000, 8004, 8037
14110, 7959, 7958, 6355
14111, 7955, 7970, 8023
14112, 8023, 7970, 7953
14113, 6354, 7954, 6243
14114, 7953, 7970, 7954
14115, 7957, 7956, 7955
14116, 6243, 7956, 6446
14117, 7957, 7955, 7952
14118, 7958, 7957, 7952
14119, 7959, 7957, 7958
14120, 7967, 8000, 7962
14121, 7958, 7952, 7967
14122, 7963, 7961, 7959
14123, 6445, 7957, 7959
14124, 7971, 7963, 6355
14125, 7960, 7965, 7996
14126, 8006, 7960, 7996
14127, 7966, 7968, 7961
14128, 8030, 8054, 8026
14129, 7971, 7978, 7980
14130, 7965, 7963, 7971
14131, 7960, 7961, 7963
14132, 7982, 7976, 7975
14133, 7974, 7976, 7982
14134, 7730, 8031, 7992
14135, 8006, 8027, 8034
14136, 7969, 6231, 7990
14137, 6446, 7968, 6242
14138, 7967, 7952, 8004
14139, 7994, 7967, 7995
14140, 7968, 6446, 6445
14141, 7968, 7966, 7969
14142, 8032, 7996, 7979
14143, 7730, 7993, 7969
14144, 8023, 7953, 7729
14145, 7955, 7954, 7970
14146, 7994, 7973, 7958
14147, 7971, 6355, 7973
14148, 7964, 7981, 7984
14149, 7975, 7971, 7980
14150, 7958, 7973, 6355
14151, 7987, 7978, 7972
14152, 7971, 7973, 7978
14153, 7975, 7965, 7971
14154, 7974, 6244, 7976
14155, 8012, 7998, 7987
14156, 7976, 7965, 7975
14157, 7982, 7964, 7974
14158, 7972, 7978, 7973
14159, 7978, 7977, 7980
14160, 7996, 8032, 8006
14161, 7997, 7730, 7969
14162, 7981, 7980, 7977
14163, 7964, 7982, 7981
14164, 7985, 7981, 7977
14165, 7985, 7984, 7981
14166, 7975, 7980, 7982
14167, 7981, 7982, 7980
14168, 7987, 7998, 7978
14169, 7985, 7986, 7983
14170, 7985, 7977, 7998
14171, 8015, 7984, 7983
14172, 7984, 7985, 7983
14173, 8047, 8028, 8019
14174, 8052, 8053, 8061
14175, 7995, 7987, 7972
14176, 8035, 8039, 8028
14177, 7976, 7979, 7965
14178, 8027, 8006, 8032
14179, 8038, 7952, 8023
14180, 8034, 8027, 8031
14181, 6234, 7990, 6231
14182, 7968, 7990, 6242
14183, 8005, 8027, 8032
14184, 8006, 7966, 7960
14185, 8027, 8005, 7991
14186, 7992, 7993, 7730
14187, 6231, 7969, 7993
14188, 8034, 7730, 7997
14189, 7995, 7967, 7962
14190, 7973, 7994, 7972
14191, 7995, 7962, 8013
14192, 7972, 7994, 7995
14193, 6244, 7979, 7976
14194, 8032, 7979, 8005
14195, 8012, 8013, 8008
14196, 7952, 7955, 8023
14197, 7985, 7998, 7986
14198, 7978, 7998, 7977
14199, 8035, 8002, 8003
14200, 8038, 7989, 8037
14201, 8004, 8000, 7967
14202, 8037, 7989, 8001
14203, 8014, 8018, 8020
14204, 8000, 8001, 8049
14205, 8012, 7986, 7998
14206, 8024, 8011, 8058
14207, 6205, 8002, 8050
14208, 7969, 7966, 7997
14209, 7729, 8038, 8023
14210, 6244, 8005, 7979
14211, 6206, 6223, 7992
14212, 7992, 8031, 8016
14213, 8034, 7966, 8006
14214, 8012, 8010, 7986
14215, 8054, 8053, 8017
14216, 8028, 8049, 8050
14217, 7986, 8010, 8009
14218, 8044, 8046, 8025
14219, 8018, 8017, 8010
14220, 8010, 8017, 8043
14221, 7730, 8034, 8031
14222, 8025, 8046, 8080
14223, 7987, 7995, 8013
14224, 8008, 8010, 8012
14225, 8048, 8047, 8008
14226, 7987, 8013, 8012
14227, 8020, 8008, 8047
14228, 8024, 8030, 8025
14229, 7984, 8015, 6225
14230, 8021, 7983, 8009
14231, 7992, 8016, 6206
14232, 8004, 7952, 8038
14233, 8018, 8010, 8008
14234, 8066, 8071, 8070
14235, 8049, 8047, 8048
14236, 8014, 8017, 8018
14237, 8039, 8040, 8045
14238, 8044, 8026, 8020
14239, 8008, 8020, 8018
14240, 8097, 8098, 8075
14241, 8020, 8026, 8014
14242, 6205, 8001, 7989
14243, 8014, 8026, 8054
14244, 7989, 8038, 7729
14245, 8047, 8049, 8028
14246, 8021, 8122, 8015
14247, 8125, 8022, 8123
14248, 8039, 8035, 8003
14249, 8039, 8045, 8019
14250, 8060, 8066, 8068
14251, 8044, 8020, 8019
14252, 8024, 8025, 8080
14253, 8027, 7991, 8033
14254, 7988, 8031, 8033
14255, 8123, 8051, 8124
14256, 8027, 8033, 8031
14257, 8056, 8061, 8057
14258, 8043, 8052, 8124
14259, 8010, 8043, 8009
14260, 8026, 8025, 8030
14261, 8034, 7997, 7966
14262, 8000, 8037, 8001
14263, 7983, 8021, 8015
14264, 8050, 8035, 8028
14265, 8009, 8043, 8021
14266, 6225, 8122, 8051
14267, 6441, 8016, 3998
14268, 7988, 3998, 8016
14269, 8040, 7999, 8042
14270, 8004, 8038, 8037
14271, 8019, 8028, 8039
14272, 8054, 8062, 8036
14273, 8039, 8003, 8040
14274, 8025, 8026, 8044
14275, 8306, 8332, 8343
14276, 8045, 8042, 8041
14277, 8060, 8073, 8059
14278, 8081, 8099, 7999
14279, 8045, 8044, 8019
14280, 8044, 8041, 8046
14281, 8042, 8045, 8040
14282, 8045, 8041, 8044
14283, 8099, 8042, 7999
14284, 8053, 8043, 8017
14285, 8020, 8047, 8019
14286, 8008, 8013, 8048
14287, 8013, 7962, 8048
14288, 8048, 7962, 8049
14289, 8000, 8049, 7962
14290, 8050, 8002, 8035
14291, 8049, 8001, 8050
14292, 6205, 8050, 8001
14293, 8051, 8122, 8124
14294, 8043, 8053, 8052
14295, 8017, 8014, 8054
14296, 8053, 8036, 8061
14297, 8062, 8054, 8030
14298, 8054, 8036, 8053
14299, 8062, 8058, 8057
14300, 8074, 8073, 8060
14301, 8072, 8126, 8055
14302, 8056, 8125, 8123
14303, 8030, 8024, 8058
14304, 8057, 8068, 8063
14305, 8060, 8058, 8011
14306, 8057, 8058, 8068
14307, 8059, 8095, 8071
14308, 8070, 8055, 8066
14309, 8074, 8011, 8075
14310, 8066, 8060, 8059
14311, 8061, 8036, 8062
14312, 8123, 8061, 8056
14313, 8058, 8062, 8030
14314, 8061, 8062, 8057
14315, 8072, 8055, 8070
14316, 8056, 8057, 8063
14317, 8022, 8125, 8064
14318, 8126, 8064, 8125
14319, 8087, 8100, 8083
14320, 8073, 8082, 8077
14321, 8071, 8069, 8070
14322, 8068, 8066, 8055
14323, 8059, 8073, 8077
14324, 8161, 8162, 8116
14325, 8068, 8055, 8063
14326, 8060, 8068, 8058
14327, 8079, 8107, 8116
14328, 8055, 8126, 8063
14329, 8071, 8066, 8059
14330, 8072, 8070, 8069
14331, 8095, 8079, 8071
14332, 8116, 8069, 8071
14333, 8072, 8069, 8119
14334, 8119, 8174, 8072
14335, 8074, 8060, 8011
14336, 8077, 8082, 8076
14337, 8024, 8080, 8011
14338, 8065, 8073, 8074
14339, 8099, 8041, 8042
14340, 8098, 8065, 8074
14341, 8148, 8167, 8111
14342, 8117, 8078, 8171
14343, 8082, 8073, 8065
14344, 8076, 8094, 8104
14345, 8079, 8116, 8071
14346, 8113, 8107, 8079
14347, 8076, 8084, 8092
14348, 8113, 8105, 8106
14349, 8046, 8075, 8080
14350, 8011, 8080, 8075
14351, 8081, 8007, 8097
14352, 8046, 8099, 8075
14353, 8243, 8245, 8242
14354, 8084, 8087, 797
14355, 8087, 8065, 8100
14356, 8077, 8103, 8095
14357, 8076, 8082, 8084
14358, 8065, 8087, 8082
14359, 8082, 8087, 8084
14360, 797, 8087, 8083
14361, 8109, 8112, 8111
14362, 8108, 8094, 8092
14363, 8109, 8093, 8094
14364, 8102, 8128, 8090
14365, 8092, 8094, 8076
14366, 8127, 8084, 797
14367, 8084, 8127, 8092
14368, 8092, 8128, 8108
14369, 8161, 8120, 8171
14370, 8113, 8079, 8096
14371, 8059, 8077, 8095
14372, 8104, 8103, 8076
14373, 8096, 8104, 8105
14374, 8079, 8095, 8096
14375, 8100, 8098, 8097
14376, 8099, 8097, 8075
14377, 8075, 8098, 8074
14378, 8100, 8097, 8007
14379, 8046, 8041, 8099
14380, 8097, 8099, 8081
14381, 8098, 8100, 8065
14382, 8083, 8100, 8007
14383, 8111, 8093, 8109
14384, 8102, 8090, 8114
14385, 8110, 8112, 8131
14386, 8108, 8109, 8094
14387, 8076, 8103, 8077
14388, 8096, 8095, 8103
14389, 8105, 8104, 8094
14390, 8103, 8104, 8096
14391, 8094, 8093, 8105
14392, 8106, 8105, 8093
14393, 8129, 8093, 8111
14394, 8120, 8107, 8101
14395, 8106, 8107, 8113
14396, 8135, 8149, 8110
14397, 8092, 8127, 8128
14398, 8108, 8102, 8109
14399, 8131, 8112, 8114
14400, 8109, 8102, 8112
14401, 8135, 8110, 8132
14402, 8118, 8101, 8106
14403, 8110, 8131, 8132
14404, 8093, 8129, 8118
14405, 8114, 8112, 8102
14406, 8111, 8112, 8110
14407, 8105, 8113, 8096
14408, 8106, 8101, 8107
14409, 8107, 8120, 8161
14410, 8131, 8115, 8132
14411, 8090, 8115, 8131
14412, 8078, 8162, 8161
14413, 8164, 8168, 8163
14414, 8171, 8078, 8161
14415, 8093, 8118, 8106
14416, 8118, 8067, 8164
14417, 8029, 8174, 8119
14418, 8116, 8162, 8069
14419, 8172, 8101, 8163
14420, 8172, 8117, 8171
14421, 8078, 8121, 8162
14422, 8121, 8029, 8119
14423, 8015, 8122, 6225
14424, 8021, 8043, 8124
14425, 8123, 8052, 8061
14426, 8022, 8051, 8123
14427, 8021, 8124, 8122
14428, 8052, 8123, 8124
14429, 8056, 8063, 8126
14430, 8056, 8126, 8125
14431, 8174, 8126, 8072
14432, 797, 8091, 8127
14433, 8127, 8091, 8128
14434, 8090, 8128, 8091
14435, 8108, 8128, 8102
14436, 8167, 8129, 8111
14437, 8118, 8129, 8067
14438, 8144, 8154, 8130
14439, 8154, 8153, 8147
14440, 8090, 8131, 8114
14441, 8132, 8115, 8089
14442, 8137, 8132, 8089
14443, 8154, 8156, 8189
14444, 8145, 8130, 8150
14445, 8141, 8135, 8137
14446, 8135, 8132, 8137
14447, 8067, 8166, 8164
14448, 8089, 8138, 8137
14449, 8160, 8141, 8151
14450, 8181, 8145, 8150
14451, 8134, 8135, 8141
14452, 8089, 8133, 8138
14453, 8142, 8138, 8133
14454, 8150, 8130, 8147
14455, 8147, 8130, 8154
14456, 8137, 8138, 8142
14457, 8159, 8149, 8134
14458, 8142, 8141, 8137
14459, 8150, 8147, 8152
14460, 8133, 8143, 8142
14461, 8207, 8140, 8204
14462, 8133, 8136, 8143
14463, 8158, 8159, 8160
14464, 8146, 8187, 8169
14465, 8141, 8142, 8151
14466, 8181, 8150, 8785
14467, 8786, 8787, 8785
14468, 8180, 8130, 8145
14469, 8153, 8146, 8158
14470, 8142, 8143, 8789
14471, 8789, 8136, 8788
14472, 8158, 8169, 8148
14473, 8111, 8110, 8149
14474, 8134, 8149, 8135
14475, 8111, 8149, 8148
14476, 8788, 8785, 8150
14477, 8153, 8151, 8147
14478, 8152, 8147, 8151
14479, 8151, 8153, 8160
14480, 8180, 8211, 8196
14481, 8182, 8790, 8177
14482, 8146, 8153, 8154
14483, 8156, 8154, 8144
14484, 8156, 8157, 8178
14485, 8184, 8170, 8178
14486, 8156, 8144, 8196
14487, 8155, 8188, 8189
14488, 8130, 8180, 8196
14489, 8199, 8202, 8201
14490, 8193, 8190, 8191
14491, 8159, 8158, 8148
14492, 8149, 8159, 8148
14493, 8160, 8159, 8134
14494, 8160, 8134, 8141
14495, 8153, 8158, 8160
14496, 8069, 8162, 8119
14497, 8107, 8161, 8116
14498, 8164, 8101, 8118
14499, 8121, 8119, 8162
14500, 8163, 8101, 8164
14501, 8167, 8169, 8186
14502, 8186, 8177, 8166
14503, 8177, 8186, 8182
14504, 8193, 8165, 8190
14505, 8167, 8166, 8067
14506, 8168, 8183, 1289
14507, 8167, 8067, 8129
14508, 8167, 8148, 8169
14509, 8155, 8178, 8170
14510, 8173, 8168, 1289
14511, 8146, 8169, 8158
14512, 8190, 8183, 8790
14513, 8190, 8790, 8182
14514, 8190, 8165, 8183
14515, 8172, 8171, 8120
14516, 8101, 8172, 8120
14517, 8172, 8163, 8173
14518, 1289, 8117, 8173
14519, 8172, 8173, 8117
14520, 8029, 8064, 8174
14521, 8126, 8174, 8064
14522, 8226, 8221, 8088
14523, 8215, 8145, 8198
14524, 8213, 8211, 8180
14525, 8195, 8139, 8184
14526, 8166, 8177, 8164
14527, 8188, 8191, 8187
14528, 8156, 8178, 8155
14529, 8195, 8184, 8212
14530, 8145, 8181, 8198
14531, 8184, 8139, 8170
14532, 8210, 8201, 8202
14533, 8788, 8786, 8785
14534, 8175, 8220, 8198
14535, 8182, 8186, 8187
14536, 8168, 8173, 8163
14537, 8168, 8164, 8177
14538, 8212, 8178, 8157
14539, 8212, 8211, 8201
14540, 8167, 8186, 8166
14541, 8170, 8139, 8194
14542, 8187, 8186, 8169
14543, 8188, 8146, 8189
14544, 8187, 8146, 8188
14545, 8170, 8192, 8155
14546, 8188, 8192, 8191
14547, 8154, 8189, 8146
14548, 8155, 8189, 8156
14549, 8168, 8177, 8790
14550, 8182, 8187, 8191
14551, 8155, 8192, 8188
14552, 8182, 8191, 8190
14553, 8194, 8192, 8170
14554, 8193, 8185, 8165
14555, 8191, 8192, 8193
14556, 8185, 8193, 8192
14557, 8139, 8185, 8194
14558, 8192, 8194, 8185
14559, 8179, 8139, 8195
14560, 8156, 8196, 8157
14561, 8130, 8196, 8144
14562, 8175, 8221, 8220
14563, 8205, 8208, 8203
14564, 8175, 8198, 8181
14565, 8197, 8214, 8215
14566, 8180, 8214, 8213
14567, 8210, 8202, 8176
14568, 8250, 8249, 8240
14569, 8239, 8242, 8229
14570, 8212, 8179, 8195
14571, 8212, 8157, 8211
14572, 8205, 8202, 8199
14573, 8204, 8176, 8202
14574, 8211, 8213, 8199
14575, 8208, 8206, 8246
14576, 8223, 8208, 8205
14577, 8202, 8205, 8207
14578, 8207, 8205, 8203
14579, 8206, 8217, 8216
14580, 8236, 8233, 8218
14581, 8278, 8203, 8244
14582, 8202, 8207, 8204
14583, 8223, 8205, 8199
14584, 8206, 8224, 8246
14585, 8231, 8227, 8200
14586, 8229, 8236, 8239
14587, 8176, 8179, 8210
14588, 8179, 8201, 8210
14589, 8211, 8157, 8196
14590, 8199, 8201, 8211
14591, 8212, 8201, 8179
14592, 8212, 8184, 8178
14593, 8180, 8215, 8214
14594, 8213, 8217, 8223
14595, 8216, 8214, 8197
14596, 8217, 8214, 8216
14597, 8145, 8215, 8180
14598, 8197, 8215, 8198
14599, 8222, 8197, 8220
14600, 8218, 8227, 8228
14601, 8206, 8208, 8223
14602, 8213, 8214, 8217
14603, 8226, 8227, 8219
14604, 8226, 8200, 8227
14605, 8226, 8219, 8221
14606, 8222, 8216, 8197
14607, 8198, 8220, 8197
14608, 8088, 8787, 8786
14609, 8088, 8200, 8226
14610, 8222, 8218, 8233
14611, 8231, 8200, 8225
14612, 8219, 8222, 8220
14613, 8213, 8223, 8199
14614, 8206, 8223, 8217
14615, 8219, 8220, 8221
14616, 8230, 8206, 8216
14617, 8222, 8219, 8218
14618, 8222, 8230, 8216
14619, 8219, 8227, 8218
14620, 8228, 8234, 8236
14621, 8206, 8230, 8224
14622, 8284, 8250, 8251
14623, 8225, 8234, 8228
14624, 8233, 8230, 8222
14625, 8245, 8230, 8229
14626, 8225, 8228, 8231
14627, 8227, 8231, 8228
14628, 8229, 8233, 8236
14629, 8209, 8285, 8237
14630, 8236, 8218, 8228
14631, 8230, 8233, 8229
14632, 8237, 8234, 8232
14633, 8225, 8232, 8234
14634, 8243, 8244, 8246
14635, 8240, 8234, 8237
14636, 8239, 8240, 8249
14637, 8209, 8237, 8232
14638, 8237, 8235, 8240
14639, 8261, 8271, 8257
14640, 8203, 8278, 8207
14641, 8240, 8239, 8236
14642, 8247, 8254, 8241
14643, 8240, 8236, 8234
14644, 8254, 8256, 8241
14645, 8235, 8250, 8240
14646, 8203, 8208, 8246
14647, 8284, 8256, 8248
14648, 8270, 8239, 8247
14649, 8242, 8239, 8270
14650, 8224, 8230, 8245
14651, 8243, 8242, 8270
14652, 8280, 8290, 8291
14653, 8242, 8245, 8229
14654, 8224, 8245, 8243
14655, 8243, 8246, 8224
14656, 8203, 8246, 8244
14657, 8269, 8270, 8247
14658, 8264, 8253, 8272
14659, 8250, 8235, 8251
14660, 8254, 8249, 8248
14661, 8247, 8239, 8249
14662, 8284, 8251, 8289
14663, 8248, 8249, 8250
14664, 8273, 8275, 8282
14665, 8256, 8258, 8241
14666, 8258, 8260, 8241
14667, 8268, 8241, 8260
14668, 8248, 8256, 8254
14669, 8140, 8207, 8278
14670, 8249, 8254, 8247
14671, 8259, 8294, 8317
14672, 8243, 8255, 8244
14673, 8247, 8241, 8269
14674, 8258, 8256, 8253
14675, 8258, 8261, 8257
14676, 8266, 8260, 8257
14677, 8253, 8264, 8261
14678, 8258, 8257, 8260
14679, 8264, 8259, 8261
14680, 8259, 8264, 8275
14681, 8342, 8262, 8266
14682, 8263, 8269, 8268
14683, 8253, 8261, 8258
14684, 8294, 8316, 8317
14685, 8292, 8262, 8252
14686, 8262, 8292, 8263
14687, 8238, 8293, 8342
14688, 8280, 8292, 8277
14689, 8235, 8285, 8251
14690, 8285, 8287, 8251
14691, 8274, 8272, 8253
14692, 8321, 8271, 8320
14693, 8267, 8266, 8257
14694, 8266, 8262, 8260
14695, 8267, 8257, 8271
14696, 8238, 8342, 8267
14697, 8267, 8342, 8266
14698, 8263, 8291, 8269
14699, 8269, 8255, 8270
14700, 8241, 8268, 8269
14701, 8244, 8255, 8290
14702, 8276, 8323, 8288
14703, 8319, 8261, 8259
14704, 8264, 8272, 8295
14705, 8316, 8344, 8308
14706, 8308, 8347, 8322
14707, 8275, 8294, 8259
14708, 8274, 8253, 8256
14709, 8243, 8270, 8255
14710, 8274, 8297, 8272
14711, 8275, 8298, 8294
14712, 8279, 8140, 8278
14713, 8295, 8282, 8275
14714, 8277, 8140, 8279
14715, 8282, 8309, 8273
14716, 8280, 8279, 8278
14717, 8279, 8280, 8277
14718, 8291, 8292, 8280
14719, 8278, 8244, 8290
14720, 8301, 8300, 8273
14721, 8294, 8298, 8302
14722, 8282, 8272, 8297
14723, 8798, 8326, 8311
14724, 8287, 8289, 8251
14725, 8323, 8349, 8310
14726, 8256, 8284, 8274
14727, 8250, 8284, 8248
14728, 8237, 8285, 8235
14729, 8209, 8286, 8287
14730, 8209, 8287, 8285
14731, 8287, 8288, 8289
14732, 8288, 8287, 8286
14733, 8276, 8288, 8286
14734, 8289, 8288, 8283
14735, 8297, 8289, 8283
14736, 8284, 8289, 8274
14737, 8291, 8290, 8255
14738, 8278, 8290, 8280
14739, 8269, 8291, 8255
14740, 8292, 8291, 8263
14741, 8268, 8262, 8263
14742, 8277, 8292, 8252
14743, 8268, 8260, 8262
14744, 8252, 8262, 8293
14745, 8298, 8275, 8273
14746, 8316, 8294, 8281
14747, 8264, 8295, 8275
14748, 8272, 8282, 8295
14749, 8282, 8310, 8309
14750, 8085, 8311, 8296
14751, 8289, 8297, 8274
14752, 8282, 8297, 8283
14753, 8300, 8298, 8273
14754, 8298, 8300, 8302
14755, 8434, 8426, 8422
14756, 8300, 8307, 8302
14757, 8273, 8309, 8301
14758, 8341, 8328, 8337
14759, 8301, 8309, 8327
14760, 8796, 8315, 8326
14761, 8334, 8313, 8354
14762, 8294, 8302, 8281
14763, 8798, 8311, 8085
14764, 8311, 8326, 8301
14765, 8337, 8328, 8324
14766, 8340, 8300, 8301
14767, 8797, 8341, 8337
14768, 8322, 8347, 8265
14769, 8315, 8340, 8326
14770, 8345, 8343, 8281
14771, 8302, 8335, 8345
14772, 8305, 8332, 8792
14773, 8344, 8316, 8281
14774, 8320, 8318, 8321
14775, 8310, 8282, 8283
14776, 8310, 8349, 8327
14777, 8283, 8323, 8310
14778, 8313, 8324, 8314
14779, 8310, 8327, 8309
14780, 8303, 8357, 8369
14781, 8328, 8341, 8312
14782, 8335, 8350, 8356
14783, 8361, 8358, 8371
14784, 8333, 8353, 8362
14785, 8358, 8314, 8353
14786, 8326, 8340, 8301
14787, 8353, 8314, 8351
14788, 8344, 8281, 8343
14789, 8316, 8308, 8317
14790, 8318, 8322, 8265
14791, 8261, 8319, 8271
14792, 8317, 8320, 8319
14793, 8238, 8267, 8321
14794, 8259, 8317, 8319
14795, 8317, 8308, 8320
14796, 8320, 8271, 8319
14797, 8238, 8321, 8318
14798, 8318, 8320, 8322
14799, 8271, 8321, 8267
14800, 8308, 8322, 8320
14801, 8288, 8323, 8283
14802, 8349, 8323, 8276
14803, 8262, 8342, 8293
14804, 8314, 8352, 8351
14805, 8410, 8419, 8397
14806, 8300, 8340, 8307
14807, 8296, 8311, 8327
14808, 8301, 8327, 8311
14809, 8364, 8351, 8366
14810, 8334, 8324, 8313
14811, 8335, 8356, 8306
14812, 8315, 8796, 8334
14813, 8371, 8374, 8336
14814, 8332, 8306, 8355
14815, 8388, 8383, 8387
14816, 8355, 8336, 8332
14817, 8793, 8336, 8338
14818, 8332, 8305, 8343
14819, 8332, 8793, 8792
14820, 8307, 8350, 8335
14821, 8374, 8371, 8299
14822, 8797, 8796, 8330
14823, 8383, 8373, 8382
14824, 8307, 8340, 8315
14825, 8793, 8338, 8791
14826, 8329, 8378, 8387
14827, 8354, 8350, 8334
14828, 8334, 8337, 8324
14829, 8306, 8345, 8335
14830, 8324, 8328, 8314
14831, 8328, 8312, 8352
14832, 8334, 8350, 8315
14833, 8374, 8373, 8388
14834, 8373, 8374, 8375
14835, 8363, 8359, 8362
14836, 8345, 8281, 8302
14837, 8343, 8305, 8344
14838, 8348, 8305, 8792
14839, 8346, 8347, 8348
14840, 8302, 8307, 8335
14841, 8306, 8343, 8345
14842, 8308, 8344, 8347
14843, 8347, 8346, 8265
14844, 8347, 8344, 8348
14845, 8346, 8348, 8086
14846, 8344, 8305, 8348
14847, 8276, 8296, 8349
14848, 8327, 8349, 8296
14849, 8307, 8315, 8350
14850, 8313, 8314, 8358
14851, 8352, 8314, 8328
14852, 8366, 8312, 8303
14853, 8361, 8313, 8358
14854, 8353, 8333, 8358
14855, 8356, 8354, 8339
14856, 8356, 8355, 8306
14857, 8355, 8339, 8371
14858, 8354, 8356, 8350
14859, 8355, 8356, 8339
14860, 8403, 8359, 8367
14861, 8382, 8381, 8370
14862, 8360, 8358, 8333
14863, 8354, 8361, 8339
14864, 8353, 8363, 8362
14865, 8367, 8359, 8363
14866, 8375, 8360, 8333
14867, 8360, 8299, 8371
14868, 8313, 8361, 8354
14869, 8371, 8358, 8360
14870, 8363, 8353, 8351
14871, 8362, 8359, 8376
14872, 8351, 8352, 8366
14873, 8363, 8351, 8364
14874, 8364, 8367, 8363
14875, 8413, 8414, 8416
14876, 8405, 8372, 8404
14877, 8364, 8303, 8369
14878, 8312, 8366, 8352
14879, 8303, 8364, 8366
14880, 8372, 8407, 8403
14881, 8364, 8369, 8404
14882, 8381, 8377, 8370
14883, 8375, 8333, 8376
14884, 8405, 8404, 8357
14885, 8376, 8359, 8379
14886, 8355, 8371, 8336
14887, 8371, 8339, 8361
14888, 8403, 8404, 8372
14889, 8409, 8391, 8407
14890, 8299, 8360, 8375
14891, 8384, 8329, 8387
14892, 8336, 8374, 8338
14893, 8375, 8374, 8299
14894, 8333, 8362, 8376
14895, 8373, 8375, 8382
14896, 8379, 8359, 8368
14897, 8382, 8370, 8383
14898, 8794, 8791, 8331
14899, 8338, 8374, 8388
14900, 8384, 8387, 8383
14901, 8377, 8385, 8393
14902, 8385, 8381, 8386
14903, 8376, 8379, 8381
14904, 8368, 8394, 8386
14905, 8384, 8392, 8329
14906, 8379, 8368, 8386
14907, 8381, 8379, 8386
14908, 8375, 8376, 8382
14909, 8381, 8382, 8376
14910, 8384, 8383, 8370
14911, 8381, 8385, 8377
14912, 8377, 8384, 8370
14913, 8390, 8392, 8393
14914, 8401, 8396, 8398
14915, 8394, 8407, 8391
14916, 8399, 8396, 8385
14917, 8383, 8388, 8373
14918, 8388, 8387, 8378
14919, 8378, 8331, 8388
14920, 8411, 8424, 8415
14921, 8398, 8425, 8400
14922, 8368, 8403, 8407
14923, 8384, 8393, 8392
14924, 8413, 8410, 8389
14925, 8384, 8377, 8393
14926, 8390, 8329, 8392
14927, 8396, 8393, 8385
14928, 8393, 8396, 8401
14929, 8407, 8394, 8368
14930, 8397, 8394, 8391
14931, 8397, 8386, 8394
14932, 8425, 8426, 8402
14933, 8399, 8386, 8397
14934, 8398, 8396, 8395
14935, 8389, 8410, 8391
14936, 8396, 8399, 8395
14937, 8395, 8423, 8425
14938, 8398, 8380, 8401
14939, 8386, 8399, 8385
14940, 8399, 8397, 8419
14941, 8412, 8419, 8410
14942, 8380, 8398, 8400
14943, 8380, 8390, 8401
14944, 8390, 8393, 8401
14945, 8419, 8423, 8395
14946, 8402, 8380, 8400
14947, 8359, 8403, 8368
14948, 8404, 8403, 8367
14949, 8364, 8404, 8367
14950, 8357, 8404, 8369
14951, 8357, 8365, 8405
14952, 8405, 8365, 8408
14953, 8304, 8430, 8406
14954, 8430, 8431, 8406
14955, 8372, 8408, 8407
14956, 8407, 8408, 8409
14957, 8408, 8372, 8405
14958, 8432, 8365, 8406
14959, 8408, 8431, 8409
14960, 8389, 8391, 8409
14961, 8413, 8412, 8410
14962, 8397, 8391, 8410
14963, 8518, 8515, 8514
14964, 8416, 8414, 8514
14965, 8425, 8398, 8395
14966, 8399, 8419, 8395
14967, 8430, 8417, 8418
14968, 8412, 8413, 8415
14969, 8458, 8462, 8463
14970, 8447, 8452, 8456
14971, 8413, 8416, 8415
14972, 8433, 8517, 8304
14973, 8414, 8413, 8389
14974, 8424, 8423, 8412
14975, 8446, 8438, 8445
14976, 8417, 8414, 8418
14977, 8428, 8437, 8439
14978, 8438, 8446, 8462
14979, 8514, 8414, 8417
14980, 8418, 8414, 8389
14981, 8424, 8412, 8415
14982, 8409, 8418, 8389
14983, 8425, 8423, 8422
14984, 8412, 8423, 8419
14985, 8436, 8424, 8411
14986, 8422, 8423, 8424
14987, 8426, 8425, 8422
14988, 8425, 8402, 8400
14989, 8436, 8434, 8422
14990, 8402, 8426, 8325
14991, 8436, 8422, 8424
14992, 8439, 8513, 8451
14993, 8426, 8434, 8435
14994, 8429, 8435, 8434
14995, 8417, 8430, 8304
14996, 8431, 8430, 8418
14997, 8409, 8431, 8418
14998, 8408, 8365, 8432
14999, 8406, 8431, 8432
15000, 8408, 8432, 8431
15001, 8520, 8459, 8457
15002, 8452, 8444, 8411
15003, 8429, 8434, 8437
15004, 8429, 8325, 8435
15005, 8426, 8435, 8325
15006, 8445, 8438, 8439
15007, 8429, 8437, 8428
15008, 8442, 8436, 8449
15009, 8437, 8442, 8439
15010, 8444, 8436, 8411
15011, 8438, 8462, 8510
15012, 8437, 8434, 8442
15013, 8443, 8451, 8513
15014, 8452, 8522, 8444
15015, 8459, 8450, 8464
15016, 8448, 8449, 8444
15017, 8446, 8445, 8453
15018, 8436, 8442, 8434
15019, 8439, 8442, 8441
15020, 8447, 8456, 8515
15021, 8428, 8439, 8451
15022, 8456, 8415, 8416
15023, 8448, 8444, 8440
15024, 8439, 8441, 8445
15025, 8441, 8448, 8453
15026, 8454, 8440, 8461
15027, 8446, 8440, 8454
15028, 8520, 8457, 8529
15029, 8440, 8446, 8453
15030, 8449, 8448, 8441
15031, 8442, 8449, 8441
15032, 8436, 8444, 8449
15033, 8463, 8464, 8470
15034, 8492, 8483, 8480
15035, 8513, 8439, 8438
15036, 8443, 8428, 8451
15037, 8456, 8411, 8415
15038, 8452, 8447, 8522
15039, 8441, 8453, 8445
15040, 8440, 8453, 8448
15041, 8461, 8522, 8457
15042, 8469, 8458, 8463
15043, 8476, 8523, 8472
15044, 8524, 8523, 8478
15045, 8416, 8514, 8515
15046, 8411, 8456, 8452
15047, 8529, 8515, 8516
15048, 8521, 8474, 8520
15049, 8446, 8463, 8462
15050, 8487, 8495, 8500
15051, 8461, 8459, 8454
15052, 8529, 8516, 8520
15053, 8465, 8475, 8420
15054, 8471, 8474, 8475
15055, 8522, 8461, 8440
15056, 8459, 8461, 8457
15057, 8463, 8446, 8454
15058, 8458, 8512, 8510
15059, 8454, 8464, 8463
15060, 8450, 8467, 8470
15061, 8459, 8464, 8454
15062, 8466, 8470, 8467
15063, 8479, 8476, 8455
15064, 8483, 8477, 8484
15065, 8479, 8477, 8525
15066, 8506, 8469, 8473
15067, 8450, 8471, 8467
15068, 8478, 8523, 8479
15069, 8471, 8475, 8465
15070, 8420, 8481, 8524
15071, 8470, 8469, 8463
15072, 8479, 8525, 8478
15073, 8470, 8466, 8469
15074, 8450, 8470, 8464
15075, 8474, 8471, 8450
15076, 8496, 8468, 8488
15077, 8473, 8477, 8483
15078, 8525, 8466, 8467
15079, 8477, 8473, 8466
15080, 8466, 8473, 8469
15081, 8459, 8474, 8450
15082, 8475, 8521, 8460
15083, 8524, 8471, 8465
15084, 8420, 8475, 8460
15085, 8467, 8471, 8478
15086, 8455, 8476, 8526
15087, 8476, 8479, 8523
15088, 8524, 8478, 8471
15089, 8477, 8479, 8455
15090, 8488, 8480, 8484
15091, 8507, 8506, 8473
15092, 8472, 8482, 8530
15093, 8472, 8530, 8476
15094, 8533, 8482, 798
15095, 8490, 8488, 8468
15096, 8484, 8477, 8455
15097, 8497, 8501, 799
15098, 8528, 8527, 8526
15099, 8480, 8483, 8484
15100, 8484, 8455, 8527
15101, 8527, 8455, 8526
15102, 8488, 8490, 8480
15103, 8506, 8504, 8512
15104, 8494, 8498, 8493
15105, 8480, 8490, 8493
15106, 8480, 8498, 8492
15107, 8492, 8507, 8483
15108, 8494, 8491, 8487
15109, 8508, 8498, 8499
15110, 8495, 8501, 8500
15111, 8490, 8468, 8491
15112, 8499, 8486, 8502
15113, 8490, 8491, 8494
15114, 799, 8501, 8495
15115, 8494, 8486, 8498
15116, 8494, 8493, 8490
15117, 8528, 8496, 8488
15118, 8493, 8498, 8480
15119, 8502, 8497, 8489
15120, 8500, 8497, 8486
15121, 8510, 8512, 8509
15122, 8499, 8498, 8486
15123, 8508, 8509, 8504
15124, 8486, 8494, 8500
15125, 8500, 8494, 8487
15126, 8497, 8500, 8501
15127, 8497, 8502, 8486
15128, 8505, 8502, 8489
15129, 8508, 8504, 8507
15130, 8502, 8505, 8499
15131, 8499, 8505, 8509
15132, 8489, 8503, 8505
15133, 8509, 8505, 8503
15134, 8469, 8506, 8458
15135, 8507, 8473, 8483
15136, 8508, 8507, 8492
15137, 8506, 8507, 8504
15138, 8498, 8508, 8492
15139, 8509, 8508, 8499
15140, 8503, 8511, 8509
15141, 8513, 8427, 8443
15142, 8458, 8510, 8462
15143, 8510, 8509, 8511
15144, 8503, 8427, 8511
15145, 8510, 8511, 8427
15146, 8506, 8512, 8458
15147, 8509, 8512, 8504
15148, 8438, 8510, 8513
15149, 8427, 8513, 8510
15150, 8304, 8517, 8417
15151, 8514, 8517, 8518
15152, 8416, 8515, 8456
15153, 8417, 8517, 8514
15154, 8518, 8433, 8519
15155, 8521, 8519, 8421
15156, 8518, 8517, 8433
15157, 8519, 8433, 8421
15158, 8518, 8516, 8515
15159, 8460, 8521, 8421
15160, 8516, 8518, 8519
15161, 8520, 8474, 8459
15162, 8516, 8519, 8520
15163, 8474, 8521, 8475
15164, 8521, 8520, 8519
15165, 8522, 8440, 8444
15166, 8529, 8522, 8447
15167, 8472, 8523, 8481
15168, 8420, 8524, 8465
15169, 8523, 8524, 8481
15170, 8466, 8525, 8477
15171, 8478, 8525, 8467
15172, 8528, 8532, 8485
15173, 8526, 8532, 8528
15174, 8488, 8484, 8527
15175, 8496, 8528, 8485
15176, 8488, 8527, 8528
15177, 8522, 8529, 8457
15178, 8515, 8529, 8447
15179, 8531, 8533, 798
15180, 8526, 8476, 8530
15181, 8485, 8532, 8531
15182, 8534, 8482, 8533
15183, 8526, 8530, 8534
15184, 8531, 8532, 8533
15185, 8534, 8532, 8526
15186, 8482, 8534, 8530
15187, 8532, 8534, 8533
15188, 4133, 8535, 8536
15189, 8536, 5915, 6376
15190, 8536, 8535, 8537
15191, 6387, 6388, 8537
15192, 5915, 8537, 6388
15193, 4199, 8538, 8539
15194, 8539, 5928, 6410
15195, 8539, 8538, 8540
15196, 6421, 6422, 8540
15197, 5928, 8540, 6422
15198, 8541, 8542, 8551
15199, 8547, 8549, 8550
15200, 7359, 8542, 7357
15201, 8551, 8542, 7347
15202, 7134, 8546, 7347
15203, 8543, 8554, 8556
15204, 8545, 7343, 7349
15205, 8544, 8543, 8551
15206, 7345, 8545, 7349
15207, 8543, 8544, 8545
15208, 7352, 8546, 7134
15209, 8551, 8546, 8544
15210, 8560, 7741, 8555
15211, 8548, 8547, 8573
15212, 7493, 7357, 8548
15213, 7357, 8542, 8549
15214, 8550, 8549, 8541
15215, 8547, 8548, 8549
15216, 8552, 8550, 8541
15217, 8550, 7741, 8566
15218, 8551, 7347, 8546
15219, 8552, 8551, 8543
15220, 8551, 8552, 8541
15221, 8545, 8554, 8543
15222, 8553, 8557, 8555
15223, 8555, 7741, 8552
15224, 8556, 8555, 8552
15225, 8599, 8556, 8554
15226, 8557, 8553, 6868
15227, 8543, 8556, 8552
15228, 8554, 7345, 8599
15229, 8576, 8565, 8563
15230, 8601, 8600, 8589
15231, 8649, 8650, 8724
15232, 8679, 8586, 8677
15233, 8571, 8564, 8568
15234, 8600, 8602, 8591
15235, 8557, 8560, 8555
15236, 8586, 8558, 8598
15237, 8564, 8569, 8568
15238, 8559, 8589, 8563
15239, 8571, 8568, 8581
15240, 7496, 7491, 8572
15241, 8574, 8581, 8587
15242, 8592, 8567, 8560
15243, 8576, 8569, 8565
15244, 8583, 8591, 8602
15245, 8563, 8565, 8567
15246, 8547, 8550, 8566
15247, 7741, 8560, 8567
15248, 8547, 8566, 8565
15249, 8565, 8566, 8567
15250, 8567, 8566, 7741
15251, 8670, 8659, 8684
15252, 8603, 8609, 8611
15253, 8573, 7491, 8548
15254, 8569, 8576, 8570
15255, 8581, 8574, 8571
15256, 8580, 8570, 8558
15257, 8572, 7477, 7496
15258, 8564, 8572, 7491
15259, 7477, 8572, 8571
15260, 8569, 8573, 8547
15261, 7491, 8573, 8564
15262, 8568, 8570, 8580
15263, 7477, 8571, 8574
15264, 8560, 8593, 8592
15265, 8607, 8614, 8609
15266, 8577, 8576, 8563
15267, 8570, 8576, 8558
15268, 8563, 8589, 8577
15269, 8576, 8577, 8558
15270, 8601, 8676, 8600
15271, 8629, 8611, 8621
15272, 8650, 8644, 8654
15273, 8618, 8605, 8609
15274, 8558, 8586, 8580
15275, 8587, 8580, 8679
15276, 8587, 8581, 8580
15277, 6868, 8593, 8557
15278, 8563, 8592, 8559
15279, 8560, 8557, 8593
15280, 8589, 8591, 8577
15281, 8594, 8596, 8584
15282, 8559, 8594, 8601
15283, 8578, 8606, 8600
15284, 8679, 8580, 8586
15285, 8598, 8558, 8577
15286, 8607, 8605, 8602
15287, 8618, 8678, 8605
15288, 8574, 8587, 6870
15289, 8591, 8583, 8598
15290, 8587, 8679, 6870
15291, 8591, 8589, 8600
15292, 8592, 8563, 8567
15293, 8575, 8675, 8754
15294, 8583, 8677, 8598
15295, 8559, 8592, 8594
15296, 8680, 8585, 8679
15297, 8718, 8596, 8575
15298, 8594, 8584, 8601
15299, 8592, 8593, 8594
15300, 8596, 8594, 8597
15301, 8597, 8594, 8593
15302, 8593, 6868, 8597
15303, 8575, 8596, 8595
15304, 6868, 8595, 8597
15305, 8596, 8597, 8595
15306, 8577, 8591, 8598
15307, 8605, 8583, 8602
15308, 7345, 8553, 8599
15309, 8555, 8599, 8553
15310, 8559, 8601, 8589
15311, 8718, 8676, 8584
15312, 8800, 8637, 8617
15313, 8606, 8602, 8600
15314, 8627, 8626, 8620
15315, 8719, 8578, 8676
15316, 8609, 8603, 8618
15317, 8602, 8606, 8607
15318, 8603, 8624, 8626
15319, 8720, 8578, 8719
15320, 8607, 8606, 8604
15321, 8590, 8612, 8604
15322, 8614, 8611, 8609
15323, 8677, 8678, 8680
15324, 8678, 8608, 8680
15325, 8605, 8607, 8609
15326, 8607, 8604, 8612
15327, 8614, 8613, 8610
15328, 8687, 8635, 8623
15329, 8621, 8611, 8610
15330, 8624, 8611, 8629
15331, 8613, 8612, 8590
15332, 8614, 8610, 8611
15333, 8590, 8617, 8613
15334, 8637, 8613, 8617
15335, 8607, 8612, 8614
15336, 8614, 8612, 8613
15337, 8669, 8683, 8632
15338, 8648, 8636, 8623
15339, 8722, 8682, 8658
15340, 8638, 8643, 8622
15341, 8590, 8682, 8722
15342, 8799, 8802, 8616
15343, 8626, 8618, 8603
15344, 8618, 8608, 8678
15345, 8610, 8613, 8637
15346, 8686, 8625, 8579
15347, 8681, 8685, 8588
15348, 8603, 8611, 8624
15349, 8622, 8621, 8610
15350, 8623, 8625, 8687
15351, 8634, 8631, 8633
15352, 8626, 8624, 8620
15353, 8628, 8627, 8620
15354, 8629, 8630, 8686
15355, 8630, 8621, 8622
15356, 8669, 8659, 8683
15357, 8685, 8619, 8588
15358, 8626, 8685, 8618
15359, 8579, 8619, 8627
15360, 8626, 8627, 8619
15361, 8627, 8628, 8579
15362, 8629, 8628, 8620
15363, 8624, 8629, 8620
15364, 8630, 8629, 8621
15365, 8633, 8630, 8622
15366, 8631, 8687, 8633
15367, 8637, 8638, 8610
15368, 8648, 8635, 8631
15369, 8659, 8669, 8616
15370, 8686, 8579, 8628
15371, 8634, 8633, 8622
15372, 8631, 8635, 8687
15373, 8652, 8642, 8651
15374, 8645, 8661, 8646
15375, 8639, 8648, 8631
15376, 8616, 8669, 8800
15377, 8634, 8639, 8631
15378, 8641, 8648, 8639
15379, 8637, 8632, 8638
15380, 8638, 8632, 8643
15381, 8610, 8638, 8622
15382, 8654, 8644, 8646
15383, 8634, 8651, 8639
15384, 8654, 8663, 8689
15385, 8803, 8616, 8802
15386, 8639, 8651, 8644
15387, 8650, 8641, 8644
15388, 8634, 8652, 8651
15389, 8652, 8672, 8662
15390, 8655, 8688, 8647
15391, 8636, 8649, 8561
15392, 8639, 8644, 8641
15393, 8706, 8646, 8644
15394, 8664, 8673, 8674
15395, 8649, 8648, 8641
15396, 8706, 8644, 8642
15397, 8688, 8689, 8663
15398, 8667, 8674, 8690
15399, 8661, 8663, 8654
15400, 8648, 8623, 8635
15401, 8636, 8648, 8649
15402, 8643, 8634, 8622
15403, 8641, 8650, 8649
15404, 8652, 8634, 8643
15405, 8644, 8651, 8642
15406, 8617, 8722, 8799
15407, 8669, 8637, 8800
15408, 8713, 8727, 8711
15409, 8664, 8700, 8673
15410, 8646, 8661, 8654
15411, 8647, 8690, 8666
15412, 8683, 8643, 8632
15413, 8561, 8724, 8655
15414, 8637, 8669, 8632
15415, 8695, 8708, 8665
15416, 8670, 8684, 8671
15417, 8590, 8722, 8617
15418, 8618, 8685, 8608
15419, 8653, 8671, 8684
15420, 8659, 8803, 8684
15421, 8683, 8672, 8652
15422, 8703, 8662, 8701
15423, 8717, 8701, 8704
15424, 8699, 8668, 8664
15425, 8698, 8660, 8670
15426, 8707, 8702, 8562
15427, 8715, 8663, 8661
15428, 8688, 8655, 8689
15429, 8714, 8674, 8667
15430, 8692, 8653, 8615
15431, 8727, 8665, 8711
15432, 8714, 8715, 8694
15433, 8751, 8770, 8752
15434, 8688, 8690, 8647
15435, 8739, 8737, 8741
15436, 8667, 8690, 8688
15437, 8694, 8716, 8727
15438, 8690, 8674, 8691
15439, 8671, 8692, 8562
15440, 8672, 8659, 8670
15441, 8615, 8653, 8803
15442, 8670, 8660, 8672
15443, 8708, 8711, 8665
15444, 8662, 8642, 8652
15445, 8672, 8660, 8662
15446, 8643, 8683, 8652
15447, 8733, 8734, 8772
15448, 8770, 8673, 8700
15449, 8695, 8661, 8645
15450, 8691, 8640, 8666
15451, 8723, 8658, 8582
15452, 8682, 8720, 8719
15453, 8584, 8676, 8601
15454, 8719, 8676, 8754
15455, 8598, 8677, 8586
15456, 8678, 8677, 8583
15457, 8678, 8583, 8605
15458, 8588, 8585, 8681
15459, 8585, 6870, 8679
15460, 8685, 8681, 8608
15461, 8677, 8680, 8679
15462, 8585, 8680, 8681
15463, 8608, 8681, 8680
15464, 8604, 8720, 8590
15465, 8720, 8606, 8578
15466, 8803, 8659, 8616
15467, 8672, 8683, 8659
15468, 8619, 8685, 8626
15469, 8629, 8686, 8628
15470, 8701, 8660, 8698
15471, 8630, 8633, 8687
15472, 8625, 8686, 8687
15473, 8687, 8686, 8630
15474, 8663, 8667, 8688
15475, 8724, 8689, 8655
15476, 8654, 8689, 8650
15477, 8691, 8674, 8673
15478, 8640, 8691, 8673
15479, 8666, 8690, 8691
15480, 8653, 8692, 8671
15481, 8645, 8703, 8705
15482, 8664, 8714, 8699
15483, 8667, 8715, 8714
15484, 8693, 8703, 8701
15485, 8716, 8695, 8665
15486, 8749, 8668, 8729
15487, 8701, 8662, 8660
15488, 8698, 8702, 8704
15489, 8698, 8704, 8701
15490, 8671, 8698, 8670
15491, 8705, 8708, 8695
15492, 8714, 8664, 8674
15493, 8726, 8699, 8694
15494, 8748, 8664, 8668
15495, 8735, 8732, 8739
15496, 8705, 8703, 8693
15497, 8753, 8697, 8709
15498, 8709, 8708, 8693
15499, 8645, 8706, 8703
15500, 8703, 8706, 8662
15501, 8562, 8702, 8671
15502, 8754, 8676, 8718
15503, 8705, 8693, 8708
15504, 8645, 8705, 8695
15505, 8646, 8706, 8645
15506, 8662, 8706, 8642
15507, 8596, 8718, 8584
15508, 8702, 8698, 8671
15509, 8693, 8717, 8709
15510, 8712, 8711, 8708
15511, 8717, 8704, 8707
15512, 8731, 8804, 8657
15513, 8710, 8657, 8804
15514, 8668, 8699, 8726
15515, 8712, 8708, 8709
15516, 8805, 8711, 8712
15517, 8697, 8712, 8709
15518, 8710, 8806, 8697
15519, 8736, 8804, 8731
15520, 8729, 8732, 8749
15521, 8663, 8715, 8667
15522, 8699, 8714, 8694
15523, 8661, 8695, 8715
15524, 8715, 8695, 8716
15525, 8716, 8665, 8727
15526, 8715, 8716, 8694
15527, 8701, 8717, 8693
15528, 8702, 8707, 8704
15529, 8721, 8719, 8754
15530, 8753, 8717, 8707
15531, 8590, 8720, 8682
15532, 8606, 8720, 8604
15533, 8582, 8721, 8675
15534, 8682, 8719, 8721
15535, 8682, 8721, 8658
15536, 8723, 8801, 8658
15537, 8658, 8721, 8582
15538, 8722, 8801, 8799
15539, 8649, 8724, 8561
15540, 8689, 8724, 8650
15541, 8726, 8729, 8668
15542, 8774, 8773, 8765
15543, 8713, 8726, 8727
15544, 8729, 8726, 8730
15545, 8727, 8726, 8694
15546, 8730, 8728, 8729
15547, 8744, 8735, 8741
15548, 8730, 8726, 8713
15549, 8732, 8729, 8728
15550, 8713, 8731, 8730
15551, 8657, 8742, 8755
15552, 8736, 8731, 8713
15553, 8735, 8743, 8750
15554, 8737, 8739, 8740
15555, 8739, 8741, 8735
15556, 8657, 8755, 8731
15557, 8751, 8768, 8769
15558, 8739, 8732, 8728
15559, 8730, 8731, 8738
15560, 8756, 8762, 8744
15561, 8759, 8766, 8751
15562, 8711, 8736, 8713
15563, 8804, 8805, 8710
15564, 8745, 8746, 8733
15565, 8756, 8774, 8757
15566, 8746, 8745, 8737
15567, 8740, 8739, 8728
15568, 8776, 8759, 8760
15569, 8728, 8730, 8738
15570, 8733, 8746, 8742
15571, 8733, 8772, 8745
15572, 8750, 8747, 8749
15573, 8740, 8746, 8737
15574, 8755, 8738, 8731
15575, 8744, 8743, 8735
15576, 8760, 8743, 8761
15577, 8737, 8767, 8741
15578, 8700, 8664, 8748
15579, 8755, 8746, 8740
15580, 8756, 8764, 8762
15581, 8740, 8738, 8755
15582, 8728, 8738, 8740
15583, 8748, 8747, 8752
15584, 8749, 8748, 8668
15585, 8750, 8749, 8732
15586, 8748, 8749, 8747
15587, 8735, 8750, 8732
15588, 8759, 8750, 8743
15589, 8748, 8752, 8700
15590, 8747, 8750, 8759
15591, 8759, 8752, 8747
15592, 8770, 8751, 8769
15593, 8717, 8753, 8709
15594, 8707, 8697, 8753
15595, 8575, 8754, 8718
15596, 8721, 8754, 8675
15597, 8755, 8742, 8746
15598, 8773, 961, 8765
15599, 8758, 8779, 8780
15600, 8737, 8745, 8767
15601, 8767, 8744, 8741
15602, 8766, 8763, 8807
15603, 8759, 8751, 8752
15604, 8743, 8760, 8759
15605, 8778, 8775, 8777
15606, 8761, 8743, 8744
15607, 8776, 8778, 8777
15608, 8756, 8757, 8764
15609, 8775, 8758, 8777
15610, 8764, 8725, 8762
15611, 8774, 8772, 8773
15612, 8766, 8807, 8768
15613, 8744, 8762, 8761
15614, 8774, 8756, 8767
15615, 8776, 8766, 8759
15616, 8777, 8758, 8780
15617, 8772, 8767, 8745
15618, 8768, 8807, 8696
15619, 8673, 8770, 8640
15620, 8751, 8766, 8768
15621, 8752, 8770, 8700
15622, 8768, 8696, 8769
15623, 8640, 8770, 8769
15624, 8807, 8780, 8781
15625, 8767, 8756, 8744
15626, 8772, 8734, 8773
15627, 8734, 961, 8773
15628, 8774, 8767, 8772
15629, 8757, 8774, 8765
15630, 8762, 8725, 8778
15631, 8776, 8777, 8763
15632, 8776, 8763, 8766
15633, 8761, 8776, 8760
15634, 8778, 8776, 8761
15635, 8762, 8778, 8761
15636, 8725, 8775, 8778
15637, 8771, 8781, 962
15638, 8780, 8763, 8777
15639, 8781, 8780, 8779
15640, 962, 8781, 8779
15641, 8781, 8771, 8807
15642, 8812, 7944, 8810
15643, 8821, 8813, 8819
15644, 7879, 7939, 8817
15645, 7932, 8784, 7947
15646, 8818, 8784, 8956
15647, 8221, 8787, 8088
15648, 8175, 8181, 8785
15649, 8789, 8788, 8150
15650, 8221, 8175, 8787
15651, 8785, 8787, 8175
15652, 8150, 8152, 8789
15653, 8786, 8788, 8136
15654, 8142, 8789, 8152
15655, 8136, 8789, 8143
15656, 8168, 8790, 8183
15657, 8794, 8086, 8795
15658, 8792, 8795, 8348
15659, 8793, 8332, 8336
15660, 8794, 8795, 8793
15661, 8338, 8388, 8791
15662, 8793, 8791, 8794
15663, 8791, 8388, 8331
15664, 8348, 8795, 8086
15665, 8793, 8795, 8792
15666, 8337, 8334, 8796
15667, 8796, 8797, 8337
15668, 8330, 8341, 8797
15669, 8085, 8330, 8798
15670, 8796, 8798, 8330
15671, 8801, 8723, 8802
15672, 8617, 8799, 8800
15673, 8616, 8800, 8799
15674, 8658, 8801, 8722
15675, 8802, 8723, 8656
15676, 8802, 8656, 8803
15677, 8799, 8801, 8802
15678, 8615, 8803, 8656
15679, 8684, 8803, 8653
15680, 8805, 8804, 8736
15681, 8711, 8805, 8736
15682, 8712, 8697, 8806
15683, 8710, 8805, 8806
15684, 8712, 8806, 8805
15685, 8807, 8763, 8780
15686, 8696, 8807, 8771
15687, 8826, 8828, 7933
15688, 8809, 7934, 8812
15689, 7898, 8809, 7861
15690, 8836, 8810, 8808
15691, 8782, 8810, 7943
15692, 7933, 8811, 7940
15693, 8808, 7944, 8811
15694, 8809, 8812, 8782
15695, 7944, 8812, 7934
15696, 7940, 7950, 8815
15697, 8840, 8857, 8958
15698, 8819, 8814, 8818
15699, 8813, 8816, 8815
15700, 7879, 8815, 7950
15701, 8813, 8815, 8814
15702, 8824, 8816, 8813
15703, 7933, 7940, 8816
15704, 7937, 8817, 7939
15705, 8815, 8817, 8814
15706, 8784, 7932, 8957
15707, 8817, 8818, 8814
15708, 8823, 8845, 8822
15709, 8813, 8814, 8819
15710, 8857, 8821, 8819
15711, 8828, 8837, 8827
15712, 8818, 8956, 8819
15713, 8847, 8844, 8855
15714, 8852, 8853, 8860
15715, 8839, 8829, 8826
15716, 8832, 8838, 8844
15717, 8824, 8823, 8822
15718, 8833, 8837, 8829
15719, 8824, 7933, 8816
15720, 8826, 8824, 8839
15721, 8835, 7863, 8834
15722, 8839, 8824, 8822
15723, 8855, 8844, 8842
15724, 8833, 8888, 8837
15725, 8939, 8808, 8811
15726, 8856, 8823, 8821
15727, 8828, 8827, 8939
15728, 8843, 8861, 8847
15729, 8840, 7875, 8858
15730, 8833, 8829, 8859
15731, 8835, 8831, 7863
15732, 8839, 8859, 8829
15733, 8838, 8845, 8842
15734, 8828, 8826, 8829
15735, 8889, 8897, 8888
15736, 8844, 8852, 8832
15737, 8863, 8820, 8865
15738, 8827, 8837, 8831
15739, 8836, 8827, 8835
15740, 8836, 8835, 8834
15741, 7943, 8836, 8834
15742, 8836, 8808, 8939
15743, 8855, 8840, 8858
15744, 8862, 8820, 8848
15745, 8831, 8835, 8827
15746, 8842, 8844, 8838
15747, 8839, 8822, 8838
15748, 8820, 8863, 8848
15749, 8829, 8837, 8828
15750, 8855, 8830, 8854
15751, 8845, 8823, 8856
15752, 8853, 8877, 8881
15753, 8838, 8832, 8859
15754, 8843, 8847, 8854
15755, 8856, 8842, 8845
15756, 8866, 8877, 8867
15757, 8845, 8838, 8822
15758, 8841, 8846, 8897
15759, 8940, 8888, 8897
15760, 8846, 8831, 8940
15761, 8851, 8848, 8850
15762, 8844, 8847, 8851
15763, 8847, 8861, 8851
15764, 8861, 8849, 8862
15765, 8851, 8861, 8862
15766, 8860, 8833, 8859
15767, 8848, 8869, 8868
15768, 8851, 8850, 8852
15769, 8851, 8852, 8844
15770, 8852, 8850, 8867
15771, 8872, 8866, 8868
15772, 8860, 8881, 8833
15773, 8840, 8855, 8842
15774, 8830, 8843, 8854
15775, 8847, 8855, 8854
15776, 8857, 8856, 8821
15777, 8842, 8856, 8840
15778, 8958, 8956, 8783
15779, 8856, 8857, 8840
15780, 7875, 8830, 8858
15781, 8855, 8858, 8830
15782, 8838, 8859, 8839
15783, 8860, 8859, 8832
15784, 8852, 8860, 8832
15785, 8860, 8853, 8881
15786, 8843, 8849, 8861
15787, 8820, 8862, 8849
15788, 8851, 8862, 8848
15789, 8902, 8879, 8911
15790, 8880, 8879, 8902
15791, 8932, 8931, 8930
15792, 8867, 8877, 8853
15793, 8934, 8938, 8923
15794, 8871, 8864, 8872
15795, 8866, 8867, 8868
15796, 8878, 8877, 8866
15797, 8852, 8867, 8853
15798, 8868, 8867, 8850
15799, 8850, 8848, 8868
15800, 8882, 8871, 8869
15801, 8820, 8874, 8865
15802, 8872, 8869, 8871
15803, 8906, 8876, 8883
15804, 8865, 8874, 8875
15805, 8863, 8869, 8848
15806, 8882, 8863, 8875
15807, 8866, 8872, 8864
15808, 8868, 8869, 8872
15809, 8873, 8877, 8878
15810, 8889, 8888, 8881
15811, 8874, 8883, 8875
15812, 8875, 8863, 8865
15813, 8892, 8871, 8882
15814, 8903, 8893, 8885
15815, 8878, 8866, 8864
15816, 8873, 8900, 8877
15817, 8864, 8880, 8878
15818, 8902, 8878, 8880
15819, 8909, 8890, 8904
15820, 8892, 8875, 8876
15821, 8895, 8864, 8871
15822, 8937, 8905, 8909
15823, 8901, 8903, 8921
15824, 8898, 8897, 8889
15825, 8863, 8882, 8869
15826, 8892, 8882, 8875
15827, 8874, 8870, 8883
15828, 8890, 8909, 8905
15829, 8904, 8890, 8892
15830, 8871, 8890, 8895
15831, 8906, 8883, 8870
15832, 8891, 8931, 8932
15833, 8893, 8903, 8901
15834, 8892, 8876, 8904
15835, 8887, 8898, 8921
15836, 8841, 8898, 8887
15837, 8833, 8881, 8888
15838, 8881, 8877, 8900
15839, 8896, 8920, 8919
15840, 8841, 8897, 8898
15841, 8895, 8907, 8879
15842, 8898, 8889, 8899
15843, 8907, 8905, 8910
15844, 8876, 8875, 8883
15845, 8918, 8924, 8896
15846, 8927, 8922, 8914
15847, 8871, 8892, 8890
15848, 8907, 8895, 8890
15849, 8895, 8879, 8880
15850, 8864, 8895, 8880
15851, 8890, 8905, 8907
15852, 8929, 8927, 8915
15853, 8917, 8924, 8908
15854, 8888, 8940, 8837
15855, 8846, 7863, 8831
15856, 8940, 8831, 8837
15857, 8881, 8900, 8889
15858, 8901, 8899, 8873
15859, 8898, 8899, 8921
15860, 8873, 8899, 8900
15861, 8889, 8900, 8899
15862, 8873, 8878, 8902
15863, 8893, 8902, 8908
15864, 8910, 8917, 8911
15865, 8902, 8901, 8873
15866, 8885, 8825, 8903
15867, 8825, 8887, 8921
15868, 8923, 8876, 8906
15869, 8902, 8893, 8901
15870, 8936, 8894, 8925
15871, 8910, 8911, 8907
15872, 8923, 8904, 8876
15873, 8886, 8932, 8930
15874, 8905, 8912, 8910
15875, 8933, 8870, 8891
15876, 8916, 8896, 8924
15877, 8913, 8916, 8917
15878, 8912, 8929, 8913
15879, 8902, 8911, 8908
15880, 8907, 8911, 8879
15881, 8905, 8884, 8912
15882, 8925, 8922, 8929
15883, 8913, 8915, 8916
15884, 8912, 8913, 8910
15885, 8916, 8915, 8920
15886, 8908, 8911, 8917
15887, 8929, 8912, 8884
15888, 8915, 8927, 8928
15889, 8920, 8896, 8916
15890, 8913, 8917, 8910
15891, 8924, 8917, 8916
15892, 8825, 8885, 8918
15893, 8908, 8885, 8893
15894, 8927, 8914, 8928
15895, 8918, 8885, 8924
15896, 8928, 8920, 8915
15897, 8901, 8921, 8899
15898, 8825, 8921, 8903
15899, 8937, 8936, 8884
15900, 8923, 8938, 8904
15901, 8906, 8870, 8933
15902, 8894, 8914, 8922
15903, 8908, 8924, 8885
15904, 8937, 8926, 8936
15905, 8894, 8922, 8925
15906, 8914, 1288, 8928
15907, 8884, 8936, 8925
15908, 1288, 8919, 8928
15909, 8929, 8915, 8913
15910, 8928, 8919, 8920
15911, 8925, 8929, 8884
15912, 8927, 8929, 8922
15913, 8926, 8937, 8938
15914, 8886, 8926, 8934
15915, 8933, 8923, 8906
15916, 8931, 1287, 8930
15917, 8891, 8932, 8933
15918, 8933, 8932, 8934
15919, 8933, 8934, 8923
15920, 8886, 8934, 8932
15921, 8926, 8935, 8936
15922, 8926, 8886, 8935
15923, 8894, 8936, 8935
15924, 8905, 8937, 8884
15925, 8909, 8904, 8938
15926, 8926, 8938, 8934
15927, 8909, 8938, 8937
15928, 8828, 8939, 7933
15929, 8836, 8939, 8827
15930, 8846, 8940, 8897
15931, 8941, 1701, 1665
15932, 2119, 8941, 2060
15933, 6246, 8942, 8947
15934, 8945, 3310, 8944
15935, 6450, 8943, 6448
15936, 8945, 8943, 8946
15937, 8943, 8944, 5737
15938, 8943, 6450, 8946
15939, 8942, 3310, 8945
15940, 6450, 6254, 8946
15941, 6254, 6362, 8948
15942, 8942, 8946, 8947
15943, 8948, 8946, 6254
15944, 6246, 8948, 6362
15945, 8946, 8948, 8947
15946, 6270, 8949, 8954
15947, 8952, 3295, 8951
15948, 6466, 8950, 6464
15949, 8952, 8950, 8953
15950, 8950, 8951, 5748
15951, 8950, 6466, 8953
15952, 8949, 3295, 8952
15953, 6466, 6272, 8953
15954, 6272, 6396, 8955
15955, 8949, 8953, 8954
15956, 8955, 8953, 6272
15957, 6270, 8955, 6396
15958, 8953, 8955, 8954
15959, 8857, 8819, 8956
15960, 7932, 8783, 8957
15961, 8956, 8957, 8783
15962, 8956, 8958, 8857
15963, 8783, 7875, 8958
*NSET, NSET=LEFT
961, 962, 8725, 8757, 8758, 8764, 8765, 8775, 8779
*NSET, NSET=RIGHT
1287, 1288, 8886, 8894, 8914, 8930, 8935
*NSET, NSET=TOP
798, 799, 8468, 8485, 8487, 8491, 8495, 8496, 8531
*NSET, NSET=BOTTOM
1124, 1125, 7754, 7756, 7774, 7778, 7783, 7790, 7795
*ELSET, ELSET=FULLMESH
1, 2, 3, 4, 5, 6, 7, 8, 9, 10, 11, 12, 13, 14, 15, 16
17, 18, 19, 20, 21, 22, 23, 24, 25, 26, 27, 28, 29, 30, 31, 32
33, 34, 35, 36, 37, 38, 39, 40, 41, 42, 43, 44, 45, 46, 47, 48
49, 50, 51, 52, 53, 54, 55, 56, 57, 58, 59, 60, 61, 62, 63, 64
65, 66, 67, 68, 69, 70, 71, 72, 73, 74, 75, 76, 77, 78, 79, 80
81, 82, 83, 84, 85, 86, 87, 88, 89, 90, 91, 92, 93, 94, 95, 96
97, 98, 99, 100, 101, 102, 103, 104, 105, 106, 107, 108, 109, 110, 111, 112
113, 114, 115, 116, 117, 118, 119, 120, 121, 122, 123, 124, 125, 126, 127, 128
129, 130, 131, 132, 133, 134, 135, 136, 137, 138, 139, 140, 141, 142, 143, 144
145, 146, 147, 148, 149, 150, 151, 152, 153, 154, 155, 156, 157, 158, 159, 160
161, 162, 163, 164, 165, 166, 167, 168, 169, 170, 171, 172, 173, 174, 175, 176
177, 178, 179, 180, 181, 182, 183, 184, 185, 186, 187, 188, 189, 190, 191, 192
193, 194, 195, 196, 197, 198, 199, 200, 201, 202, 203, 204, 205, 206, 207, 208
209, 210, 211, 212, 213, 214, 215, 216, 217, 218, 219, 220, 221, 222, 223, 224
225, 226, 227, 228, 229, 230, 231, 232, 233, 234, 235, 236, 237, 238, 239, 240
241, 242, 243, 244, 245, 246, 247, 248, 249, 250, 251, 252, 253, 254, 255, 256
257, 258, 259, 260, 261, 262, 263, 264, 265, 266, 267, 268, 269, 270, 271, 272
273, 274, 275, 276, 277, 278, 279, 280, 281, 282, 283, 284, 285, 286, 287, 288
289, 290, 291, 292, 293, 294, 295, 296, 297, 298, 299, 300, 301, 302, 303, 304
305, 306, 307, 308, 309, 310, 311, 312, 313, 314, 315, 316, 317, 318, 319, 320
321, 322, 323, 324, 325, 326, 327, 328, 329, 330, 331, 332, 333, 334, 335, 336
337, 338, 339, 340, 341, 342, 343, 344, 345, 346, 347, 348, 349, 350, 351, 352
353, 354, 355, 356, 357, 358, 359, 360, 361, 362, 363, 364, 365, 366, 367, 368
369, 370, 371, 372, 373, 374, 375, 376, 377, 378, 379, 380, 381, 382, 383, 384
385, 386, 387, 388, 389, 390, 391, 392, 393, 394, 395, 396, 397, 398, 399, 400
401, 402, 403, 404, 405, 406, 407, 408, 409, 410, 411, 412, 413, 414, 415, 416
417, 418, 419, 420, 421, 422, 423, 424, 425, 426, 427, 428, 429, 430, 431, 432
433, 434, 435, 436, 437, 438, 439, 440, 441, 442, 443, 444, 445, 446, 447, 448
449, 450, 451, 452, 453, 454, 455, 456, 457, 458, 459, 460, 461, 462, 463, 464
465, 466, 467, 468, 469, 470, 471, 472, 473, 474, 475, 476, 477, 478, 479, 480
481, 482, 483, 484, 485, 486, 487, 488, 489, 490, 491, 492, 493, 494, 495, 496
497, 498, 499, 500, 501, 502, 503, 504, 505, 506, 507, 508, 509, 510, 511, 512
513, 514, 515, 516, 517, 518, 519, 520, 521, 522, 523, 524, 525, 526, 527, 528
529, 530, 531, 532, 533, 534, 535, 536, 537, 538, 539, 540, 541, 542, 543, 544
545, 546, 547, 548, 549, 550, 551, 552, 553, 554, 555, 556, 557, 558, 559, 560
561, 562, 563, 564, 565, 566, 567, 568, 569, 570, 571, 572, 573, 574, 575, 576
577, 578, 579, 580, 581, 582, 583, 584, 585, 586, 587, 588, 589, 590, 591, 592
593, 594, 595, 596, 597, 598, 599, 600, 601, 602, 603, 604, 605, 606, 607, 608
609, 610, 611, 612, 613, 614, 615, 616, 617, 618, 619, 620, 621, 622, 623, 624
625, 626, 627, 628, 629, 630, 631, 632, 633, 634, 635, 636, 637, 638, 639, 640
641, 642, 643, 644, 645, 646, 647, 648, 649, 650, 651, 652, 653, 654, 655, 656
657, 658, 659, 660, 661, 662, 663, 664, 665, 666, 667, 668, 669, 670, 671, 672
673, 674, 675, 676, 677, 678, 679, 680, 681, 682, 683, 684, 685, 686, 687, 688
689, 690, 691, 692, 693, 694, 695, 696, 697, 698, 699, 700, 701, 702, 703, 704
705, 706, 707, 708, 709, 710, 711, 712, 713, 714, 715, 716, 717, 718, 719, 720
721, 722, 723, 724, 725, 726, 727, 728, 729, 730, 731, 732, 733, 734, 735, 736
737, 738, 739, 740, 741, 742, 743, 744, 745, 746, 747, 748, 749, 750, 751, 752
753, 754, 755, 756, 757, 758, 759, 760, 761, 762, 763, 764, 765, 766, 767, 768
769, 770, 771, 772, 773, 774, 775, 776, 777, 778, 779, 780, 781, 782, 783, 784
785, 786, 787, 788, 789, 790, 791, 792, 793, 794, 795, 796, 797, 798, 799, 800
801, 802, 803, 804, 805, 806, 807, 808, 809, 810, 811, 812, 813, 814, 815, 816
817, 818, 819, 820, 821, 822, 823, 824, 825, 826, 827, 828, 829, 830, 831, 832
833, 834, 835, 836, 837, 838, 839, 840, 841, 842, 843, 844, 845, 846, 847, 848
849, 850, 851, 852, 853, 854, 855, 856, 857, 858, 859, 860, 861, 862, 863, 864
865, 866, 867, 868, 869, 870, 871, 872, 873, 874, 875, 876, 877, 878, 879, 880
881, 882, 883, 884, 885, 886, 887, 888, 889, 890, 891, 892, 893, 894, 895, 896
897, 898, 899, 900, 901, 902, 903, 904, 905, 906, 907, 908, 909, 910, 911, 912
913, 914, 915, 916, 917, 918, 919, 920, 921, 922, 923, 924, 925, 926, 927, 928
929, 930, 931, 932, 933, 934, 935, 936, 937, 938, 939, 940, 941, 942, 943, 944
945, 946, 947, 948, 949, 950, 951, 952, 953, 954, 955, 956, 957, 958, 959, 960
961, 962, 963, 964, 965, 966, 967, 968, 969, 970, 971, 972, 973, 974, 975, 976
977, 978, 979, 980, 981, 982, 983, 984, 985, 986, 987, 988, 989, 990, 991, 992
993, 994, 995, 996, 997, 998, 999, 1000, 1001, 1002, 1003, 1004, 1005, 1006, 1007, 1008
1009, 1010, 1011, 1012, 1013, 1014, 1015, 1016, 1017, 1018, 1019, 1020, 1021, 1022, 1023, 1024
1025, 1026, 1027, 1028, 1029, 1030, 1031, 1032, 1033, 1034, 1035, 1036, 1037, 1038, 1039, 1040
1041, 1042, 1043, 1044, 1045, 1046, 1047, 1048, 1049, 1050, 1051, 1052, 1053, 1054, 1055, 1056
1057, 1058, 1059, 1060, 1061, 1062, 1063, 1064, 1065, 1066, 1067, 1068, 1069, 1070, 1071, 1072
1073, 1074, 1075, 1076, 1077, 1078, 1079, 1080, 1081, 1082, 1083, 1084, 1085, 1086, 1087, 1088
1089, 1090, 1091, 1092, 1093, 1094, 1095, 1096, 1097, 1098, 1099, 1100, 1101, 1102, 1103, 1104
1105, 1106, 1107, 1108, 1109, 1110, 1111, 1112, 1113, 1114, 1115, 1116, 1117, 1118, 1119, 1120
1121, 1122, 1123, 1124, 1125, 1126, 1127, 1128, 1129, 1130, 1131, 1132, 1133, 1134, 1135, 1136
1137, 1138, 1139, 1140, 1141, 1142, 1143, 1144, 1145, 1146, 1147, 1148, 1149, 1150, 1151, 1152
1153, 1154, 1155, 1156, 1157, 1158, 1159, 1160, 1161, 1162, 1163, 1164, 1165, 1166, 1167, 1168
1169, 1170, 1171, 1172, 1173, 1174, 1175, 1176, 1177, 1178, 1179, 1180, 1181, 1182, 1183, 1184
1185, 1186, 1187, 1188, 1189, 1190, 1191, 1192, 1193, 1194, 1195, 1196, 1197, 1198, 1199, 1200
1201, 1202, 1203, 1204, 1205, 1206, 1207, 1208, 1209, 1210, 1211, 1212, 1213, 1214, 1215, 1216
1217, 1218, 1219, 1220, 1221, 1222, 1223, 1224, 1225, 1226, 1227, 1228, 1229, 1230, 1231, 1232
1233, 1234, 1235, 1236, 1237, 1238, 1239, 1240, 1241, 1242, 1243, 1244, 1245, 1246, 1247, 1248
1249, 1250, 1251, 1252, 1253, 1254, 1255, 1256, 1257, 1258, 1259, 1260, 1261, 1262, 1263, 1264
1265, 1266, 1267, 1268, 1269, 1270, 1271, 1272, 1273, 1274, 1275, 1276, 1277, 1278, 1279, 1280
1281, 1282, 1283, 1284, 1285, 1286, 1287, 1288, 1289, 1290, 1291, 1292, 1293, 1294, 1295, 1296
1297, 1298, 1299, 1300, 1301, 1302, 1303, 1304, 1305, 1306, 1307, 1308, 1309, 1310, 1311, 1312
1313, 1314, 1315, 1316, 1317, 1318, 1319, 1320, 1321, 1322, 1323, 1324, 1325, 1326, 1327, 1328
1329, 1330, 1331, 1332, 1333, 1334, 1335, 1336, 1337, 1338, 1339, 1340, 1341, 1342, 1343, 1344
1345, 1346, 1347, 1348, 1349, 1350, 1351, 1352, 1353, 1354, 1355, 1356, 1357, 1358, 1359, 1360
1361, 1362, 1363, 1364, 1365, 1366, 1367, 1368, 1369, 1370, 1371, 1372, 1373, 1374, 1375, 1376
1377, 1378, 1379, 1380, 1381, 1382, 1383, 1384, 1385, 1386, 1387, 1388, 1389, 1390, 1391, 1392
1393, 1394, 1395, 1396, 1397, 1398, 1399, 1400, 1401, 1402, 1403, 1404, 1405, 1406, 1407, 1408
1409, 1410, 1411, 1412, 1413, 1414, 1415, 1416, 1417, 1418, 1419, 1420, 1421, 1422, 1423, 1424
1425, 1426, 1427, 1428, 1429, 1430, 1431, 1432, 1433, 1434, 1435, 1436, 1437, 1438, 1439, 1440
1441, 1442, 1443, 1444, 1445, 1446, 1447, 1448, 1449, 1450, 1451, 1452, 1453, 1454, 1455, 1456
1457, 1458, 1459, 1460, 1461, 1462, 1463, 1464, 1465, 1466, 1467, 1468, 1469, 1470, 1471, 1472
1473, 1474, 1475, 1476, 1477, 1478, 1479, 1480, 1481, 1482, 1483, 1484, 1485, 1486, 1487, 1488
1489, 1490, 1491, 1492, 1493, 1494, 1495, 1496, 1497, 1498, 1499, 1500, 1501, 1502, 1503, 1504
1505, 1506, 1507, 1508, 1509, 1510, 1511, 1512, 1513, 1514, 1515, 1516, 1517, 1518, 1519, 1520
1521, 1522, 1523, 1524, 1525, 1526, 1527, 1528, 1529, 1530, 1531, 1532, 1533, 1534, 1535, 1536
1537, 1538, 1539, 1540, 1541, 1542, 1543, 1544, 1545, 1546, 1547, 1548, 1549, 1550, 1551, 1552
1553, 1554, 1555, 1556, 1557, 1558, 1559, 1560, 1561, 1562, 1563, 1564, 1565, 1566, 1567, 1568
1569, 1570, 1571, 1572, 1573, 1574, 1575, 1576, 1577, 1578, 1579, 1580, 1581, 1582, 1583, 1584
1585, 1586, 1587, 1588, 1589, 1590, 1591, 1592, 1593, 1594, 1595, 1596, 1597, 1598, 1599, 1600
1601, 1602, 1603, 1604, 1605, 1606, 1607, 1608, 1609, 1610, 1611, 1612, 1613, 1614, 1615, 1616
1617, 1618, 1619, 1620, 1621, 1622, 1623, 1624, 1625, 1626, 1627, 1628, 1629, 1630, 1631, 1632
1633, 1634, 1635, 1636, 1637, 1638, 1639, 1640, 1641, 1642, 1643, 1644, 1645, 1646, 1647, 1648
1649, 1650, 1651, 1652, 1653, 1654, 1655, 1656, 1657, 1658, 1659, 1660, 1661, 1662, 1663, 1664
1665, 1666, 1667, 1668, 1669, 1670, 1671, 1672, 1673, 1674, 1675, 1676, 1677, 1678, 1679, 1680
1681, 1682, 1683, 1684, 1685, 1686, 1687, 1688, 1689, 1690, 1691, 1692, 1693, 1694, 1695, 1696
1697, 1698, 1699, 1700, 1701, 1702, 1703, 1704, 1705, 1706, 1707, 1708, 1709, 1710, 1711, 1712
1713, 1714, 1715, 1716, 1717, 1718, 1719, 1720, 1721, 1722, 1723, 1724, 1725, 1726, 1727, 1728
1729, 1730, 1731, 1732, 1733, 1734, 1735, 1736, 1737, 1738, 1739, 1740, 1741, 1742, 1743, 1744
1745, 1746, 1747, 1748, 1749, 1750, 1751, 1752, 1753, 1754, 1755, 1756, 1757, 1758, 1759, 1760
1761, 1762, 1763, 1764, 1765, 1766, 1767, 1768, 1769, 1770, 1771, 1772, 1773, 1774, 1775, 1776
1777, 1778, 1779, 1780, 1781, 1782, 1783, 1784, 1785, 1786, 1787, 1788, 1789, 1790, 1791, 1792
1793, 1794, 1795, 1796, 1797, 1798, 1799, 1800, 1801, 1802, 1803, 1804, 1805, 1806, 1807, 1808
1809, 1810, 1811, 1812, 1813, 1814, 1815, 1816, 1817, 1818, 1819, 1820, 1821, 1822, 1823, 1824
1825, 1826, 1827, 1828, 1829, 1830, 1831, 1832, 1833, 1834, 1835, 1836, 1837, 1838, 1839, 1840
1841, 1842, 1843, 1844, 1845, 1846, 1847, 1848, 1849, 1850, 1851, 1852, 1853, 1854, 1855, 1856
1857, 1858, 1859, 1860, 1861, 1862, 1863, 1864, 1865, 1866, 1867, 1868, 1869, 1870, 1871, 1872
1873, 1874, 1875, 1876, 1877, 1878, 1879, 1880, 1881, 1882, 1883, 1884, 1885, 1886, 1887, 1888
1889, 1890, 1891, 1892, 1893, 1894, 1895, 1896, 1897, 1898, 1899, 1900, 1901, 1902, 1903, 1904
1905, 1906, 1907, 1908, 1909, 1910, 1911, 1912, 1913, 1914, 1915, 1916, 1917, 1918, 1919, 1920
1921, 1922, 1923, 1924, 1925, 1926, 1927, 1928, 1929, 1930, 1931, 1932, 1933, 1934, 1935, 1936
1937, 1938, 1939, 1940, 1941, 1942, 1943, 1944, 1945, 1946, 1947, 1948, 1949, 1950, 1951, 1952
1953, 1954, 1955, 1956, 1957, 1958, 1959, 1960, 1961, 1962, 1963, 1964, 1965, 1966, 1967, 1968
1969, 1970, 1971, 1972, 1973, 1974, 1975, 1976, 1977, 1978, 1979, 1980, 1981, 1982, 1983, 1984
1985, 1986, 1987, 1988, 1989, 1990, 1991, 1992, 1993, 1994, 1995, 1996, 1997, 1998, 1999, 2000
2001, 2002, 2003, 2004, 2005, 2006, 2007, 2008, 2009, 2010, 2011, 2012, 2013, 2014, 2015, 2016
2017, 2018, 2019, 2020, 2021, 2022, 2023, 2024, 2025, 2026, 2027, 2028, 2029, 2030, 2031, 2032
2033, 2034, 2035, 2036, 2037, 2038, 2039, 2040, 2041, 2042, 2043, 2044, 2045, 2046, 2047, 2048
2049, 2050, 2051, 2052, 2053, 2054, 2055, 2056, 2057, 2058, 2059, 2060, 2061, 2062, 2063, 2064
2065, 2066, 2067, 2068, 2069, 2070, 2071, 2072, 2073, 2074, 2075, 2076, 2077, 2078, 2079, 2080
2081, 2082, 2083, 2084, 2085, 2086, 2087, 2088, 2089, 2090, 2091, 2092, 2093, 2094, 2095, 2096
2097, 2098, 2099, 2100, 2101, 2102, 2103, 2104, 2105, 2106, 2107, 2108, 2109, 2110, 2111, 2112
2113, 2114, 2115, 2116, 2117, 2118, 2119, 2120, 2121, 2122, 2123, 2124, 2125, 2126, 2127, 2128
2129, 2130, 2131, 2132, 2133, 2134, 2135, 2136, 2137, 2138, 2139, 2140, 2141, 2142, 2143, 2144
2145, 2146, 2147, 2148, 2149, 2150, 2151, 2152, 2153, 2154, 2155, 2156, 2157, 2158, 2159, 2160
2161, 2162, 2163, 2164, 2165, 2166, 2167, 2168, 2169, 2170, 2171, 2172, 2173, 2174, 2175, 2176
2177, 2178, 2179, 2180, 2181, 2182, 2183, 2184, 2185, 2186, 2187, 2188, 2189, 2190, 2191, 2192
2193, 2194, 2195, 2196, 2197, 2198, 2199, 2200, 2201, 2202, 2203, 2204, 2205, 2206, 2207, 2208
2209, 2210, 2211, 2212, 2213, 2214, 2215, 2216, 2217, 2218, 2219, 2220, 2221, 2222, 2223, 2224
2225, 2226, 2227, 2228, 2229, 2230, 2231, 2232, 2233, 2234, 2235, 2236, 2237, 2238, 2239, 2240
2241, 2242, 2243, 2244, 2245, 2246, 2247, 2248, 2249, 2250, 2251, 2252, 2253, 2254, 2255, 2256
2257, 2258, 2259, 2260, 2261, 2262, 2263, 2264, 2265, 2266, 2267, 2268, 2269, 2270, 2271, 2272
2273, 2274, 2275, 2276, 2277, 2278, 2279, 2280, 2281, 2282, 2283, 2284, 2285, 2286, 2287, 2288
2289, 2290, 2291, 2292, 2293, 2294, 2295, 2296, 2297, 2298, 2299, 2300, 2301, 2302, 2303, 2304
2305, 2306, 2307, 2308, 2309, 2310, 2311, 2312, 2313, 2314, 2315, 2316, 2317, 2318, 2319, 2320
2321, 2322, 2323, 2324, 2325, 2326, 2327, 2328, 2329, 2330, 2331, 2332, 2333, 2334, 2335, 2336
2337, 2338, 2339, 2340, 2341, 2342, 2343, 2344, 2345, 2346, 2347, 2348, 2349, 2350, 2351, 2352
2353, 2354, 2355, 2356, 2357, 2358, 2359, 2360, 2361, 2362, 2363, 2364, 2365, 2366, 2367, 2368
2369, 2370, 2371, 2372, 2373, 2374, 2375, 2376, 2377, 2378, 2379, 2380, 2381, 2382, 2383, 2384
2385, 2386, 2387, 2388, 2389, 2390, 2391, 2392, 2393, 2394, 2395, 2396, 2397, 2398, 2399, 2400
2401, 2402, 2403, 2404, 2405, 2406, 2407, 2408, 2409, 2410, 2411, 2412, 2413, 2414, 2415, 2416
2417, 2418, 2419, 2420, 2421, 2422, 2423, 2424, 2425, 2426, 2427, 2428, 2429, 2430, 2431, 2432
2433, 2434, 2435, 2436, 2437, 2438, 2439, 2440, 2441, 2442, 2443, 2444, 2445, 2446, 2447, 2448
2449, 2450, 2451, 2452, 2453, 2454, 2455, 2456, 2457, 2458, 2459, 2460, 2461, 2462, 2463, 2464
2465, 2466, 2467, 2468, 2469, 2470, 2471, 2472, 2473, 2474, 2475, 2476, 2477, 2478, 2479, 2480
2481, 2482, 2483, 2484, 2485, 2486, 2487, 2488, 2489, 2490, 2491, 2492, 2493, 2494, 2495, 2496
2497, 2498, 2499, 2500, 2501, 2502, 2503, 2504, 2505, 2506, 2507, 2508, 2509, 2510, 2511, 2512
2513, 2514, 2515, 2516, 2517, 2518, 2519, 2520, 2521, 2522, 2523, 2524, 2525, 2526, 2527, 2528
2529, 2530, 2531, 2532, 2533, 2534, 2535, 2536, 2537, 2538, 2539, 2540, 2541, 2542, 2543, 2544
2545, 2546, 2547, 2548, 2549, 2550, 2551, 2552, 2553, 2554, 2555, 2556, 2557, 2558, 2559, 2560
2561, 2562, 2563, 2564, 2565, 2566, 2567, 2568, 2569, 2570, 2571, 2572, 2573, 2574, 2575, 2576
2577, 2578, 2579, 2580, 2581, 2582, 2583, 2584, 2585, 2586, 2587, 2588, 2589, 2590, 2591, 2592
2593, 2594, 2595, 2596, 2597, 2598, 2599, 2600, 2601, 2602, 2603, 2604, 2605, 2606, 2607, 2608
2609, 2610, 2611, 2612, 2613, 2614, 2615, 2616, 2617, 2618, 2619, 2620, 2621, 2622, 2623, 2624
2625, 2626, 2627, 2628, 2629, 2630, 2631, 2632, 2633, 2634, 2635, 2636, 2637, 2638, 2639, 2640
2641, 2642, 2643, 2644, 2645, 2646, 2647, 2648, 2649, 2650, 2651, 2652, 2653, 2654, 2655, 2656
2657, 2658, 2659, 2660, 2661, 2662, 2663, 2664, 2665, 2666, 2667, 2668, 2669, 2670, 2671, 2672
2673, 2674, 2675, 2676, 2677, 2678, 2679, 2680, 2681, 2682, 2683, 2684, 2685, 2686, 2687, 2688
2689, 2690, 2691, 2692, 2693, 2694, 2695, 2696, 2697, 2698, 2699, 2700, 2701, 2702, 2703, 2704
2705, 2706, 2707, 2708, 2709, 2710, 2711, 2712, 2713, 2714, 2715, 2716, 2717, 2718, 2719, 2720
2721, 2722, 2723, 2724, 2725, 2726, 2727, 2728, 2729, 2730, 2731, 2732, 2733, 2734, 2735, 2736
2737, 2738, 2739, 2740, 2741, 2742, 2743, 2744, 2745, 2746, 2747, 2748, 2749, 2750, 2751, 2752
2753, 2754, 2755, 2756, 2757, 2758, 2759, 2760, 2761, 2762, 2763, 2764, 2765, 2766, 2767, 2768
2769, 2770, 2771, 2772, 2773, 2774, 2775, 2776, 2777, 2778, 2779, 2780, 2781, 2782, 2783, 2784
2785, 2786, 2787, 2788, 2789, 2790, 2791, 2792, 2793, 2794, 2795, 2796, 2797, 2798, 2799, 2800
2801, 2802, 2803, 2804, 2805, 2806, 2807, 2808, 2809, 2810, 2811, 2812, 2813, 2814, 2815, 2816
2817, 2818, 2819, 2820, 2821, 2822, 2823, 2824, 2825, 2826, 2827, 2828, 2829, 2830, 2831, 2832
2833, 2834, 2835, 2836, 2837, 2838, 2839, 2840, 2841, 2842, 2843, 2844, 2845, 2846, 2847, 2848
2849, 2850, 2851, 2852, 2853, 2854, 2855, 2856, 2857, 2858, 2859, 2860, 2861, 2862, 2863, 2864
2865, 2866, 2867, 2868, 2869, 2870, 2871, 2872, 2873, 2874, 2875, 2876, 2877, 2878, 2879, 2880
2881, 2882, 2883, 2884, 2885, 2886, 2887, 2888, 2889, 2890, 2891, 2892, 2893, 2894, 2895, 2896
2897, 2898, 2899, 2900, 2901, 2902, 2903, 2904, 2905, 2906, 2907, 2908, 2909, 2910, 2911, 2912
2913, 2914, 2915, 2916, 2917, 2918, 2919, 2920, 2921, 2922, 2923, 2924, 2925, 2926, 2927, 2928
2929, 2930, 2931, 2932, 2933, 2934, 2935, 2936, 2937, 2938, 2939, 2940, 2941, 2942, 2943, 2944
2945, 2946, 2947, 2948, 2949, 2950, 2951, 2952, 2953, 2954, 2955, 2956, 2957, 2958, 2959, 2960
2961, 2962, 2963, 2964, 2965, 2966, 2967, 2968, 2969, 2970, 2971, 2972, 2973, 2974, 2975, 2976
2977, 2978, 2979, 2980, 2981, 2982, 2983, 2984, 2985, 2986, 2987, 2988, 2989, 2990, 2991, 2992
2993, 2994, 2995, 2996, 2997, 2998, 2999, 3000, 3001, 3002, 3003, 3004, 3005, 3006, 3007, 3008
3009, 3010, 3011, 3012, 3013, 3014, 3015, 3016, 3017, 3018, 3019, 3020, 3021, 3022, 3023, 3024
3025, 3026, 3027, 3028, 3029, 3030, 3031, 3032, 3033, 3034, 3035, 3036, 3037, 3038, 3039, 3040
3041, 3042, 3043, 3044, 3045, 3046, 3047, 3048, 3049, 3050, 3051, 3052, 3053, 3054, 3055, 3056
3057, 3058, 3059, 3060, 3061, 3062, 3063, 3064, 3065, 3066, 3067, 3068, 3069, 3070, 3071, 3072
3073, 3074, 3075, 3076, 3077, 3078, 3079, 3080, 3081, 3082, 3083, 3084, 3085, 3086, 3087, 3088
3089, 3090, 3091, 3092, 3093, 3094, 3095, 3096, 3097, 3098, 3099, 3100, 3101, 3102, 3103, 3104
3105, 3106, 3107, 3108, 3109, 3110, 3111, 3112, 3113, 3114, 3115, 3116, 3117, 3118, 3119, 3120
3121, 3122, 3123, 3124, 3125, 3126, 3127, 3128, 3129, 3130, 3131, 3132, 3133, 3134, 3135, 3136
3137, 3138, 3139, 3140, 3141, 3142, 3143, 3144, 3145, 3146, 3147, 3148, 3149, 3150, 3151, 3152
3153, 3154, 3155, 3156, 3157, 3158, 3159, 3160, 3161, 3162, 3163, 3164, 3165, 3166, 3167, 3168
3169, 3170, 3171, 3172, 3173, 3174, 3175, 3176, 3177, 3178, 3179, 3180, 3181, 3182, 3183, 3184
3185, 3186, 3187, 3188, 3189, 3190, 3191, 3192, 3193, 3194, 3195, 3196, 3197, 3198, 3199, 3200
3201, 3202, 3203, 3204, 3205, 3206, 3207, 3208, 3209, 3210, 3211, 3212, 3213, 3214, 3215, 3216
3217, 3218, 3219, 3220, 3221, 3222, 3223, 3224, 3225, 3226, 3227, 3228, 3229, 3230, 3231, 3232
3233, 3234, 3235, 3236, 3237, 3238, 3239, 3240, 3241, 3242, 3243, 3244, 3245, 3246, 3247, 3248
3249, 3250, 3251, 3252, 3253, 3254, 3255, 3256, 3257, 3258, 3259, 3260, 3261, 3262, 3263, 3264
3265, 3266, 3267, 3268, 3269, 3270, 3271, 3272, 3273, 3274, 3275, 3276, 3277, 3278, 3279, 3280
3281, 3282, 3283, 3284, 3285, 3286, 3287, 3288, 3289, 3290, 3291, 3292, 3293, 3294, 3295, 3296
3297, 3298, 3299, 3300, 3301, 3302, 3303, 3304, 3305, 3306, 3307, 3308, 3309, 3310, 3311, 3312
3313, 3314, 3315, 3316, 3317, 3318, 3319, 3320, 3321, 3322, 3323, 3324, 3325, 3326, 3327, 3328
3329, 3330, 3331, 3332, 3333, 3334, 3335, 3336, 3337, 3338, 3339, 3340, 3341, 3342, 3343, 3344
3345, 3346, 3347, 3348, 3349, 3350, 3351, 3352, 3353, 3354, 3355, 3356, 3357, 3358, 3359, 3360
3361, 3362, 3363, 3364, 3365, 3366, 3367, 3368, 3369, 3370, 3371, 3372, 3373, 3374, 3375, 3376
3377, 3378, 3379, 3380, 3381, 3382, 3383, 3384, 3385, 3386, 3387, 3388, 3389, 3390, 3391, 3392
3393, 3394, 3395, 3396, 3397, 3398, 3399, 3400, 3401, 3402, 3403, 3404, 3405, 3406, 3407, 3408
3409, 3410, 3411, 3412, 3413, 3414, 3415, 3416, 3417, 3418, 3419, 3420, 3421, 3422, 3423, 3424
3425, 3426, 3427, 3428, 3429, 3430, 3431, 3432, 3433, 3434, 3435, 3436, 3437, 3438, 3439, 3440
3441, 3442, 3443, 3444, 3445, 3446, 3447, 3448, 3449, 3450, 3451, 3452, 3453, 3454, 3455, 3456
3457, 3458, 3459, 3460, 3461, 3462, 3463, 3464, 3465, 3466, 3467, 3468, 3469, 3470, 3471, 3472
3473, 3474, 3475, 3476, 3477, 3478, 3479, 3480, 3481, 3482, 3483, 3484, 3485, 3486, 3487, 3488
3489, 3490, 3491, 3492, 3493, 3494, 3495, 3496, 3497, 3498, 3499, 3500, 3501, 3502, 3503, 3504
3505, 3506, 3507, 3508, 3509, 3510, 3511, 3512, 3513, 3514, 3515, 3516, 3517, 3518, 3519, 3520
3521, 3522, 3523, 3524, 3525, 3526, 3527, 3528, 3529, 3530, 3531, 3532, 3533, 3534, 3535, 3536
3537, 3538, 3539, 3540, 3541, 3542, 3543, 3544, 3545, 3546, 3547, 3548, 3549, 3550, 3551, 3552
3553, 3554, 3555, 3556, 3557, 3558, 3559, 3560, 3561, 3562, 3563, 3564, 3565, 3566, 3567, 3568
3569, 3570, 3571, 3572, 3573, 3574, 3575, 3576, 3577, 3578, 3579, 3580, 3581, 3582, 3583, 3584
3585, 3586, 3587, 3588, 3589, 3590, 3591, 3592, 3593, 3594, 3595, 3596, 3597, 3598, 3599, 3600
3601, 3602, 3603, 3604, 3605, 3606, 3607, 3608, 3609, 3610, 3611, 3612, 3613, 3614, 3615, 3616
3617, 3618, 3619, 3620, 3621, 3622, 3623, 3624, 3625, 3626, 3627, 3628, 3629, 3630, 3631, 3632
3633, 3634, 3635, 3636, 3637, 3638, 3639, 3640, 3641, 3642, 3643, 3644, 3645, 3646, 3647, 3648
3649, 3650, 3651, 3652, 3653, 3654, 3655, 3656, 3657, 3658, 3659, 3660, 3661, 3662, 3663, 3664
3665, 3666, 3667, 3668, 3669, 3670, 3671, 3672, 3673, 3674, 3675, 3676, 3677, 3678, 3679, 3680
3681, 3682, 3683, 3684, 3685, 3686, 3687, 3688, 3689, 3690, 3691, 3692, 3693, 3694, 3695, 3696
3697, 3698, 3699, 3700, 3701, 3702, 3703, 3704, 3705, 3706, 3707, 3708, 3709, 3710, 3711, 3712
3713, 3714, 3715, 3716, 3717, 3718, 3719, 3720, 3721, 3722, 3723, 3724, 3725, 3726, 3727, 3728
3729, 3730, 3731, 3732, 3733, 3734, 3735, 3736, 3737, 3738, 3739, 3740, 3741, 3742, 3743, 3744
3745, 3746, 3747, 3748, 3749, 3750, 3751, 3752, 3753, 3754, 3755, 3756, 3757, 3758, 3759, 3760
3761, 3762, 3763, 3764, 3765, 3766, 3767, 3768, 3769, 3770, 3771, 3772, 3773, 3774, 3775, 3776
3777, 3778, 3779, 3780, 3781, 3782, 3783, 3784, 3785, 3786, 3787, 3788, 3789, 3790, 3791, 3792
3793, 3794, 3795, 3796, 3797, 3798, 3799, 3800, 3801, 3802, 3803, 3804, 3805, 3806, 3807, 3808
3809, 3810, 3811, 3812, 3813, 3814, 3815, 3816, 3817, 3818, 3819, 3820, 3821, 3822, 3823, 3824
3825, 3826, 3827, 3828, 3829, 3830, 3831, 3832, 3833, 3834, 3835, 3836, 3837, 3838, 3839, 3840
3841, 3842, 3843, 3844, 3845, 3846, 3847, 3848, 3849, 3850, 3851, 3852, 3853, 3854, 3855, 3856
3857, 3858, 3859, 3860, 3861, 3862, 3863, 3864, 3865, 3866, 3867, 3868, 3869, 3870, 3871, 3872
3873, 3874, 3875, 3876, 3877, 3878, 3879, 3880, 3881, 3882, 3883, 3884, 3885, 3886, 3887, 3888
3889, 3890, 3891, 3892, 3893, 3894, 3895, 3896, 3897, 3898, 3899, 3900, 3901, 3902, 3903, 3904
3905, 3906, 3907, 3908, 3909, 3910, 3911, 3912, 3913, 3914, 3915, 3916, 3917, 3918, 3919, 3920
3921, 3922, 3923, 3924, 3925, 3926, 3927, 3928, 3929, 3930, 3931, 3932, 3933, 3934, 3935, 3936
3937, 3938, 3939, 3940, 3941, 3942, 3943, 3944, 3945, 3946, 3947, 3948, 3949, 3950, 3951, 3952
3953, 3954, 3955, 3956, 3957, 3958, 3959, 3960, 3961, 3962, 3963, 3964, 3965, 3966, 3967, 3968
3969, 3970, 3971, 3972, 3973, 3974, 3975, 3976, 3977, 3978, 3979, 3980, 3981, 3982, 3983, 3984
3985, 3986, 3987, 3988, 3989, 3990, 3991, 3992, 3993, 3994, 3995, 3996, 3997, 3998, 3999, 4000
4001, 4002, 4003, 4004, 4005, 4006, 4007, 4008, 4009, 4010, 4011, 4012, 4013, 4014, 4015, 4016
4017, 4018, 4019, 4020, 4021, 4022, 4023, 4024, 4025, 4026, 4027, 4028, 4029, 4030, 4031, 4032
4033, 4034, 4035, 4036, 4037, 4038, 4039, 4040, 4041, 4042, 4043, 4044, 4045, 4046, 4047, 4048
4049, 4050, 4051, 4052, 4053, 4054, 4055, 4056, 4057, 4058, 4059, 4060, 4061, 4062, 4063, 4064
4065, 4066, 4067, 4068, 4069, 4070, 4071, 4072, 4073, 4074, 4075, 4076, 4077, 4078, 4079, 4080
4081, 4082, 4083, 4084, 4085, 4086, 4087, 4088, 4089, 4090, 4091, 4092, 4093, 4094, 4095, 4096
4097, 4098, 4099, 4100, 4101, 4102, 4103, 4104, 4105, 4106, 4107, 4108, 4109, 4110, 4111, 4112
4113, 4114, 4115, 4116, 4117, 4118, 4119, 4120, 4121, 4122, 4123, 4124, 4125, 4126, 4127, 4128
4129, 4130, 4131, 4132, 4133, 4134, 4135, 4136, 4137, 4138, 4139, 4140, 4141, 4142, 4143, 4144
4145, 4146, 4147, 4148, 4149, 4150, 4151, 4152, 4153, 4154, 4155, 4156, 4157, 4158, 4159, 4160
4161, 4162, 4163, 4164, 4165, 4166, 4167, 4168, 4169, 4170, 4171, 4172, 4173, 4174, 4175, 4176
4177, 4178, 4179, 4180, 4181, 4182, 4183, 4184, 4185, 4186, 4187, 4188, 4189, 4190, 4191, 4192
4193, 4194, 4195, 4196, 4197, 4198, 4199, 4200, 4201, 4202, 4203, 4204, 4205, 4206, 4207, 4208
4209, 4210, 4211, 4212, 4213, 4214, 4215, 4216, 4217, 4218, 4219, 4220, 4221, 4222, 4223, 4224
4225, 4226, 4227, 4228, 4229, 4230, 4231, 4232, 4233, 4234, 4235, 4236, 4237, 4238, 4239, 4240
4241, 4242, 4243, 4244, 4245, 4246, 4247, 4248, 4249, 4250, 4251, 4252, 4253, 4254, 4255, 4256
4257, 4258, 4259, 4260, 4261, 4262, 4263, 4264, 4265, 4266, 4267, 4268, 4269, 4270, 4271, 4272
4273, 4274, 4275, 4276, 4277, 4278, 4279, 4280, 4281, 4282, 4283, 4284, 4285, 4286, 4287, 4288
4289, 4290, 4291, 4292, 4293, 4294, 4295, 4296, 4297, 4298, 4299, 4300, 4301, 4302, 4303, 4304
4305, 4306, 4307, 4308, 4309, 4310, 4311, 4312, 4313, 4314, 4315, 4316, 4317, 4318, 4319, 4320
4321, 4322, 4323, 4324, 4325, 4326, 4327, 4328, 4329, 4330, 4331, 4332, 4333, 4334, 4335, 4336
4337, 4338, 4339, 4340, 4341, 4342, 4343, 4344, 4345, 4346, 4347, 4348, 4349, 4350, 4351, 4352
4353, 4354, 4355, 4356, 4357, 4358, 4359, 4360, 4361, 4362, 4363, 4364, 4365, 4366, 4367, 4368
4369, 4370, 4371, 4372, 4373, 4374, 4375, 4376, 4377, 4378, 4379, 4380, 4381, 4382, 4383, 4384
4385, 4386, 4387, 4388, 4389, 4390, 4391, 4392, 4393, 4394, 4395, 4396, 4397, 4398, 4399, 4400
4401, 4402, 4403, 4404, 4405, 4406, 4407, 4408, 4409, 4410, 4411, 4412, 4413, 4414, 4415, 4416
4417, 4418, 4419, 4420, 4421, 4422, 4423, 4424, 4425, 4426, 4427, 4428, 4429, 4430, 4431, 4432
4433, 4434, 4435, 4436, 4437, 4438, 4439, 4440, 4441, 4442, 4443, 4444, 4445, 4446, 4447, 4448
4449, 4450, 4451, 4452, 4453, 4454, 4455, 4456, 4457, 4458, 4459, 4460, 4461, 4462, 4463, 4464
4465, 4466, 4467, 4468, 4469, 4470, 4471, 4472, 4473, 4474, 4475, 4476, 4477, 4478, 4479, 4480
4481, 4482, 4483, 4484, 4485, 4486, 4487, 4488, 4489, 4490, 4491, 4492, 4493, 4494, 4495, 4496
4497, 4498, 4499, 4500, 4501, 4502, 4503, 4504, 4505, 4506, 4507, 4508, 4509, 4510, 4511, 4512
4513, 4514, 4515, 4516, 4517, 4518, 4519, 4520, 4521, 4522, 4523, 4524, 4525, 4526, 4527, 4528
4529, 4530, 4531, 4532, 4533, 4534, 4535, 4536, 4537, 4538, 4539, 4540, 4541, 4542, 4543, 4544
4545, 4546, 4547, 4548, 4549, 4550, 4551, 4552, 4553, 4554, 4555, 4556, 4557, 4558, 4559, 4560
4561, 4562, 4563, 4564, 4565, 4566, 4567, 4568, 4569, 4570, 4571, 4572, 4573, 4574, 4575, 4576
4577, 4578, 4579, 4580, 4581, 4582, 4583, 4584, 4585, 4586, 4587, 4588, 4589, 4590, 4591, 4592
4593, 4594, 4595, 4596, 4597, 4598, 4599, 4600, 4601, 4602, 4603, 4604, 4605, 4606, 4607, 4608
4609, 4610, 4611, 4612, 4613, 4614, 4615, 4616, 4617, 4618, 4619, 4620, 4621, 4622, 4623, 4624
4625, 4626, 4627, 4628, 4629, 4630, 4631, 4632, 4633, 4634, 4635, 4636, 4637, 4638, 4639, 4640
4641, 4642, 4643, 4644, 4645, 4646, 4647, 4648, 4649, 4650, 4651, 4652, 4653, 4654, 4655, 4656
4657, 4658, 4659, 4660, 4661, 4662, 4663, 4664, 4665, 4666, 4667, 4668, 4669, 4670, 4671, 4672
4673, 4674, 4675, 4676, 4677, 4678, 4679, 4680, 4681, 4682, 4683, 4684, 4685, 4686, 4687, 4688
4689, 4690, 4691, 4692, 4693, 4694, 4695, 4696, 4697, 4698, 4699, 4700, 4701, 4702, 4703, 4704
4705, 4706, 4707, 4708, 4709, 4710, 4711, 4712, 4713, 4714, 4715, 4716, 4717, 4718, 4719, 4720
4721, 4722, 4723, 4724, 4725, 4726, 4727, 4728, 4729, 4730, 4731, 4732, 4733, 4734, 4735, 4736
4737, 4738, 4739, 4740, 4741, 4742, 4743, 4744, 4745, 4746, 4747, 4748, 4749, 4750, 4751, 4752
4753, 4754, 4755, 4756, 4757, 4758, 4759, 4760, 4761, 4762, 4763, 4764, 4765, 4766, 4767, 4768
4769, 4770, 4771, 4772, 4773, 4774, 4775, 4776, 4777, 4778, 4779, 4780, 4781, 4782, 4783, 4784
4785, 4786, 4787, 4788, 4789, 4790, 4791, 4792, 4793, 4794, 4795, 4796, 4797, 4798, 4799, 4800
4801, 4802, 4803, 4804, 4805, 4806, 4807, 4808, 4809, 4810, 4811, 4812, 4813, 4814, 4815, 4816
4817, 4818, 4819, 4820, 4821, 4822, 4823, 4824, 4825, 4826, 4827, 4828, 4829, 4830, 4831, 4832
4833, 4834, 4835, 4836, 4837, 4838, 4839, 4840, 4841, 4842, 4843, 4844, 4845, 4846, 4847, 4848
4849, 4850, 4851, 4852, 4853, 4854, 4855, 4856, 4857, 4858, 4859, 4860, 4861, 4862, 4863, 4864
4865, 4866, 4867, 4868, 4869, 4870, 4871, 4872, 4873, 4874, 4875, 4876, 4877, 4878, 4879, 4880
4881, 4882, 4883, 4884, 4885, 4886, 4887, 4888, 4889, 4890, 4891, 4892, 4893, 4894, 4895, 4896
4897, 4898, 4899, 4900, 4901, 4902, 4903, 4904, 4905, 4906, 4907, 4908, 4909, 4910, 4911, 4912
4913, 4914, 4915, 4916, 4917, 4918, 4919, 4920, 4921, 4922, 4923, 4924, 4925, 4926, 4927, 4928
4929, 4930, 4931, 4932, 4933, 4934, 4935, 4936, 4937, 4938, 4939, 4940, 4941, 4942, 4943, 4944
4945, 4946, 4947, 4948, 4949, 4950, 4951, 4952, 4953, 4954, 4955, 4956, 4957, 4958, 4959, 4960
4961, 4962, 4963, 4964, 4965, 4966, 4967, 4968, 4969, 4970, 4971, 4972, 4973, 4974, 4975, 4976
4977, 4978, 4979, 4980, 4981, 4982, 4983, 4984, 4985, 4986, 4987, 4988, 4989, 4990, 4991, 4992
4993, 4994, 4995, 4996, 4997, 4998, 4999, 5000, 5001, 5002, 5003, 5004, 5005, 5006, 5007, 5008
5009, 5010, 5011, 5012, 5013, 5014, 5015, 5016, 5017, 5018, 5019, 5020, 5021, 5022, 5023, 5024
5025, 5026, 5027, 5028, 5029, 5030, 5031, 5032, 5033, 5034, 5035, 5036, 5037, 5038, 5039, 5040
5041, 5042, 5043, 5044, 5045, 5046, 5047, 5048, 5049, 5050, 5051, 5052, 5053, 5054, 5055, 5056
5057, 5058, 5059, 5060, 5061, 5062, 5063, 5064, 5065, 5066, 5067, 5068, 5069, 5070, 5071, 5072
5073, 5074, 5075, 5076, 5077, 5078, 5079, 5080, 5081, 5082, 5083, 5084, 5085, 5086, 5087, 5088
5089, 5090, 5091, 5092, 5093, 5094, 5095, 5096, 5097, 5098, 5099, 5100, 5101, 5102, 5103, 5104
5105, 5106, 5107, 5108, 5109, 5110, 5111, 5112, 5113, 5114, 5115, 5116, 5117, 5118, 5119, 5120
5121, 5122, 5123, 5124, 5125, 5126, 5127, 5128, 5129, 5130, 5131, 5132, 5133, 5134, 5135, 5136
5137, 5138, 5139, 5140, 5141, 5142, 5143, 5144, 5145, 5146, 5147, 5148, 5149, 5150, 5151, 5152
5153, 5154, 5155, 5156, 5157, 5158, 5159, 5160, 5161, 5162, 5163, 5164, 5165, 5166, 5167, 5168
5169, 5170, 5171, 5172, 5173, 5174, 5175, 5176, 5177, 5178, 5179, 5180, 5181, 5182, 5183, 5184
5185, 5186, 5187, 5188, 5189, 5190, 5191, 5192, 5193, 5194, 5195, 5196, 5197, 5198, 5199, 5200
5201, 5202, 5203, 5204, 5205, 5206, 5207, 5208, 5209, 5210, 5211, 5212, 5213, 5214, 5215, 5216
5217, 5218, 5219, 5220, 5221, 5222, 5223, 5224, 5225, 5226, 5227, 5228, 5229, 5230, 5231, 5232
5233, 5234, 5235, 5236, 5237, 5238, 5239, 5240, 5241, 5242, 5243, 5244, 5245, 5246, 5247, 5248
5249, 5250, 5251, 5252, 5253, 5254, 5255, 5256, 5257, 5258, 5259, 5260, 5261, 5262, 5263, 5264
5265, 5266, 5267, 5268, 5269, 5270, 5271, 5272, 5273, 5274, 5275, 5276, 5277, 5278, 5279, 5280
5281, 5282, 5283, 5284, 5285, 5286, 5287, 5288, 5289, 5290, 5291, 5292, 5293, 5294, 5295, 5296
5297, 5298, 5299, 5300, 5301, 5302, 5303, 5304, 5305, 5306, 5307, 5308, 5309, 5310, 5311, 5312
5313, 5314, 5315, 5316, 5317, 5318, 5319, 5320, 5321, 5322, 5323, 5324, 5325, 5326, 5327, 5328
5329, 5330, 5331, 5332, 5333, 5334, 5335, 5336, 5337, 5338, 5339, 5340, 5341, 5342, 5343, 5344
5345, 5346, 5347, 5348, 5349, 5350, 5351, 5352, 5353, 5354, 5355, 5356, 5357, 5358, 5359, 5360
5361, 5362, 5363, 5364, 5365, 5366, 5367, 5368, 5369, 5370, 5371, 5372, 5373, 5374, 5375, 5376
5377, 5378, 5379, 5380, 5381, 5382, 5383, 5384, 5385, 5386, 5387, 5388, 5389, 5390, 5391, 5392
5393, 5394, 5395, 5396, 5397, 5398, 5399, 5400, 5401, 5402, 5403, 5404, 5405, 5406, 5407, 5408
5409, 5410, 5411, 5412, 5413, 5414, 5415, 5416, 5417, 5418, 5419, 5420, 5421, 5422, 5423, 5424
5425, 5426, 5427, 5428, 5429, 5430, 5431, 5432, 5433, 5434, 5435, 5436, 5437, 5438, 5439, 5440
5441, 5442, 5443, 5444, 5445, 5446, 5447, 5448, 5449, 5450, 5451, 5452, 5453, 5454, 5455, 5456
5457, 5458, 5459, 5460, 5461, 5462, 5463, 5464, 5465, 5466, 5467, 5468, 5469, 5470, 5471, 5472
5473, 5474, 5475, 5476, 5477, 5478, 5479, 5480, 5481, 5482, 5483, 5484, 5485, 5486, 5487, 5488
5489, 5490, 5491, 5492, 5493, 5494, 5495, 5496, 5497, 5498, 5499, 5500, 5501, 5502, 5503, 5504
5505, 5506, 5507, 5508, 5509, 5510, 5511, 5512, 5513, 5514, 5515, 5516, 5517, 5518, 5519, 5520
5521, 5522, 5523, 5524, 5525, 5526, 5527, 5528, 5529, 5530, 5531, 5532, 5533, 5534, 5535, 5536
5537, 5538, 5539, 5540, 5541, 5542, 5543, 5544, 5545, 5546, 5547, 5548, 5549, 5550, 5551, 5552
5553, 5554, 5555, 5556, 5557, 5558, 5559, 5560, 5561, 5562, 5563, 5564, 5565, 5566, 5567, 5568
5569, 5570, 5571, 5572, 5573, 5574, 5575, 5576, 5577, 5578, 5579, 5580, 5581, 5582, 5583, 5584
5585, 5586, 5587, 5588, 5589, 5590, 5591, 5592, 5593, 5594, 5595, 5596, 5597, 5598, 5599, 5600
5601, 5602, 5603, 5604, 5605, 5606, 5607, 5608, 5609, 5610, 5611, 5612, 5613, 5614, 5615, 5616
5617, 5618, 5619, 5620, 5621, 5622, 5623, 5624, 5625, 5626, 5627, 5628, 5629, 5630, 5631, 5632
5633, 5634, 5635, 5636, 5637, 5638, 5639, 5640, 5641, 5642, 5643, 5644, 5645, 5646, 5647, 5648
5649, 5650, 5651, 5652, 5653, 5654, 5655, 5656, 5657, 5658, 5659, 5660, 5661, 5662, 5663, 5664
5665, 5666, 5667, 5668, 5669, 5670, 5671, 5672, 5673, 5674, 5675, 5676, 5677, 5678, 5679, 5680
5681, 5682, 5683, 5684, 5685, 5686, 5687, 5688, 5689, 5690, 5691, 5692, 5693, 5694, 5695, 5696
5697, 5698, 5699, 5700, 5701, 5702, 5703, 5704, 5705, 5706, 5707, 5708, 5709, 5710, 5711, 5712
5713, 5714, 5715, 5716, 5717, 5718, 5719, 5720, 5721, 5722, 5723, 5724, 5725, 5726, 5727, 5728
5729, 5730, 5731, 5732, 5733, 5734, 5735, 5736, 5737, 5738, 5739, 5740, 5741, 5742, 5743, 5744
5745, 5746, 5747, 5748, 5749, 5750, 5751, 5752, 5753, 5754, 5755, 5756, 5757, 5758, 5759, 5760
5761, 5762, 5763, 5764, 5765, 5766, 5767, 5768, 5769, 5770, 5771, 5772, 5773, 5774, 5775, 5776
5777, 5778, 5779, 5780, 5781, 5782, 5783, 5784, 5785, 5786, 5787, 5788, 5789, 5790, 5791, 5792
5793, 5794, 5795, 5796, 5797, 5798, 5799, 5800, 5801, 5802, 5803, 5804, 5805, 5806, 5807, 5808
5809, 5810, 5811, 5812, 5813, 5814, 5815, 5816, 5817, 5818, 5819, 5820, 5821, 5822, 5823, 5824
5825, 5826, 5827, 5828, 5829, 5830, 5831, 5832, 5833, 5834, 5835, 5836, 5837, 5838, 5839, 5840
5841, 5842, 5843, 5844, 5845, 5846, 5847, 5848, 5849, 5850, 5851, 5852, 5853, 5854, 5855, 5856
5857, 5858, 5859, 5860, 5861, 5862, 5863, 5864, 5865, 5866, 5867, 5868, 5869, 5870, 5871, 5872
5873, 5874, 5875, 5876, 5877, 5878, 5879, 5880, 5881, 5882, 5883, 5884, 5885, 5886, 5887, 5888
5889, 5890, 5891, 5892, 5893, 5894, 5895, 5896, 5897, 5898, 5899, 5900, 5901, 5902, 5903, 5904
5905, 5906, 5907, 5908, 5909, 5910, 5911, 5912, 5913, 5914, 5915, 5916, 5917, 5918, 5919, 5920
5921, 5922, 5923, 5924, 5925, 5926, 5927, 5928, 5929, 5930, 5931, 5932, 5933, 5934, 5935, 5936
5937, 5938, 5939, 5940, 5941, 5942, 5943, 5944, 5945, 5946, 5947, 5948, 5949, 5950, 5951, 5952
5953, 5954, 5955, 5956, 5957, 5958, 5959, 5960, 5961, 5962, 5963, 5964, 5965, 5966, 5967, 5968
5969, 5970, 5971, 5972, 5973, 5974, 5975, 5976, 5977, 5978, 5979, 5980, 5981, 5982, 5983, 5984
5985, 5986, 5987, 5988, 5989, 5990, 5991, 5992, 5993, 5994, 5995, 5996, 5997, 5998, 5999, 6000
6001, 6002, 6003, 6004, 6005, 6006, 6007, 6008, 6009, 6010, 6011, 6012, 6013, 6014, 6015, 6016
6017, 6018, 6019, 6020, 6021, 6022, 6023, 6024, 6025, 6026, 6027, 6028, 6029, 6030, 6031, 6032
6033, 6034, 6035, 6036, 6037, 6038, 6039, 6040, 6041, 6042, 6043, 6044, 6045, 6046, 6047, 6048
6049, 6050, 6051, 6052, 6053, 6054, 6055, 6056, 6057, 6058, 6059, 6060, 6061, 6062, 6063, 6064
6065, 6066, 6067, 6068, 6069, 6070, 6071, 6072, 6073, 6074, 6075, 6076, 6077, 6078, 6079, 6080
6081, 6082, 6083, 6084, 6085, 6086, 6087, 6088, 6089, 6090, 6091, 6092, 6093, 6094, 6095, 6096
6097, 6098, 6099, 6100, 6101, 6102, 6103, 6104, 6105, 6106, 6107, 6108, 6109, 6110, 6111, 6112
6113, 6114, 6115, 6116, 6117, 6118, 6119, 6120, 6121, 6122, 6123, 6124, 6125, 6126, 6127, 6128
6129, 6130, 6131, 6132, 6133, 6134, 6135, 6136, 6137, 6138, 6139, 6140, 6141, 6142, 6143, 6144
6145, 6146, 6147, 6148, 6149, 6150, 6151, 6152, 6153, 6154, 6155, 6156, 6157, 6158, 6159, 6160
6161, 6162, 6163, 6164, 6165, 6166, 6167, 6168, 6169, 6170, 6171, 6172, 6173, 6174, 6175, 6176
6177, 6178, 6179, 6180, 6181, 6182, 6183, 6184, 6185, 6186, 6187, 6188, 6189, 6190, 6191, 6192
6193, 6194, 6195, 6196, 6197, 6198, 6199, 6200, 6201, 6202, 6203, 6204, 6205, 6206, 6207, 6208
6209, 6210, 6211, 6212, 6213, 6214, 6215, 6216, 6217, 6218, 6219, 6220, 6221, 6222, 6223, 6224
6225, 6226, 6227, 6228, 6229, 6230, 6231, 6232, 6233, 6234, 6235, 6236, 6237, 6238, 6239, 6240
6241, 6242, 6243, 6244, 6245, 6246, 6247, 6248, 6249, 6250, 6251, 6252, 6253, 6254, 6255, 6256
6257, 6258, 6259, 6260, 6261, 6262, 6263, 6264, 6265, 6266, 6267, 6268, 6269, 6270, 6271, 6272
6273, 6274, 6275, 6276, 6277, 6278, 6279, 6280, 6281, 6282, 6283, 6284, 6285, 6286, 6287, 6288
6289, 6290, 6291, 6292, 6293, 6294, 6295, 6296, 6297, 6298, 6299, 6300, 6301, 6302, 6303, 6304
6305, 6306, 6307, 6308, 6309, 6310, 6311, 6312, 6313, 6314, 6315, 6316, 6317, 6318, 6319, 6320
6321, 6322, 6323, 6324, 6325, 6326, 6327, 6328, 6329, 6330, 6331, 6332, 6333, 6334, 6335, 6336
6337, 6338, 6339, 6340, 6341, 6342, 6343, 6344, 6345, 6346, 6347, 6348, 6349, 6350, 6351, 6352
6353, 6354, 6355, 6356, 6357, 6358, 6359, 6360, 6361, 6362, 6363, 6364, 6365, 6366, 6367, 6368
6369, 6370, 6371, 6372, 6373, 6374, 6375, 6376, 6377, 6378, 6379, 6380, 6381, 6382, 6383, 6384
6385, 6386, 6387, 6388, 6389, 6390, 6391, 6392, 6393, 6394, 6395, 6396, 6397, 6398, 6399, 6400
6401, 6402, 6403, 6404, 6405, 6406, 6407, 6408, 6409, 6410, 6411, 6412, 6413, 6414, 6415, 6416
6417, 6418, 6419, 6420, 6421, 6422, 6423, 6424, 6425, 6426, 6427, 6428, 6429, 6430, 6431, 6432
6433, 6434, 6435, 6436, 6437, 6438, 6439, 6440, 6441, 6442, 6443, 6444, 6445, 6446, 6447, 6448
6449, 6450, 6451, 6452, 6453, 6454, 6455, 6456, 6457, 6458, 6459, 6460, 6461, 6462, 6463, 6464
6465, 6466, 6467, 6468, 6469, 6470, 6471, 6472, 6473, 6474, 6475, 6476, 6477, 6478, 6479, 6480
6481, 6482, 6483, 6484, 6485, 6486, 6487, 6488, 6489, 6490, 6491, 6492, 6493, 6494, 6495, 6496
6497, 6498, 6499, 6500, 6501, 6502, 6503, 6504, 6505, 6506, 6507, 6508, 6509, 6510, 6511, 6512
6513, 6514, 6515, 6516, 6517, 6518, 6519, 6520, 6521, 6522, 6523, 6524, 6525, 6526, 6527, 6528
6529, 6530, 6531, 6532, 6533, 6534, 6535, 6536, 6537, 6538, 6539, 6540, 6541, 6542, 6543, 6544
6545, 6546, 6547, 6548, 6549, 6550, 6551, 6552, 6553, 6554, 6555, 6556, 6557, 6558, 6559, 6560
6561, 6562, 6563, 6564, 6565, 6566, 6567, 6568, 6569, 6570, 6571, 6572, 6573, 6574, 6575, 6576
6577, 6578, 6579, 6580, 6581, 6582, 6583, 6584, 6585, 6586, 6587, 6588, 6589, 6590, 6591, 6592
6593, 6594, 6595, 6596, 6597, 6598, 6599, 6600, 6601, 6602, 6603, 6604, 6605, 6606, 6607, 6608
6609, 6610, 6611, 6612, 6613, 6614, 6615, 6616, 6617, 6618, 6619, 6620, 6621, 6622, 6623, 6624
6625, 6626, 6627, 6628, 6629, 6630, 6631, 6632, 6633, 6634, 6635, 6636, 6637, 6638, 6639, 6640
6641, 6642, 6643, 6644, 6645, 6646, 6647, 6648, 6649, 6650, 6651, 6652, 6653, 6654, 6655, 6656
6657, 6658, 6659, 6660, 6661, 6662, 6663, 6664, 6665, 6666, 6667, 6668, 6669, 6670, 6671, 6672
6673, 6674, 6675, 6676, 6677, 6678, 6679, 6680, 6681, 6682, 6683, 6684, 6685, 6686, 6687, 6688
6689, 6690, 6691, 6692, 6693, 6694, 6695, 6696, 6697, 6698, 6699, 6700, 6701, 6702, 6703, 6704
6705, 6706, 6707, 6708, 6709, 6710, 6711, 6712, 6713, 6714, 6715, 6716, 6717, 6718, 6719, 6720
6721, 6722, 6723, 6724, 6725, 6726, 6727, 6728, 6729, 6730, 6731, 6732, 6733, 6734, 6735, 6736
6737, 6738, 6739, 6740, 6741, 6742, 6743, 6744, 6745, 6746, 6747, 6748, 6749, 6750, 6751, 6752
6753, 6754, 6755, 6756, 6757, 6758, 6759, 6760, 6761, 6762, 6763, 6764, 6765, 6766, 6767, 6768
6769, 6770, 6771, 6772, 6773, 6774, 6775, 6776, 6777, 6778, 6779, 6780, 6781, 6782, 6783, 6784
6785, 6786, 6787, 6788, 6789, 6790, 6791, 6792, 6793, 6794, 6795, 6796, 6797, 6798, 6799, 6800
6801, 6802, 6803, 6804, 6805, 6806, 6807, 6808, 6809, 6810, 6811, 6812, 6813, 6814, 6815, 6816
6817, 6818, 6819, 6820, 6821, 6822, 6823, 6824, 6825, 6826, 6827, 6828, 6829, 6830, 6831, 6832
6833, 6834, 6835, 6836, 6837, 6838, 6839, 6840, 6841, 6842, 6843, 6844, 6845, 6846, 6847, 6848
6849, 6850, 6851, 6852, 6853, 6854, 6855, 6856, 6857, 6858, 6859, 6860, 6861, 6862, 6863, 6864
6865, 6866, 6867, 6868, 6869, 6870, 6871, 6872, 6873, 6874, 6875, 6876, 6877, 6878, 6879, 6880
6881, 6882, 6883, 6884, 6885, 6886, 6887, 6888, 6889, 6890, 6891, 6892, 6893, 6894, 6895, 6896
6897, 6898, 6899, 6900, 6901, 6902, 6903, 6904, 6905, 6906, 6907, 6908, 6909, 6910, 6911, 6912
6913, 6914, 6915, 6916, 6917, 6918, 6919, 6920, 6921, 6922, 6923, 6924, 6925, 6926, 6927, 6928
6929, 6930, 6931, 6932, 6933, 6934, 6935, 6936, 6937, 6938, 6939, 6940, 6941, 6942, 6943, 6944
6945, 6946, 6947, 6948, 6949, 6950, 6951, 6952, 6953, 6954, 6955, 6956, 6957, 6958, 6959, 6960
6961, 6962, 6963, 6964, 6965, 6966, 6967, 6968, 6969, 6970, 6971, 6972, 6973, 6974, 6975, 6976
6977, 6978, 6979, 6980, 6981, 6982, 6983, 6984, 6985, 6986, 6987, 6988, 6989, 6990, 6991, 6992
6993, 6994, 6995, 6996, 6997, 6998, 6999, 7000, 7001, 7002, 7003, 7004, 7005, 7006, 7007, 7008
7009, 7010, 7011, 7012, 7013, 7014, 7015, 7016, 7017, 7018, 7019, 7020, 7021, 7022, 7023, 7024
7025, 7026, 7027, 7028, 7029, 7030, 7031, 7032, 7033, 7034, 7035, 7036, 7037, 7038, 7039, 7040
7041, 7042, 7043, 7044, 7045, 7046, 7047, 7048, 7049, 7050, 7051, 7052, 7053, 7054, 7055, 7056
7057, 7058, 7059, 7060, 7061, 7062, 7063, 7064, 7065, 7066, 7067, 7068, 7069, 7070, 7071, 7072
7073, 7074, 7075, 7076, 7077, 7078, 7079, 7080, 7081, 7082, 7083, 7084, 7085, 7086, 7087, 7088
7089, 7090, 7091, 7092, 7093, 7094, 7095, 7096, 7097, 7098, 7099, 7100, 7101, 7102, 7103, 7104
7105, 7106, 7107, 7108, 7109, 7110, 7111, 7112, 7113, 7114, 7115, 7116, 7117, 7118, 7119, 7120
7121, 7122, 7123, 7124, 7125, 7126, 7127, 7128, 7129, 7130, 7131, 7132, 7133, 7134, 7135, 7136
7137, 7138, 7139, 7140, 7141, 7142, 7143, 7144, 7145, 7146, 7147, 7148, 7149, 7150, 7151, 7152
7153, 7154, 7155, 7156, 7157, 7158, 7159, 7160, 7161, 7162, 7163, 7164, 7165, 7166, 7167, 7168
7169, 7170, 7171, 7172, 7173, 7174, 7175, 7176, 7177, 7178, 7179, 7180, 7181, 7182, 7183, 7184
7185, 7186, 7187, 7188, 7189, 7190, 7191, 7192, 7193, 7194, 7195, 7196, 7197, 7198, 7199, 7200
7201, 7202, 7203, 7204, 7205, 7206, 7207, 7208, 7209, 7210, 7211, 7212, 7213, 7214, 7215, 7216
7217, 7218, 7219, 7220, 7221, 7222, 7223, 7224, 7225, 7226, 7227, 7228, 7229, 7230, 7231, 7232
7233, 7234, 7235, 7236, 7237, 7238, 7239, 7240, 7241, 7242, 7243, 7244, 7245, 7246, 7247, 7248
7249, 7250, 7251, 7252, 7253, 7254, 7255, 7256, 7257, 7258, 7259, 7260, 7261, 7262, 7263, 7264
7265, 7266, 7267, 7268, 7269, 7270, 7271, 7272, 7273, 7274, 7275, 7276, 7277, 7278, 7279, 7280
7281, 7282, 7283, 7284, 7285, 7286, 7287, 7288, 7289, 7290, 7291, 7292, 7293, 7294, 7295, 7296
7297, 7298, 7299, 7300, 7301, 7302, 7303, 7304, 7305, 7306, 7307, 7308, 7309, 7310, 7311, 7312
7313, 7314, 7315, 7316, 7317, 7318, 7319, 7320, 7321, 7322, 7323, 7324, 7325, 7326, 7327, 7328
7329, 7330, 7331, 7332, 7333, 7334, 7335, 7336, 7337, 7338, 7339, 7340, 7341, 7342, 7343, 7344
7345, 7346, 7347, 7348, 7349, 7350, 7351, 7352, 7353, 7354, 7355, 7356, 7357, 7358, 7359, 7360
7361, 7362, 7363, 7364, 7365, 7366, 7367, 7368, 7369, 7370, 7371, 7372, 7373, 7374, 7375, 7376
7377, 7378, 7379, 7380, 7381, 7382, 7383, 7384, 7385, 7386, 7387, 7388, 7389, 7390, 7391, 7392
7393, 7394, 7395, 7396, 7397, 7398, 7399, 7400, 7401, 7402, 7403, 7404, 7405, 7406, 7407, 7408
7409, 7410, 7411, 7412, 7413, 7414, 7415, 7416, 7417, 7418, 7419, 7420, 7421, 7422, 7423, 7424
7425, 7426, 7427, 7428, 7429, 7430, 7431, 7432, 7433, 7434, 7435, 7436, 7437, 7438, 7439, 7440
7441, 7442, 7443, 7444, 7445, 7446, 7447, 7448, 7449, 7450, 7451, 7452, 7453, 7454, 7455, 7456
7457, 7458, 7459, 7460, 7461, 7462, 7463, 7464, 7465, 7466, 7467, 7468, 7469, 7470, 7471, 7472
7473, 7474, 7475, 7476, 7477, 7478, 7479, 7480, 7481, 7482, 7483, 7484, 7485, 7486, 7487, 7488
7489, 7490, 7491, 7492, 7493, 7494, 7495, 7496, 7497, 7498, 7499, 7500, 7501, 7502, 7503, 7504
7505, 7506, 7507, 7508, 7509, 7510, 7511, 7512, 7513, 7514, 7515, 7516, 7517, 7518, 7519, 7520
7521, 7522, 7523, 7524, 7525, 7526, 7527, 7528, 7529, 7530, 7531, 7532, 7533, 7534, 7535, 7536
7537, 7538, 7539, 7540, 7541, 7542, 7543, 7544, 7545, 7546, 7547, 7548, 7549, 7550, 7551, 7552
7553, 7554, 7555, 7556, 7557, 7558, 7559, 7560, 7561, 7562, 7563, 7564, 7565, 7566, 7567, 7568
7569, 7570, 7571, 7572, 7573, 7574, 7575, 7576, 7577, 7578, 7579, 7580, 7581, 7582, 7583, 7584
7585, 7586, 7587, 7588, 7589, 7590, 7591, 7592, 7593, 7594, 7595, 7596, 7597, 7598, 7599, 7600
7601, 7602, 7603, 7604, 7605, 7606, 7607, 7608, 7609, 7610, 7611, 7612, 7613, 7614, 7615, 7616
7617, 7618, 7619, 7620, 7621, 7622, 7623, 7624, 7625, 7626, 7627, 7628, 7629, 7630, 7631, 7632
7633, 7634, 7635, 7636, 7637, 7638, 7639, 7640, 7641, 7642, 7643, 7644, 7645, 7646, 7647, 7648
7649, 7650, 7651, 7652, 7653, 7654, 7655, 7656, 7657, 7658, 7659, 7660, 7661, 7662, 7663, 7664
7665, 7666, 7667, 7668, 7669, 7670, 7671, 7672, 7673, 7674, 7675, 7676, 7677, 7678, 7679, 7680
7681, 7682, 7683, 7684, 7685, 7686, 7687, 7688, 7689, 7690, 7691, 7692, 7693, 7694, 7695, 7696
7697, 7698, 7699, 7700, 7701, 7702, 7703, 7704, 7705, 7706, 7707, 7708, 7709, 7710, 7711, 7712
7713, 7714, 7715, 7716, 7717, 7718, 7719, 7720, 7721, 7722, 7723, 7724, 7725, 7726, 7727, 7728
7729, 7730, 7731, 7732, 7733, 7734, 7735, 7736, 7737, 7738, 7739, 7740, 7741, 7742, 7743, 7744
7745, 7746, 7747, 7748, 7749, 7750, 7751, 7752, 7753, 7754, 7755, 7756, 7757, 7758, 7759, 7760
7761, 7762, 7763, 7764, 7765, 7766, 7767, 7768, 7769, 7770, 7771, 7772, 7773, 7774, 7775, 7776
7777, 7778, 7779, 7780, 7781, 7782, 7783, 7784, 7785, 7786, 7787, 7788, 7789, 7790, 7791, 7792
7793, 7794, 7795, 7796, 7797, 7798, 7799, 7800, 7801, 7802, 7803, 7804, 7805, 7806, 7807, 7808
7809, 7810, 7811, 7812, 7813, 7814, 7815, 7816, 7817, 7818, 7819, 7820, 7821, 7822, 7823, 7824
7825, 7826, 7827, 7828, 7829, 7830, 7831, 7832, 7833, 7834, 7835, 7836, 7837, 7838, 7839, 7840
7841, 7842, 7843, 7844, 7845, 7846, 7847, 7848, 7849, 7850, 7851, 7852, 7853, 7854, 7855, 7856
7857, 7858, 7859, 7860, 7861, 7862, 7863, 7864, 7865, 7866, 7867, 7868, 7869, 7870, 7871, 7872
7873, 7874, 7875, 7876, 7877, 7878, 7879, 7880, 7881, 7882, 7883, 7884, 7885, 7886, 7887, 7888
7889, 7890, 7891, 7892, 7893, 7894, 7895, 7896, 7897, 7898, 7899, 7900, 7901, 7902, 7903, 7904
7905, 7906, 7907, 7908, 7909, 7910, 7911, 7912, 7913, 7914, 7915, 7916, 7917, 7918, 7919, 7920
7921, 7922, 7923, 7924, 7925, 7926, 7927, 7928, 7929, 7930, 7931, 7932, 7933, 7934, 7935, 7936
7937, 7938, 7939, 7940, 7941, 7942, 7943, 7944, 7945, 7946, 7947, 7948, 7949, 7950, 7951, 7952
7953, 7954, 7955, 7956, 7957, 7958, 7959, 7960, 7961, 7962, 7963, 7964, 7965, 7966, 7967, 7968
7969, 7970, 7971, 7972, 7973, 7974, 7975, 7976, 7977, 7978, 7979, 7980, 7981, 7982, 7983, 7984
7985, 7986, 7987, 7988, 7989, 7990, 7991, 7992, 7993, 7994, 7995, 7996, 7997, 7998, 7999, 8000
8001, 8002, 8003, 8004, 8005, 8006, 8007, 8008, 8009, 8010, 8011, 8012, 8013, 8014, 8015, 8016
8017, 8018, 8019, 8020, 8021, 8022, 8023, 8024, 8025, 8026, 8027, 8028, 8029, 8030, 8031, 8032
8033, 8034, 8035, 8036, 8037, 8038, 8039, 8040, 8041, 8042, 8043, 8044, 8045, 8046, 8047, 8048
8049, 8050, 8051, 8052, 8053, 8054, 8055, 8056, 8057, 8058, 8059, 8060, 8061, 8062, 8063, 8064
8065, 8066, 8067, 8068, 8069, 8070, 8071, 8072, 8073, 8074, 8075, 8076, 8077, 8078, 8079, 8080
8081, 8082, 8083, 8084, 8085, 8086, 8087, 8088, 8089, 8090, 8091, 8092, 8093, 8094, 8095, 8096
8097, 8098, 8099, 8100, 8101, 8102, 8103, 8104, 8105, 8106, 8107, 8108, 8109, 8110, 8111, 8112
8113, 8114, 8115, 8116, 8117, 8118, 8119, 8120, 8121, 8122, 8123, 8124, 8125, 8126, 8127, 8128
8129, 8130, 8131, 8132, 8133, 8134, 8135, 8136, 8137, 8138, 8139, 8140, 8141, 8142, 8143, 8144
8145, 8146, 8147, 8148, 8149, 8150, 8151, 8152, 8153, 8154, 8155, 8156, 8157, 8158, 8159, 8160
8161, 8162, 8163, 8164, 8165, 8166, 8167, 8168, 8169, 8170, 8171, 8172, 8173, 8174, 8175, 8176
8177, 8178, 8179, 8180, 8181, 8182, 8183, 8184, 8185, 8186, 8187, 8188, 8189, 8190, 8191, 8192
8193, 8194, 8195, 8196, 8197, 8198, 8199, 8200, 8201, 8202, 8203, 8204, 8205, 8206, 8207, 8208
8209, 8210, 8211, 8212, 8213, 8214, 8215, 8216, 8217, 8218, 8219, 8220, 8221, 8222, 8223, 8224
8225, 8226, 8227, 8228, 8229, 8230, 8231, 8232, 8233, 8234, 8235, 8236, 8237, 8238, 8239, 8240
8241, 8242, 8243, 8244, 8245, 8246, 8247, 8248, 8249, 8250, 8251, 8252, 8253, 8254, 8255, 8256
8257, 8258, 8259, 8260, 8261, 8262, 8263, 8264, 8265, 8266, 8267, 8268, 8269, 8270, 8271, 8272
8273, 8274, 8275, 8276, 8277, 8278, 8279, 8280, 8281, 8282, 8283, 8284, 8285, 8286, 8287, 8288
8289, 8290, 8291, 8292, 8293, 8294, 8295, 8296, 8297, 8298, 8299, 8300, 8301, 8302, 8303, 8304
8305, 8306, 8307, 8308, 8309, 8310, 8311, 8312, 8313, 8314, 8315, 8316, 8317, 8318, 8319, 8320
8321, 8322, 8323, 8324, 8325, 8326, 8327, 8328, 8329, 8330, 8331, 8332, 8333, 8334, 8335, 8336
8337, 8338, 8339, 8340, 8341, 8342, 8343, 8344, 8345, 8346, 8347, 8348, 8349, 8350, 8351, 8352
8353, 8354, 8355, 8356, 8357, 8358, 8359, 8360, 8361, 8362, 8363, 8364, 8365, 8366, 8367, 8368
8369, 8370, 8371, 8372, 8373, 8374, 8375, 8376, 8377, 8378, 8379, 8380, 8381, 8382, 8383, 8384
8385, 8386, 8387, 8388, 8389, 8390, 8391, 8392, 8393, 8394, 8395, 8396, 8397, 8398, 8399, 8400
8401, 8402, 8403, 8404, 8405, 8406, 8407, 8408, 8409, 8410, 8411, 8412, 8413, 8414, 8415, 8416
8417, 8418, 8419, 8420, 8421, 8422, 8423, 8424, 8425, 8426, 8427, 8428, 8429, 8430, 8431, 8432
8433, 8434, 8435, 8436, 8437, 8438, 8439, 8440, 8441, 8442, 8443, 8444, 8445, 8446, 8447, 8448
8449, 8450, 8451, 8452, 8453, 8454, 8455, 8456, 8457, 8458, 8459, 8460, 8461, 8462, 8463, 8464
8465, 8466, 8467, 8468, 8469, 8470, 8471, 8472, 8473, 8474, 8475, 8476, 8477, 8478, 8479, 8480
8481, 8482, 8483, 8484, 8485, 8486, 8487, 8488, 8489, 8490, 8491, 8492, 8493, 8494, 8495, 8496
8497, 8498, 8499, 8500, 8501, 8502, 8503, 8504, 8505, 8506, 8507, 8508, 8509, 8510, 8511, 8512
8513, 8514, 8515, 8516, 8517, 8518, 8519, 8520, 8521, 8522, 8523, 8524, 8525, 8526, 8527, 8528
8529, 8530, 8531, 8532, 8533, 8534, 8535, 8536, 8537, 8538, 8539, 8540, 8541, 8542, 8543, 8544
8545, 8546, 8547, 8548, 8549, 8550, 8551, 8552, 8553, 8554, 8555, 8556, 8557, 8558, 8559, 8560
8561, 8562, 8563, 8564, 8565, 8566, 8567, 8568, 8569, 8570, 8571, 8572, 8573, 8574, 8575, 8576
8577, 8578, 8579, 8580, 8581, 8582, 8583, 8584, 8585, 8586, 8587, 8588, 8589, 8590, 8591, 8592
8593, 8594, 8595, 8596, 8597, 8598, 8599, 8600, 8601, 8602, 8603, 8604, 8605, 8606, 8607, 8608
8609, 8610, 8611, 8612, 8613, 8614, 8615, 8616, 8617, 8618, 8619, 8620, 8621, 8622, 8623, 8624
8625, 8626, 8627, 8628, 8629, 8630, 8631, 8632, 8633, 8634, 8635, 8636, 8637, 8638, 8639, 8640
8641, 8642, 8643, 8644, 8645, 8646, 8647, 8648, 8649, 8650, 8651, 8652, 8653, 8654, 8655, 8656
8657, 8658, 8659, 8660, 8661, 8662, 8663, 8664, 8665, 8666, 8667, 8668, 8669, 8670, 8671, 8672
8673, 8674, 8675, 8676, 8677, 8678, 8679, 8680, 8681, 8682, 8683, 8684, 8685, 8686, 8687, 8688
8689, 8690, 8691, 8692, 8693, 8694, 8695, 8696, 8697, 8698, 8699, 8700, 8701, 8702, 8703, 8704
8705, 8706, 8707, 8708, 8709, 8710, 8711, 8712, 8713, 8714, 8715, 8716, 8717, 8718, 8719, 8720
8721, 8722, 8723, 8724, 8725, 8726, 8727, 8728, 8729, 8730, 8731, 8732, 8733, 8734, 8735, 8736
8737, 8738, 8739, 8740, 8741, 8742, 8743, 8744, 8745, 8746, 8747, 8748, 8749, 8750, 8751, 8752
8753, 8754, 8755, 8756, 8757, 8758, 8759, 8760, 8761, 8762, 8763, 8764, 8765, 8766, 8767, 8768
8769, 8770, 8771, 8772, 8773, 8774, 8775, 8776, 8777, 8778, 8779, 8780, 8781, 8782, 8783, 8784
8785, 8786, 8787, 8788, 8789, 8790, 8791, 8792, 8793, 8794, 8795, 8796, 8797, 8798, 8799, 8800
8801, 8802, 8803, 8804, 8805, 8806, 8807, 8808, 8809, 8810, 8811, 8812, 8813, 8814, 8815, 8816
8817, 8818, 8819, 8820, 8821, 8822, 8823, 8824, 8825, 8826, 8827, 8828, 8829, 8830, 8831, 8832
8833, 8834, 8835, 8836, 8837, 8838, 8839, 8840, 8841, 8842, 8843, 8844, 8845, 8846, 8847, 8848
8849, 8850, 8851, 8852, 8853, 8854, 8855, 8856, 8857, 8858, 8859, 8860, 8861, 8862, 8863, 8864
8865, 8866, 8867, 8868, 8869, 8870, 8871, 8872, 8873, 8874, 8875, 8876, 8877, 8878, 8879, 8880
8881, 8882, 8883, 8884, 8885, 8886, 8887, 8888, 8889, 8890, 8891, 8892, 8893, 8894, 8895, 8896
8897, 8898, 8899, 8900, 8901, 8902, 8903, 8904, 8905, 8906, 8907, 8908, 8909, 8910, 8911, 8912
8913, 8914, 8915, 8916, 8917, 8918, 8919, 8920, 8921, 8922, 8923, 8924, 8925, 8926, 8927, 8928
8929, 8930, 8931, 8932, 8933, 8934, 8935, 8936, 8937, 8938, 8939, 8940, 8941, 8942, 8943, 8944
8945, 8946, 8947, 8948, 8949, 8950, 8951, 8952, 8953, 8954, 8955, 8956, 8957, 8958, 8959, 8960
8961, 8962, 8963, 8964, 8965, 8966, 8967, 8968, 8969, 8970, 8971, 8972, 8973, 8974, 8975, 8976
8977, 8978, 8979, 8980, 8981, 8982, 8983, 8984, 8985, 8986, 8987, 8988, 8989, 8990, 8991, 8992
8993, 8994, 8995, 8996, 8997, 8998, 8999, 9000, 9001, 9002, 9003, 9004, 9005, 9006, 9007, 9008
9009, 9010, 9011, 9012, 9013, 9014, 9015, 9016, 9017, 9018, 9019, 9020, 9021, 9022, 9023, 9024
9025, 9026, 9027, 9028, 9029, 9030, 9031, 9032, 9033, 9034, 9035, 9036, 9037, 9038, 9039, 9040
9041, 9042, 9043, 9044, 9045, 9046, 9047, 9048, 9049, 9050, 9051, 9052, 9053, 9054, 9055, 9056
9057, 9058, 9059, 9060, 9061, 9062, 9063, 9064, 9065, 9066, 9067, 9068, 9069, 9070, 9071, 9072
9073, 9074, 9075, 9076, 9077, 9078, 9079, 9080, 9081, 9082, 9083, 9084, 9085, 9086, 9087, 9088
9089, 9090, 9091, 9092, 9093, 9094, 9095, 9096, 9097, 9098, 9099, 9100, 9101, 9102, 9103, 9104
9105, 9106, 9107, 9108, 9109, 9110, 9111, 9112, 9113, 9114, 9115, 9116, 9117, 9118, 9119, 9120
9121, 9122, 9123, 9124, 9125, 9126, 9127, 9128, 9129, 9130, 9131, 9132, 9133, 9134, 9135, 9136
9137, 9138, 9139, 9140, 9141, 9142, 9143, 9144, 9145, 9146, 9147, 9148, 9149, 9150, 9151, 9152
9153, 9154, 9155, 9156, 9157, 9158, 9159, 9160, 9161, 9162, 9163, 9164, 9165, 9166, 9167, 9168
9169, 9170, 9171, 9172, 9173, 9174, 9175, 9176, 9177, 9178, 9179, 9180, 9181, 9182, 9183, 9184
9185, 9186, 9187, 9188, 9189, 9190, 9191, 9192, 9193, 9194, 9195, 9196, 9197, 9198, 9199, 9200
9201, 9202, 9203, 9204, 9205, 9206, 9207, 9208, 9209, 9210, 9211, 9212, 9213, 9214, 9215, 9216
9217, 9218, 9219, 9220, 9221, 9222, 9223, 9224, 9225, 9226, 9227, 9228, 9229, 9230, 9231, 9232
9233, 9234, 9235, 9236, 9237, 9238, 9239, 9240, 9241, 9242, 9243, 9244, 9245, 9246, 9247, 9248
9249, 9250, 9251, 9252, 9253, 9254, 9255, 9256, 9257, 9258, 9259, 9260, 9261, 9262, 9263, 9264
9265, 9266, 9267, 9268, 9269, 9270, 9271, 9272, 9273, 9274, 9275, 9276, 9277, 9278, 9279, 9280
9281, 9282, 9283, 9284, 9285, 9286, 9287, 9288, 9289, 9290, 9291, 9292, 9293, 9294, 9295, 9296
9297, 9298, 9299, 9300, 9301, 9302, 9303, 9304, 9305, 9306, 9307, 9308, 9309, 9310, 9311, 9312
9313, 9314, 9315, 9316, 9317, 9318, 9319, 9320, 9321, 9322, 9323, 9324, 9325, 9326, 9327, 9328
9329, 9330, 9331, 9332, 9333, 9334, 9335, 9336, 9337, 9338, 9339, 9340, 9341, 9342, 9343, 9344
9345, 9346, 9347, 9348, 9349, 9350, 9351, 9352, 9353, 9354, 9355, 9356, 9357, 9358, 9359, 9360
9361, 9362, 9363, 9364, 9365, 9366, 9367, 9368, 9369, 9370, 9371, 9372, 9373, 9374, 9375, 9376
9377, 9378, 9379, 9380, 9381, 9382, 9383, 9384, 9385, 9386, 9387, 9388, 9389, 9390, 9391, 9392
9393, 9394, 9395, 9396, 9397, 9398, 9399, 9400, 9401, 9402, 9403, 9404, 9405, 9406, 9407, 9408
9409, 9410, 9411, 9412, 9413, 9414, 9415, 9416, 9417, 9418, 9419, 9420, 9421, 9422, 9423, 9424
9425, 9426, 9427, 9428, 9429, 9430, 9431, 9432, 9433, 9434, 9435, 9436, 9437, 9438, 9439, 9440
9441, 9442, 9443, 9444, 9445, 9446, 9447, 9448, 9449, 9450, 9451, 9452, 9453, 9454, 9455, 9456
9457, 9458, 9459, 9460, 9461, 9462, 9463, 9464, 9465, 9466, 9467, 9468, 9469, 9470, 9471, 9472
9473, 9474, 9475, 9476, 9477, 9478, 9479, 9480, 9481, 9482, 9483, 9484, 9485, 9486, 9487, 9488
9489, 9490, 9491, 9492, 9493, 9494, 9495, 9496, 9497, 9498, 9499, 9500, 9501, 9502, 9503, 9504
9505, 9506, 9507, 9508, 9509, 9510, 9511, 9512, 9513, 9514, 9515, 9516, 9517, 9518, 9519, 9520
9521, 9522, 9523, 9524, 9525, 9526, 9527, 9528, 9529, 9530, 9531, 9532, 9533, 9534, 9535, 9536
9537, 9538, 9539, 9540, 9541, 9542, 9543, 9544, 9545, 9546, 9547, 9548, 9549, 9550, 9551, 9552
9553, 9554, 9555, 9556, 9557, 9558, 9559, 9560, 9561, 9562, 9563, 9564, 9565, 9566, 9567, 9568
9569, 9570, 9571, 9572, 9573, 9574, 9575, 9576, 9577, 9578, 9579, 9580, 9581, 9582, 9583, 9584
9585, 9586, 9587, 9588, 9589, 9590, 9591, 9592, 9593, 9594, 9595, 9596, 9597, 9598, 9599, 9600
9601, 9602, 9603, 9604, 9605, 9606, 9607, 9608, 9609, 9610, 9611, 9612, 9613, 9614, 9615, 9616
9617, 9618, 9619, 9620, 9621, 9622, 9623, 9624, 9625, 9626, 9627, 9628, 9629, 9630, 9631, 9632
9633, 9634, 9635, 9636, 9637, 9638, 9639, 9640, 9641, 9642, 9643, 9644, 9645, 9646, 9647, 9648
9649, 9650, 9651, 9652, 9653, 9654, 9655, 9656, 9657, 9658, 9659, 9660, 9661, 9662, 9663, 9664
9665, 9666, 9667, 9668, 9669, 9670, 9671, 9672, 9673, 9674, 9675, 9676, 9677, 9678, 9679, 9680
9681, 9682, 9683, 9684, 9685, 9686, 9687, 9688, 9689, 9690, 9691, 9692, 9693, 9694, 9695, 9696
9697, 9698, 9699, 9700, 9701, 9702, 9703, 9704, 9705, 9706, 9707, 9708, 9709, 9710, 9711, 9712
9713, 9714, 9715, 9716, 9717, 9718, 9719, 9720, 9721, 9722, 9723, 9724, 9725, 9726, 9727, 9728
9729, 9730, 9731, 9732, 9733, 9734, 9735, 9736, 9737, 9738, 9739, 9740, 9741, 9742, 9743, 9744
9745, 9746, 9747, 9748, 9749, 9750, 9751, 9752, 9753, 9754, 9755, 9756, 9757, 9758, 9759, 9760
9761, 9762, 9763, 9764, 9765, 9766, 9767, 9768, 9769, 9770, 9771, 9772, 9773, 9774, 9775, 9776
9777, 9778, 9779, 9780, 9781, 9782, 9783, 9784, 9785, 9786, 9787, 9788, 9789, 9790, 9791, 9792
9793, 9794, 9795, 9796, 9797, 9798, 9799, 9800, 9801, 9802, 9803, 9804, 9805, 9806, 9807, 9808
9809, 9810, 9811, 9812, 9813, 9814, 9815, 9816, 9817, 9818, 9819, 9820, 9821, 9822, 9823, 9824
9825, 9826, 9827, 9828, 9829, 9830, 9831, 9832, 9833, 9834, 9835, 9836, 9837, 9838, 9839, 9840
9841, 9842, 9843, 9844, 9845, 9846, 9847, 9848, 9849, 9850, 9851, 9852, 9853, 9854, 9855, 9856
9857, 9858, 9859, 9860, 9861, 9862, 9863, 9864, 9865, 9866, 9867, 9868, 9869, 9870, 9871, 9872
9873, 9874, 9875, 9876, 9877, 9878, 9879, 9880, 9881, 9882, 9883, 9884, 9885, 9886, 9887, 9888
9889, 9890, 9891, 9892, 9893, 9894, 9895, 9896, 9897, 9898, 9899, 9900, 9901, 9902, 9903, 9904
9905, 9906, 9907, 9908, 9909, 9910, 9911, 9912, 9913, 9914, 9915, 9916, 9917, 9918, 9919, 9920
9921, 9922, 9923, 9924, 9925, 9926, 9927, 9928, 9929, 9930, 9931, 9932, 9933, 9934, 9935, 9936
9937, 9938, 9939, 9940, 9941, 9942, 9943, 9944, 9945, 9946, 9947, 9948, 9949, 9950, 9951, 9952
9953, 9954, 9955, 9956, 9957, 9958, 9959, 9960, 9961, 9962, 9963, 9964, 9965, 9966, 9967, 9968
9969, 9970, 9971, 9972, 9973, 9974, 9975, 9976, 9977, 9978, 9979, 9980, 9981, 9982, 9983, 9984
9985, 9986, 9987, 9988, 9989, 9990, 9991, 9992, 9993, 9994, 9995, 9996, 9997, 9998, 9999, 10000
10001, 10002, 10003, 10004, 10005, 10006, 10007, 10008, 10009, 10010, 10011, 10012, 10013, 10014, 10015, 10016
10017, 10018, 10019, 10020, 10021, 10022, 10023, 10024, 10025, 10026, 10027, 10028, 10029, 10030, 10031, 10032
10033, 10034, 10035, 10036, 10037, 10038, 10039, 10040, 10041, 10042, 10043, 10044, 10045, 10046, 10047, 10048
10049, 10050, 10051, 10052, 10053, 10054, 10055, 10056, 10057, 10058, 10059, 10060, 10061, 10062, 10063, 10064
10065, 10066, 10067, 10068, 10069, 10070, 10071, 10072, 10073, 10074, 10075, 10076, 10077, 10078, 10079, 10080
10081, 10082, 10083, 10084, 10085, 10086, 10087, 10088, 10089, 10090, 10091, 10092, 10093, 10094, 10095, 10096
10097, 10098, 10099, 10100, 10101, 10102, 10103, 10104, 10105, 10106, 10107, 10108, 10109, 10110, 10111, 10112
10113, 10114, 10115, 10116, 10117, 10118, 10119, 10120, 10121, 10122, 10123, 10124, 10125, 10126, 10127, 10128
10129, 10130, 10131, 10132, 10133, 10134, 10135, 10136, 10137, 10138, 10139, 10140, 10141, 10142, 10143, 10144
10145, 10146, 10147, 10148, 10149, 10150, 10151, 10152, 10153, 10154, 10155, 10156, 10157, 10158, 10159, 10160
10161, 10162, 10163, 10164, 10165, 10166, 10167, 10168, 10169, 10170, 10171, 10172, 10173, 10174, 10175, 10176
10177, 10178, 10179, 10180, 10181, 10182, 10183, 10184, 10185, 10186, 10187, 10188, 10189, 10190, 10191, 10192
10193, 10194, 10195, 10196, 10197, 10198, 10199, 10200, 10201, 10202, 10203, 10204, 10205, 10206, 10207, 10208
10209, 10210, 10211, 10212, 10213, 10214, 10215, 10216, 10217, 10218, 10219, 10220, 10221, 10222, 10223, 10224
10225, 10226, 10227, 10228, 10229, 10230, 10231, 10232, 10233, 10234, 10235, 10236, 10237, 10238, 10239, 10240
10241, 10242, 10243, 10244, 10245, 10246, 10247, 10248, 10249, 10250, 10251, 10252, 10253, 10254, 10255, 10256
10257, 10258, 10259, 10260, 10261, 10262, 10263, 10264, 10265, 10266, 10267, 10268, 10269, 10270, 10271, 10272
10273, 10274, 10275, 10276, 10277, 10278, 10279, 10280, 10281, 10282, 10283, 10284, 10285, 10286, 10287, 10288
10289, 10290, 10291, 10292, 10293, 10294, 10295, 10296, 10297, 10298, 10299, 10300, 10301, 10302, 10303, 10304
10305, 10306, 10307, 10308, 10309, 10310, 10311, 10312, 10313, 10314, 10315, 10316, 10317, 10318, 10319, 10320
10321, 10322, 10323, 10324, 10325, 10326, 10327, 10328, 10329, 10330, 10331, 10332, 10333, 10334, 10335, 10336
10337, 10338, 10339, 10340, 10341, 10342, 10343, 10344, 10345, 10346, 10347, 10348, 10349, 10350, 10351, 10352
10353, 10354, 10355, 10356, 10357, 10358, 10359, 10360, 10361, 10362, 10363, 10364, 10365, 10366, 10367, 10368
10369, 10370, 10371, 10372, 10373, 10374, 10375, 10376, 10377, 10378, 10379, 10380, 10381, 10382, 10383, 10384
10385, 10386, 10387, 10388, 10389, 10390, 10391, 10392, 10393, 10394, 10395, 10396, 10397, 10398, 10399, 10400
10401, 10402, 10403, 10404, 10405, 10406, 10407, 10408, 10409, 10410, 10411, 10412, 10413, 10414, 10415, 10416
10417, 10418, 10419, 10420, 10421, 10422, 10423, 10424, 10425, 10426, 10427, 10428, 10429, 10430, 10431, 10432
10433, 10434, 10435, 10436, 10437, 10438, 10439, 10440, 10441, 10442, 10443, 10444, 10445, 10446, 10447, 10448
10449, 10450, 10451, 10452, 10453, 10454, 10455, 10456, 10457, 10458, 10459, 10460, 10461, 10462, 10463, 10464
10465, 10466, 10467, 10468, 10469, 10470, 10471, 10472, 10473, 10474, 10475, 10476, 10477, 10478, 10479, 10480
10481, 10482, 10483, 10484, 10485, 10486, 10487, 10488, 10489, 10490, 10491, 10492, 10493, 10494, 10495, 10496
10497, 10498, 10499, 10500, 10501, 10502, 10503, 10504, 10505, 10506, 10507, 10508, 10509, 10510, 10511, 10512
10513, 10514, 10515, 10516, 10517, 10518, 10519, 10520, 10521, 10522, 10523, 10524, 10525, 10526, 10527, 10528
10529, 10530, 10531, 10532, 10533, 10534, 10535, 10536, 10537, 10538, 10539, 10540, 10541, 10542, 10543, 10544
10545, 10546, 10547, 10548, 10549, 10550, 10551, 10552, 10553, 10554, 10555, 10556, 10557, 10558, 10559, 10560
10561, 10562, 10563, 10564, 10565, 10566, 10567, 10568, 10569, 10570, 10571, 10572, 10573, 10574, 10575, 10576
10577, 10578, 10579, 10580, 10581, 10582, 10583, 10584, 10585, 10586, 10587, 10588, 10589, 10590, 10591, 10592
10593, 10594, 10595, 10596, 10597, 10598, 10599, 10600, 10601, 10602, 10603, 10604, 10605, 10606, 10607, 10608
10609, 10610, 10611, 10612, 10613, 10614, 10615, 10616, 10617, 10618, 10619, 10620, 10621, 10622, 10623, 10624
10625, 10626, 10627, 10628, 10629, 10630, 10631, 10632, 10633, 10634, 10635, 10636, 10637, 10638, 10639, 10640
10641, 10642, 10643, 10644, 10645, 10646, 10647, 10648, 10649, 10650, 10651, 10652, 10653, 10654, 10655, 10656
10657, 10658, 10659, 10660, 10661, 10662, 10663, 10664, 10665, 10666, 10667, 10668, 10669, 10670, 10671, 10672
10673, 10674, 10675, 10676, 10677, 10678, 10679, 10680, 10681, 10682, 10683, 10684, 10685, 10686, 10687, 10688
10689, 10690, 10691, 10692, 10693, 10694, 10695, 10696, 10697, 10698, 10699, 10700, 10701, 10702, 10703, 10704
10705, 10706, 10707, 10708, 10709, 10710, 10711, 10712, 10713, 10714, 10715, 10716, 10717, 10718, 10719, 10720
10721, 10722, 10723, 10724, 10725, 10726, 10727, 10728, 10729, 10730, 10731, 10732, 10733, 10734, 10735, 10736
10737, 10738, 10739, 10740, 10741, 10742, 10743, 10744, 10745, 10746, 10747, 10748, 10749, 10750, 10751, 10752
10753, 10754, 10755, 10756, 10757, 10758, 10759, 10760, 10761, 10762, 10763, 10764, 10765, 10766, 10767, 10768
10769, 10770, 10771, 10772, 10773, 10774, 10775, 10776, 10777, 10778, 10779, 10780, 10781, 10782, 10783, 10784
10785, 10786, 10787, 10788, 10789, 10790, 10791, 10792, 10793, 10794, 10795, 10796, 10797, 10798, 10799, 10800
10801, 10802, 10803, 10804, 10805, 10806, 10807, 10808, 10809, 10810, 10811, 10812, 10813, 10814, 10815, 10816
10817, 10818, 10819, 10820, 10821, 10822, 10823, 10824, 10825, 10826, 10827, 10828, 10829, 10830, 10831, 10832
10833, 10834, 10835, 10836, 10837, 10838, 10839, 10840, 10841, 10842, 10843, 10844, 10845, 10846, 10847, 10848
10849, 10850, 10851, 10852, 10853, 10854, 10855, 10856, 10857, 10858, 10859, 10860, 10861, 10862, 10863, 10864
10865, 10866, 10867, 10868, 10869, 10870, 10871, 10872, 10873, 10874, 10875, 10876, 10877, 10878, 10879, 10880
10881, 10882, 10883, 10884, 10885, 10886, 10887, 10888, 10889, 10890, 10891, 10892, 10893, 10894, 10895, 10896
10897, 10898, 10899, 10900, 10901, 10902, 10903, 10904, 10905, 10906, 10907, 10908, 10909, 10910, 10911, 10912
10913, 10914, 10915, 10916, 10917, 10918, 10919, 10920, 10921, 10922, 10923, 10924, 10925, 10926, 10927, 10928
10929, 10930, 10931, 10932, 10933, 10934, 10935, 10936, 10937, 10938, 10939, 10940, 10941, 10942, 10943, 10944
10945, 10946, 10947, 10948, 10949, 10950, 10951, 10952, 10953, 10954, 10955, 10956, 10957, 10958, 10959, 10960
10961, 10962, 10963, 10964, 10965, 10966, 10967, 10968, 10969, 10970, 10971, 10972, 10973, 10974, 10975, 10976
10977, 10978, 10979, 10980, 10981, 10982, 10983, 10984, 10985, 10986, 10987, 10988, 10989, 10990, 10991, 10992
10993, 10994, 10995, 10996, 10997, 10998, 10999, 11000, 11001, 11002, 11003, 11004, 11005, 11006, 11007, 11008
11009, 11010, 11011, 11012, 11013, 11014, 11015, 11016, 11017, 11018, 11019, 11020, 11021, 11022, 11023, 11024
11025, 11026, 11027, 11028, 11029, 11030, 11031, 11032, 11033, 11034, 11035, 11036, 11037, 11038, 11039, 11040
11041, 11042, 11043, 11044, 11045, 11046, 11047, 11048, 11049, 11050, 11051, 11052, 11053, 11054, 11055, 11056
11057, 11058, 11059, 11060, 11061, 11062, 11063, 11064, 11065, 11066, 11067, 11068, 11069, 11070, 11071, 11072
11073, 11074, 11075, 11076, 11077, 11078, 11079, 11080, 11081, 11082, 11083, 11084, 11085, 11086, 11087, 11088
11089, 11090, 11091, 11092, 11093, 11094, 11095, 11096, 11097, 11098, 11099, 11100, 11101, 11102, 11103, 11104
11105, 11106, 11107, 11108, 11109, 11110, 11111, 11112, 11113, 11114, 11115, 11116, 11117, 11118, 11119, 11120
11121, 11122, 11123, 11124, 11125, 11126, 11127, 11128, 11129, 11130, 11131, 11132, 11133, 11134, 11135, 11136
11137, 11138, 11139, 11140, 11141, 11142, 11143, 11144, 11145, 11146, 11147, 11148, 11149, 11150, 11151, 11152
11153, 11154, 11155, 11156, 11157, 11158, 11159, 11160, 11161, 11162, 11163, 11164, 11165, 11166, 11167, 11168
11169, 11170, 11171, 11172, 11173, 11174, 11175, 11176, 11177, 11178, 11179, 11180, 11181, 11182, 11183, 11184
11185, 11186, 11187, 11188, 11189, 11190, 11191, 11192, 11193, 11194, 11195, 11196, 11197, 11198, 11199, 11200
11201, 11202, 11203, 11204, 11205, 11206, 11207, 11208, 11209, 11210, 11211, 11212, 11213, 11214, 11215, 11216
11217, 11218, 11219, 11220, 11221, 11222, 11223, 11224, 11225, 11226, 11227, 11228, 11229, 11230, 11231, 11232
11233, 11234, 11235, 11236, 11237, 11238, 11239, 11240, 11241, 11242, 11243, 11244, 11245, 11246, 11247, 11248
11249, 11250, 11251, 11252, 11253, 11254, 11255, 11256, 11257, 11258, 11259, 11260, 11261, 11262, 11263, 11264
11265, 11266, 11267, 11268, 11269, 11270, 11271, 11272, 11273, 11274, 11275, 11276, 11277, 11278, 11279, 11280
11281, 11282, 11283, 11284, 11285, 11286, 11287, 11288, 11289, 11290, 11291, 11292, 11293, 11294, 11295, 11296
11297, 11298, 11299, 11300, 11301, 11302, 11303, 11304, 11305, 11306, 11307, 11308, 11309, 11310, 11311, 11312
11313, 11314, 11315, 11316, 11317, 11318, 11319, 11320, 11321, 11322, 11323, 11324, 11325, 11326, 11327, 11328
11329, 11330, 11331, 11332, 11333, 11334, 11335, 11336, 11337, 11338, 11339, 11340, 11341, 11342, 11343, 11344
11345, 11346, 11347, 11348, 11349, 11350, 11351, 11352, 11353, 11354, 11355, 11356, 11357, 11358, 11359, 11360
11361, 11362, 11363, 11364, 11365, 11366, 11367, 11368, 11369, 11370, 11371, 11372, 11373, 11374, 11375, 11376
11377, 11378, 11379, 11380, 11381, 11382, 11383, 11384, 11385, 11386, 11387, 11388, 11389, 11390, 11391, 11392
11393, 11394, 11395, 11396, 11397, 11398, 11399, 11400, 11401, 11402, 11403, 11404, 11405, 11406, 11407, 11408
11409, 11410, 11411, 11412, 11413, 11414, 11415, 11416, 11417, 11418, 11419, 11420, 11421, 11422, 11423, 11424
11425, 11426, 11427, 11428, 11429, 11430, 11431, 11432, 11433, 11434, 11435, 11436, 11437, 11438, 11439, 11440
11441, 11442, 11443, 11444, 11445, 11446, 11447, 11448, 11449, 11450, 11451, 11452, 11453, 11454, 11455, 11456
11457, 11458, 11459, 11460, 11461, 11462, 11463, 11464, 11465, 11466, 11467, 11468, 11469, 11470, 11471, 11472
11473, 11474, 11475, 11476, 11477, 11478, 11479, 11480, 11481, 11482, 11483, 11484, 11485, 11486, 11487, 11488
11489, 11490, 11491, 11492, 11493, 11494, 11495, 11496, 11497, 11498, 11499, 11500, 11501, 11502, 11503, 11504
11505, 11506, 11507, 11508, 11509, 11510, 11511, 11512, 11513, 11514, 11515, 11516, 11517, 11518, 11519, 11520
11521, 11522, 11523, 11524, 11525, 11526, 11527, 11528, 11529, 11530, 11531, 11532, 11533, 11534, 11535, 11536
11537, 11538, 11539, 11540, 11541, 11542, 11543, 11544, 11545, 11546, 11547, 11548, 11549, 11550, 11551, 11552
11553, 11554, 11555, 11556, 11557, 11558, 11559, 11560, 11561, 11562, 11563, 11564, 11565, 11566, 11567, 11568
11569, 11570, 11571, 11572, 11573, 11574, 11575, 11576, 11577, 11578, 11579, 11580, 11581, 11582, 11583, 11584
11585, 11586, 11587, 11588, 11589, 11590, 11591, 11592, 11593, 11594, 11595, 11596, 11597, 11598, 11599, 11600
11601, 11602, 11603, 11604, 11605, 11606, 11607, 11608, 11609, 11610, 11611, 11612, 11613, 11614, 11615, 11616
11617, 11618, 11619, 11620, 11621, 11622, 11623, 11624, 11625, 11626, 11627, 11628, 11629, 11630, 11631, 11632
11633, 11634, 11635, 11636, 11637, 11638, 11639, 11640, 11641, 11642, 11643, 11644, 11645, 11646, 11647, 11648
11649, 11650, 11651, 11652, 11653, 11654, 11655, 11656, 11657, 11658, 11659, 11660, 11661, 11662, 11663, 11664
11665, 11666, 11667, 11668, 11669, 11670, 11671, 11672, 11673, 11674, 11675, 11676, 11677, 11678, 11679, 11680
11681, 11682, 11683, 11684, 11685, 11686, 11687, 11688, 11689, 11690, 11691, 11692, 11693, 11694, 11695, 11696
11697, 11698, 11699, 11700, 11701, 11702, 11703, 11704, 11705, 11706, 11707, 11708, 11709, 11710, 11711, 11712
11713, 11714, 11715, 11716, 11717, 11718, 11719, 11720, 11721, 11722, 11723, 11724, 11725, 11726, 11727, 11728
11729, 11730, 11731, 11732, 11733, 11734, 11735, 11736, 11737, 11738, 11739, 11740, 11741, 11742, 11743, 11744
11745, 11746, 11747, 11748, 11749, 11750, 11751, 11752, 11753, 11754, 11755, 11756, 11757, 11758, 11759, 11760
11761, 11762, 11763, 11764, 11765, 11766, 11767, 11768, 11769, 11770, 11771, 11772, 11773, 11774, 11775, 11776
11777, 11778, 11779, 11780, 11781, 11782, 11783, 11784, 11785, 11786, 11787, 11788, 11789, 11790, 11791, 11792
11793, 11794, 11795, 11796, 11797, 11798, 11799, 11800, 11801, 11802, 11803, 11804, 11805, 11806, 11807, 11808
11809, 11810, 11811, 11812, 11813, 11814, 11815, 11816, 11817, 11818, 11819, 11820, 11821, 11822, 11823, 11824
11825, 11826, 11827, 11828, 11829, 11830, 11831, 11832, 11833, 11834, 11835, 11836, 11837, 11838, 11839, 11840
11841, 11842, 11843, 11844, 11845, 11846, 11847, 11848, 11849, 11850, 11851, 11852, 11853, 11854, 11855, 11856
11857, 11858, 11859, 11860, 11861, 11862, 11863, 11864, 11865, 11866, 11867, 11868, 11869, 11870, 11871, 11872
11873, 11874, 11875, 11876, 11877, 11878, 11879, 11880, 11881, 11882, 11883, 11884, 11885, 11886, 11887, 11888
11889, 11890, 11891, 11892, 11893, 11894, 11895, 11896, 11897, 11898, 11899, 11900, 11901, 11902, 11903, 11904
11905, 11906, 11907, 11908, 11909, 11910, 11911, 11912, 11913, 11914, 11915, 11916, 11917, 11918, 11919, 11920
11921, 11922, 11923, 11924, 11925, 11926, 11927, 11928, 11929, 11930, 11931, 11932, 11933, 11934, 11935, 11936
11937, 11938, 11939, 11940, 11941, 11942, 11943, 11944, 11945, 11946, 11947, 11948, 11949, 11950, 11951, 11952
11953, 11954, 11955, 11956, 11957, 11958, 11959, 11960, 11961, 11962, 11963, 11964, 11965, 11966, 11967, 11968
11969, 11970, 11971, 11972, 11973, 11974, 11975, 11976, 11977, 11978, 11979, 11980, 11981, 11982, 11983, 11984
11985, 11986, 11987, 11988, 11989, 11990, 11991, 11992, 11993, 11994, 11995, 11996, 11997, 11998, 11999, 12000
12001, 12002, 12003, 12004, 12005, 12006, 12007, 12008, 12009, 12010, 12011, 12012, 12013, 12014, 12015, 12016
12017, 12018, 12019, 12020, 12021, 12022, 12023, 12024, 12025, 12026, 12027, 12028, 12029, 12030, 12031, 12032
12033, 12034, 12035, 12036, 12037, 12038, 12039, 12040, 12041, 12042, 12043, 12044, 12045, 12046, 12047, 12048
12049, 12050, 12051, 12052, 12053, 12054, 12055, 12056, 12057, 12058, 12059, 12060, 12061, 12062, 12063, 12064
12065, 12066, 12067, 12068, 12069, 12070, 12071, 12072, 12073, 12074, 12075, 12076, 12077, 12078, 12079, 12080
12081, 12082, 12083, 12084, 12085, 12086, 12087, 12088, 12089, 12090, 12091, 12092, 12093, 12094, 12095, 12096
12097, 12098, 12099, 12100, 12101, 12102, 12103, 12104, 12105, 12106, 12107, 12108, 12109, 12110, 12111, 12112
12113, 12114, 12115, 12116, 12117, 12118, 12119, 12120, 12121, 12122, 12123, 12124, 12125, 12126, 12127, 12128
12129, 12130, 12131, 12132, 12133, 12134, 12135, 12136, 12137, 12138, 12139, 12140, 12141, 12142, 12143, 12144
12145, 12146, 12147, 12148, 12149, 12150, 12151, 12152, 12153, 12154, 12155, 12156, 12157, 12158, 12159, 12160
12161, 12162, 12163, 12164, 12165, 12166, 12167, 12168, 12169, 12170, 12171, 12172, 12173, 12174, 12175, 12176
12177, 12178, 12179, 12180, 12181, 12182, 12183, 12184, 12185, 12186, 12187, 12188, 12189, 12190, 12191, 12192
12193, 12194, 12195, 12196, 12197, 12198, 12199, 12200, 12201, 12202, 12203, 12204, 12205, 12206, 12207, 12208
12209, 12210, 12211, 12212, 12213, 12214, 12215, 12216, 12217, 12218, 12219, 12220, 12221, 12222, 12223, 12224
12225, 12226, 12227, 12228, 12229, 12230, 12231, 12232, 12233, 12234, 12235, 12236, 12237, 12238, 12239, 12240
12241, 12242, 12243, 12244, 12245, 12246, 12247, 12248, 12249, 12250, 12251, 12252, 12253, 12254, 12255, 12256
12257, 12258, 12259, 12260, 12261, 12262, 12263, 12264, 12265, 12266, 12267, 12268, 12269, 12270, 12271, 12272
12273, 12274, 12275, 12276, 12277, 12278, 12279, 12280, 12281, 12282, 12283, 12284, 12285, 12286, 12287, 12288
12289, 12290, 12291, 12292, 12293, 12294, 12295, 12296, 12297, 12298, 12299, 12300, 12301, 12302, 12303, 12304
12305, 12306, 12307, 12308, 12309, 12310, 12311, 12312, 12313, 12314, 12315, 12316, 12317, 12318, 12319, 12320
12321, 12322, 12323, 12324, 12325, 12326, 12327, 12328, 12329, 12330, 12331, 12332, 12333, 12334, 12335, 12336
12337, 12338, 12339, 12340, 12341, 12342, 12343, 12344, 12345, 12346, 12347, 12348, 12349, 12350, 12351, 12352
12353, 12354, 12355, 12356, 12357, 12358, 12359, 12360, 12361, 12362, 12363, 12364, 12365, 12366, 12367, 12368
12369, 12370, 12371, 12372, 12373, 12374, 12375, 12376, 12377, 12378, 12379, 12380, 12381, 12382, 12383, 12384
12385, 12386, 12387, 12388, 12389, 12390, 12391, 12392, 12393, 12394, 12395, 12396, 12397, 12398, 12399, 12400
12401, 12402, 12403, 12404, 12405, 12406, 12407, 12408, 12409, 12410, 12411, 12412, 12413, 12414, 12415, 12416
12417, 12418, 12419, 12420, 12421, 12422, 12423, 12424, 12425, 12426, 12427, 12428, 12429, 12430, 12431, 12432
12433, 12434, 12435, 12436, 12437, 12438, 12439, 12440, 12441, 12442, 12443, 12444, 12445, 12446, 12447, 12448
12449, 12450, 12451, 12452, 12453, 12454, 12455, 12456, 12457, 12458, 12459, 12460, 12461, 12462, 12463, 12464
12465, 12466, 12467, 12468, 12469, 12470, 12471, 12472, 12473, 12474, 12475, 12476, 12477, 12478, 12479, 12480
12481, 12482, 12483, 12484, 12485, 12486, 12487, 12488, 12489, 12490, 12491, 12492, 12493, 12494, 12495, 12496
12497, 12498, 12499, 12500, 12501, 12502, 12503, 12504, 12505, 12506, 12507, 12508, 12509, 12510, 12511, 12512
12513, 12514, 12515, 12516, 12517, 12518, 12519, 12520, 12521, 12522, 12523, 12524, 12525, 12526, 12527, 12528
12529, 12530, 12531, 12532, 12533, 12534, 12535, 12536, 12537, 12538, 12539, 12540, 12541, 12542, 12543, 12544
12545, 12546, 12547, 12548, 12549, 12550, 12551, 12552, 12553, 12554, 12555, 12556, 12557, 12558, 12559, 12560
12561, 12562, 12563, 12564, 12565, 12566, 12567, 12568, 12569, 12570, 12571, 12572, 12573, 12574, 12575, 12576
12577, 12578, 12579, 12580, 12581, 12582, 12583, 12584, 12585, 12586, 12587, 12588, 12589, 12590, 12591, 12592
12593, 12594, 12595, 12596, 12597, 12598, 12599, 12600, 12601, 12602, 12603, 12604, 12605, 12606, 12607, 12608
12609, 12610, 12611, 12612, 12613, 12614, 12615, 12616, 12617, 12618, 12619, 12620, 12621, 12622, 12623, 12624
12625, 12626, 12627, 12628, 12629, 12630, 12631, 12632, 12633, 12634, 12635, 12636, 12637, 12638, 12639, 12640
12641, 12642, 12643, 12644, 12645, 12646, 12647, 12648, 12649, 12650, 12651, 12652, 12653, 12654, 12655, 12656
12657, 12658, 12659, 12660, 12661, 12662, 12663, 12664, 12665, 12666, 12667, 12668, 12669, 12670, 12671, 12672
12673, 12674, 12675, 12676, 12677, 12678, 12679, 12680, 12681, 12682, 12683, 12684, 12685, 12686, 12687, 12688
12689, 12690, 12691, 12692, 12693, 12694, 12695, 12696, 12697, 12698, 12699, 12700, 12701, 12702, 12703, 12704
12705, 12706, 12707, 12708, 12709, 12710, 12711, 12712, 12713, 12714, 12715, 12716, 12717, 12718, 12719, 12720
12721, 12722, 12723, 12724, 12725, 12726, 12727, 12728, 12729, 12730, 12731, 12732, 12733, 12734, 12735, 12736
12737, 12738, 12739, 12740, 12741, 12742, 12743, 12744, 12745, 12746, 12747, 12748, 12749, 12750, 12751, 12752
12753, 12754, 12755, 12756, 12757, 12758, 12759, 12760, 12761, 12762, 12763, 12764, 12765, 12766, 12767, 12768
12769, 12770, 12771, 12772, 12773, 12774, 12775, 12776, 12777, 12778, 12779, 12780, 12781, 12782, 12783, 12784
12785, 12786, 12787, 12788, 12789, 12790, 12791, 12792, 12793, 12794, 12795, 12796, 12797, 12798, 12799, 12800
12801, 12802, 12803, 12804, 12805, 12806, 12807, 12808, 12809, 12810, 12811, 12812, 12813, 12814, 12815, 12816
12817, 12818, 12819, 12820, 12821, 12822, 12823, 12824, 12825, 12826, 12827, 12828, 12829, 12830, 12831, 12832
12833, 12834, 12835, 12836, 12837, 12838, 12839, 12840, 12841, 12842, 12843, 12844, 12845, 12846, 12847, 12848
12849, 12850, 12851, 12852, 12853, 12854, 12855, 12856, 12857, 12858, 12859, 12860, 12861, 12862, 12863, 12864
12865, 12866, 12867, 12868, 12869, 12870, 12871, 12872, 12873, 12874, 12875, 12876, 12877, 12878, 12879, 12880
12881, 12882, 12883, 12884, 12885, 12886, 12887, 12888, 12889, 12890, 12891, 12892, 12893, 12894, 12895, 12896
12897, 12898, 12899, 12900, 12901, 12902, 12903, 12904, 12905, 12906, 12907, 12908, 12909, 12910, 12911, 12912
12913, 12914, 12915, 12916, 12917, 12918, 12919, 12920, 12921, 12922, 12923, 12924, 12925, 12926, 12927, 12928
12929, 12930, 12931, 12932, 12933, 12934, 12935, 12936, 12937, 12938, 12939, 12940, 12941, 12942, 12943, 12944
12945, 12946, 12947, 12948, 12949, 12950, 12951, 12952, 12953, 12954, 12955, 12956, 12957, 12958, 12959, 12960
12961, 12962, 12963, 12964, 12965, 12966, 12967, 12968, 12969, 12970, 12971, 12972, 12973, 12974, 12975, 12976
12977, 12978, 12979, 12980, 12981, 12982, 12983, 12984, 12985, 12986, 12987, 12988, 12989, 12990, 12991, 12992
12993, 12994, 12995, 12996, 12997, 12998, 12999, 13000, 13001, 13002, 13003, 13004, 13005, 13006, 13007, 13008
13009, 13010, 13011, 13012, 13013, 13014, 13015, 13016, 13017, 13018, 13019, 13020, 13021, 13022, 13023, 13024
13025, 13026, 13027, 13028, 13029, 13030, 13031, 13032, 13033, 13034, 13035, 13036, 13037, 13038, 13039, 13040
13041, 13042, 13043, 13044, 13045, 13046, 13047, 13048, 13049, 13050, 13051, 13052, 13053, 13054, 13055, 13056
13057, 13058, 13059, 13060, 13061, 13062, 13063, 13064, 13065, 13066, 13067, 13068, 13069, 13070, 13071, 13072
13073, 13074, 13075, 13076, 13077, 13078, 13079, 13080, 13081, 13082, 13083, 13084, 13085, 13086, 13087, 13088
13089, 13090, 13091, 13092, 13093, 13094, 13095, 13096, 13097, 13098, 13099, 13100, 13101, 13102, 13103, 13104
13105, 13106, 13107, 13108, 13109, 13110, 13111, 13112, 13113, 13114, 13115, 13116, 13117, 13118, 13119, 13120
13121, 13122, 13123, 13124, 13125, 13126, 13127, 13128, 13129, 13130, 13131, 13132, 13133, 13134, 13135, 13136
13137, 13138, 13139, 13140, 13141, 13142, 13143, 13144, 13145, 13146, 13147, 13148, 13149, 13150, 13151, 13152
13153, 13154, 13155, 13156, 13157, 13158, 13159, 13160, 13161, 13162, 13163, 13164, 13165, 13166, 13167, 13168
13169, 13170, 13171, 13172, 13173, 13174, 13175, 13176, 13177, 13178, 13179, 13180, 13181, 13182, 13183, 13184
13185, 13186, 13187, 13188, 13189, 13190, 13191, 13192, 13193, 13194, 13195, 13196, 13197, 13198, 13199, 13200
13201, 13202, 13203, 13204, 13205, 13206, 13207, 13208, 13209, 13210, 13211, 13212, 13213, 13214, 13215, 13216
13217, 13218, 13219, 13220, 13221, 13222, 13223, 13224, 13225, 13226, 13227, 13228, 13229, 13230, 13231, 13232
13233, 13234, 13235, 13236, 13237, 13238, 13239, 13240, 13241, 13242, 13243, 13244, 13245, 13246, 13247, 13248
13249, 13250, 13251, 13252, 13253, 13254, 13255, 13256, 13257, 13258, 13259, 13260, 13261, 13262, 13263, 13264
13265, 13266, 13267, 13268, 13269, 13270, 13271, 13272, 13273, 13274, 13275, 13276, 13277, 13278, 13279, 13280
13281, 13282, 13283, 13284, 13285, 13286, 13287, 13288, 13289, 13290, 13291, 13292, 13293, 13294, 13295, 13296
13297, 13298, 13299, 13300, 13301, 13302, 13303, 13304, 13305, 13306, 13307, 13308, 13309, 13310, 13311, 13312
13313, 13314, 13315, 13316, 13317, 13318, 13319, 13320, 13321, 13322, 13323, 13324, 13325, 13326, 13327, 13328
13329, 13330, 13331, 13332, 13333, 13334, 13335, 13336, 13337, 13338, 13339, 13340, 13341, 13342, 13343, 13344
13345, 13346, 13347, 13348, 13349, 13350, 13351, 13352, 13353, 13354, 13355, 13356, 13357, 13358, 13359, 13360
13361, 13362, 13363, 13364, 13365, 13366, 13367, 13368, 13369, 13370, 13371, 13372, 13373, 13374, 13375, 13376
13377, 13378, 13379, 13380, 13381, 13382, 13383, 13384, 13385, 13386, 13387, 13388, 13389, 13390, 13391, 13392
13393, 13394, 13395, 13396, 13397, 13398, 13399, 13400, 13401, 13402, 13403, 13404, 13405, 13406, 13407, 13408
13409, 13410, 13411, 13412, 13413, 13414, 13415, 13416, 13417, 13418, 13419, 13420, 13421, 13422, 13423, 13424
13425, 13426, 13427, 13428, 13429, 13430, 13431, 13432, 13433, 13434, 13435, 13436, 13437, 13438, 13439, 13440
13441, 13442, 13443, 13444, 13445, 13446, 13447, 13448, 13449, 13450, 13451, 13452, 13453, 13454, 13455, 13456
13457, 13458, 13459, 13460, 13461, 13462, 13463, 13464, 13465, 13466, 13467, 13468, 13469, 13470, 13471, 13472
13473, 13474, 13475, 13476, 13477, 13478, 13479, 13480, 13481, 13482, 13483, 13484, 13485, 13486, 13487, 13488
13489, 13490, 13491, 13492, 13493, 13494, 13495, 13496, 13497, 13498, 13499, 13500, 13501, 13502, 13503, 13504
13505, 13506, 13507, 13508, 13509, 13510, 13511, 13512, 13513, 13514, 13515, 13516, 13517, 13518, 13519, 13520
13521, 13522, 13523, 13524, 13525, 13526, 13527, 13528, 13529, 13530, 13531, 13532, 13533, 13534, 13535, 13536
13537, 13538, 13539, 13540, 13541, 13542, 13543, 13544, 13545, 13546, 13547, 13548, 13549, 13550, 13551, 13552
13553, 13554, 13555, 13556, 13557, 13558, 13559, 13560, 13561, 13562, 13563, 13564, 13565, 13566, 13567, 13568
13569, 13570, 13571, 13572, 13573, 13574, 13575, 13576, 13577, 13578, 13579, 13580, 13581, 13582, 13583, 13584
13585, 13586, 13587, 13588, 13589, 13590, 13591, 13592, 13593, 13594, 13595, 13596, 13597, 13598, 13599, 13600
13601, 13602, 13603, 13604, 13605, 13606, 13607, 13608, 13609, 13610, 13611, 13612, 13613, 13614, 13615, 13616
13617, 13618, 13619, 13620, 13621, 13622, 13623, 13624, 13625, 13626, 13627, 13628, 13629, 13630, 13631, 13632
13633, 13634, 13635, 13636, 13637, 13638, 13639, 13640, 13641, 13642, 13643, 13644, 13645, 13646, 13647, 13648
13649, 13650, 13651, 13652, 13653, 13654, 13655, 13656, 13657, 13658, 13659, 13660, 13661, 13662, 13663, 13664
13665, 13666, 13667, 13668, 13669, 13670, 13671, 13672, 13673, 13674, 13675, 13676, 13677, 13678, 13679, 13680
13681, 13682, 13683, 13684, 13685, 13686, 13687, 13688, 13689, 13690, 13691, 13692, 13693, 13694, 13695, 13696
13697, 13698, 13699, 13700, 13701, 13702, 13703, 13704, 13705, 13706, 13707, 13708, 13709, 13710, 13711, 13712
13713, 13714, 13715, 13716, 13717, 13718, 13719, 13720, 13721, 13722, 13723, 13724, 13725, 13726, 13727, 13728
13729, 13730, 13731, 13732, 13733, 13734, 13735, 13736, 13737, 13738, 13739, 13740, 13741, 13742, 13743, 13744
13745, 13746, 13747, 13748, 13749, 13750, 13751, 13752, 13753, 13754, 13755, 13756, 13757, 13758, 13759, 13760
13761, 13762, 13763, 13764, 13765, 13766, 13767, 13768, 13769, 13770, 13771, 13772, 13773, 13774, 13775, 13776
13777, 13778, 13779, 13780, 13781, 13782, 13783, 13784, 13785, 13786, 13787, 13788, 13789, 13790, 13791, 13792
13793, 13794, 13795, 13796, 13797, 13798, 13799, 13800, 13801, 13802, 13803, 13804, 13805, 13806, 13807, 13808
13809, 13810, 13811, 13812, 13813, 13814, 13815, 13816, 13817, 13818, 13819, 13820, 13821, 13822, 13823, 13824
13825, 13826, 13827, 13828, 13829, 13830, 13831, 13832, 13833, 13834, 13835, 13836, 13837, 13838, 13839, 13840
13841, 13842, 13843, 13844, 13845, 13846, 13847, 13848, 13849, 13850, 13851, 13852, 13853, 13854, 13855, 13856
13857, 13858, 13859, 13860, 13861, 13862, 13863, 13864, 13865, 13866, 13867, 13868, 13869, 13870, 13871, 13872
13873, 13874, 13875, 13876, 13877, 13878, 13879, 13880, 13881, 13882, 13883, 13884, 13885, 13886, 13887, 13888
13889, 13890, 13891, 13892, 13893, 13894, 13895, 13896, 13897, 13898, 13899, 13900, 13901, 13902, 13903, 13904
13905, 13906, 13907, 13908, 13909, 13910, 13911, 13912, 13913, 13914, 13915, 13916, 13917, 13918, 13919, 13920
13921, 13922, 13923, 13924, 13925, 13926, 13927, 13928, 13929, 13930, 13931, 13932, 13933, 13934, 13935, 13936
13937, 13938, 13939, 13940, 13941, 13942, 13943, 13944, 13945, 13946, 13947, 13948, 13949, 13950, 13951, 13952
13953, 13954, 13955, 13956, 13957, 13958, 13959, 13960, 13961, 13962, 13963, 13964, 13965, 13966, 13967, 13968
13969, 13970, 13971, 13972, 13973, 13974, 13975, 13976, 13977, 13978, 13979, 13980, 13981, 13982, 13983, 13984
13985, 13986, 13987, 13988, 13989, 13990, 13991, 13992, 13993, 13994, 13995, 13996, 13997, 13998, 13999, 14000
14001, 14002, 14003, 14004, 14005, 14006, 14007, 14008, 14009, 14010, 14011, 14012, 14013, 14014, 14015, 14016
14017, 14018, 14019, 14020, 14021, 14022, 14023, 14024, 14025, 14026, 14027, 14028, 14029, 14030, 14031, 14032
14033, 14034, 14035, 14036, 14037, 14038, 14039, 14040, 14041, 14042, 14043, 14044, 14045, 14046, 14047, 14048
14049, 14050, 14051, 14052, 14053, 14054, 14055, 14056, 14057, 14058, 14059, 14060, 14061, 14062, 14063, 14064
14065, 14066, 14067, 14068, 14069, 14070, 14071, 14072, 14073, 14074, 14075, 14076, 14077, 14078, 14079, 14080
14081, 14082, 14083, 14084, 14085, 14086, 14087, 14088, 14089, 14090, 14091, 14092, 14093, 14094, 14095, 14096
14097, 14098, 14099, 14100, 14101, 14102, 14103, 14104, 14105, 14106, 14107, 14108, 14109, 14110, 14111, 14112
14113, 14114, 14115, 14116, 14117, 14118, 14119, 14120, 14121, 14122, 14123, 14124, 14125, 14126, 14127, 14128
14129, 14130, 14131, 14132, 14133, 14134, 14135, 14136, 14137, 14138, 14139, 14140, 14141, 14142, 14143, 14144
14145, 14146, 14147, 14148, 14149, 14150, 14151, 14152, 14153, 14154, 14155, 14156, 14157, 14158, 14159, 14160
14161, 14162, 14163, 14164, 14165, 14166, 14167, 14168, 14169, 14170, 14171, 14172, 14173, 14174, 14175, 14176
14177, 14178, 14179, 14180, 14181, 14182, 14183, 14184, 14185, 14186, 14187, 14188, 14189, 14190, 14191, 14192
14193, 14194, 14195, 14196, 14197, 14198, 14199, 14200, 14201, 14202, 14203, 14204, 14205, 14206, 14207, 14208
14209, 14210, 14211, 14212, 14213, 14214, 14215, 14216, 14217, 14218, 14219, 14220, 14221, 14222, 14223, 14224
14225, 14226, 14227, 14228, 14229, 14230, 14231, 14232, 14233, 14234, 14235, 14236, 14237, 14238, 14239, 14240
14241, 14242, 14243, 14244, 14245, 14246, 14247, 14248, 14249, 14250, 14251, 14252, 14253, 14254, 14255, 14256
14257, 14258, 14259, 14260, 14261, 14262, 14263, 14264, 14265, 14266, 14267, 14268, 14269, 14270, 14271, 14272
14273, 14274, 14275, 14276, 14277, 14278, 14279, 14280, 14281, 14282, 14283, 14284, 14285, 14286, 14287, 14288
14289, 14290, 14291, 14292, 14293, 14294, 14295, 14296, 14297, 14298, 14299, 14300, 14301, 14302, 14303, 14304
14305, 14306, 14307, 14308, 14309, 14310, 14311, 14312, 14313, 14314, 14315, 14316, 14317, 14318, 14319, 14320
14321, 14322, 14323, 14324, 14325, 14326, 14327, 14328, 14329, 14330, 14331, 14332, 14333, 14334, 14335, 14336
14337, 14338, 14339, 14340, 14341, 14342, 14343, 14344, 14345, 14346, 14347, 14348, 14349, 14350, 14351, 14352
14353, 14354, 14355, 14356, 14357, 14358, 14359, 14360, 14361, 14362, 14363, 14364, 14365, 14366, 14367, 14368
14369, 14370, 14371, 14372, 14373, 14374, 14375, 14376, 14377, 14378, 14379, 14380, 14381, 14382, 14383, 14384
14385, 14386, 14387, 14388, 14389, 14390, 14391, 14392, 14393, 14394, 14395, 14396, 14397, 14398, 14399, 14400
14401, 14402, 14403, 14404, 14405, 14406, 14407, 14408, 14409, 14410, 14411, 14412, 14413, 14414, 14415, 14416
14417, 14418, 14419, 14420, 14421, 14422, 14423, 14424, 14425, 14426, 14427, 14428, 14429, 14430, 14431, 14432
14433, 14434, 14435, 14436, 14437, 14438, 14439, 14440, 14441, 14442, 14443, 14444, 14445, 14446, 14447, 14448
14449, 14450, 14451, 14452, 14453, 14454, 14455, 14456, 14457, 14458, 14459, 14460, 14461, 14462, 14463, 14464
14465, 14466, 14467, 14468, 14469, 14470, 14471, 14472, 14473, 14474, 14475, 14476, 14477, 14478, 14479, 14480
14481, 14482, 14483, 14484, 14485, 14486, 14487, 14488, 14489, 14490, 14491, 14492, 14493, 14494, 14495, 14496
14497, 14498, 14499, 14500, 14501, 14502, 14503, 14504, 14505, 14506, 14507, 14508, 14509, 14510, 14511, 14512
14513, 14514, 14515, 14516, 14517, 14518, 14519, 14520, 14521, 14522, 14523, 14524, 14525, 14526, 14527, 14528
14529, 14530, 14531, 14532, 14533, 14534, 14535, 14536, 14537, 14538, 14539, 14540, 14541, 14542, 14543, 14544
14545, 14546, 14547, 14548, 14549, 14550, 14551, 14552, 14553, 14554, 14555, 14556, 14557, 14558, 14559, 14560
14561, 14562, 14563, 14564, 14565, 14566, 14567, 14568, 14569, 14570, 14571, 14572, 14573, 14574, 14575, 14576
14577, 14578, 14579, 14580, 14581, 14582, 14583, 14584, 14585, 14586, 14587, 14588, 14589, 14590, 14591, 14592
14593, 14594, 14595, 14596, 14597, 14598, 14599, 14600, 14601, 14602, 14603, 14604, 14605, 14606, 14607, 14608
14609, 14610, 14611, 14612, 14613, 14614, 14615, 14616, 14617, 14618, 14619, 14620, 14621, 14622, 14623, 14624
14625, 14626, 14627, 14628, 14629, 14630, 14631, 14632, 14633, 14634, 14635, 14636, 14637, 14638, 14639, 14640
14641, 14642, 14643, 14644, 14645, 14646, 14647, 14648, 14649, 14650, 14651, 14652, 14653, 14654, 14655, 14656
14657, 14658, 14659, 14660, 14661, 14662, 14663, 14664, 14665, 14666, 14667, 14668, 14669, 14670, 14671, 14672
14673, 14674, 14675, 14676, 14677, 14678, 14679, 14680, 14681, 14682, 14683, 14684, 14685, 14686, 14687, 14688
14689, 14690, 14691, 14692, 14693, 14694, 14695, 14696, 14697, 14698, 14699, 14700, 14701, 14702, 14703, 14704
14705, 14706, 14707, 14708, 14709, 14710, 14711, 14712, 14713, 14714, 14715, 14716, 14717, 14718, 14719, 14720
14721, 14722, 14723, 14724, 14725, 14726, 14727, 14728, 14729, 14730, 14731, 14732, 14733, 14734, 14735, 14736
14737, 14738, 14739, 14740, 14741, 14742, 14743, 14744, 14745, 14746, 14747, 14748, 14749, 14750, 14751, 14752
14753, 14754, 14755, 14756, 14757, 14758, 14759, 14760, 14761, 14762, 14763, 14764, 14765, 14766, 14767, 14768
14769, 14770, 14771, 14772, 14773, 14774, 14775, 14776, 14777, 14778, 14779, 14780, 14781, 14782, 14783, 14784
14785, 14786, 14787, 14788, 14789, 14790, 14791, 14792, 14793, 14794, 14795, 14796, 14797, 14798, 14799, 14800
14801, 14802, 14803, 14804, 14805, 14806, 14807, 14808, 14809, 14810, 14811, 14812, 14813, 14814, 14815, 14816
14817, 14818, 14819, 14820, 14821, 14822, 14823, 14824, 14825, 14826, 14827, 14828, 14829, 14830, 14831, 14832
14833, 14834, 14835, 14836, 14837, 14838, 14839, 14840, 14841, 14842, 14843, 14844, 14845, 14846, 14847, 14848
14849, 14850, 14851, 14852, 14853, 14854, 14855, 14856, 14857, 14858, 14859, 14860, 14861, 14862, 14863, 14864
14865, 14866, 14867, 14868, 14869, 14870, 14871, 14872, 14873, 14874, 14875, 14876, 14877, 14878, 14879, 14880
14881, 14882, 14883, 14884, 14885, 14886, 14887, 14888, 14889, 14890, 14891, 14892, 14893, 14894, 14895, 14896
14897, 14898, 14899, 14900, 14901, 14902, 14903, 14904, 14905, 14906, 14907, 14908, 14909, 14910, 14911, 14912
14913, 14914, 14915, 14916, 14917, 14918, 14919, 14920, 14921, 14922, 14923, 14924, 14925, 14926, 14927, 14928
14929, 14930, 14931, 14932, 14933, 14934, 14935, 14936, 14937, 14938, 14939, 14940, 14941, 14942, 14943, 14944
14945, 14946, 14947, 14948, 14949, 14950, 14951, 14952, 14953, 14954, 14955, 14956, 14957, 14958, 14959, 14960
14961, 14962, 14963, 14964, 14965, 14966, 14967, 14968, 14969, 14970, 14971, 14972, 14973, 14974, 14975, 14976
14977, 14978, 14979, 14980, 14981, 14982, 14983, 14984, 14985, 14986, 14987, 14988, 14989, 14990, 14991, 14992
14993, 14994, 14995, 14996, 14997, 14998, 14999, 15000, 15001, 15002, 15003, 15004, 15005, 15006, 15007, 15008
15009, 15010, 15011, 15012, 15013, 15014, 15015, 15016, 15017, 15018, 15019, 15020, 15021, 15022, 15023, 15024
15025, 15026, 15027, 15028, 15029, 15030, 15031, 15032, 15033, 15034, 15035, 15036, 15037, 15038, 15039, 15040
15041, 15042, 15043, 15044, 15045, 15046, 15047, 15048, 15049, 15050, 15051, 15052, 15053, 15054, 15055, 15056
15057, 15058, 15059, 15060, 15061, 15062, 15063, 15064, 15065, 15066, 15067, 15068, 15069, 15070, 15071, 15072
15073, 15074, 15075, 15076, 15077, 15078, 15079, 15080, 15081, 15082, 15083, 15084, 15085, 15086, 15087, 15088
15089, 15090, 15091, 15092, 15093, 15094, 15095, 15096, 15097, 15098, 15099, 15100, 15101, 15102, 15103, 15104
15105, 15106, 15107, 15108, 15109, 15110, 15111, 15112, 15113, 15114, 15115, 15116, 15117, 15118, 15119, 15120
15121, 15122, 15123, 15124, 15125, 15126, 15127, 15128, 15129, 15130, 15131, 15132, 15133, 15134, 15135, 15136
15137, 15138, 15139, 15140, 15141, 15142, 15143, 15144, 15145, 15146, 15147, 15148, 15149, 15150, 15151, 15152
15153, 15154, 15155, 15156, 15157, 15158, 15159, 15160, 15161, 15162, 15163, 15164, 15165, 15166, 15167, 15168
15169, 15170, 15171, 15172, 15173, 15174, 15175, 15176, 15177, 15178, 15179, 15180, 15181, 15182, 15183, 15184
15185, 15186, 15187, 15188, 15189, 15190, 15191, 15192, 15193, 15194, 15195, 15196, 15197, 15198, 15199, 15200
15201, 15202, 15203, 15204, 15205, 15206, 15207, 15208, 15209, 15210, 15211, 15212, 15213, 15214, 15215, 15216
15217, 15218, 15219, 15220, 15221, 15222, 15223, 15224, 15225, 15226, 15227, 15228, 15229, 15230, 15231, 15232
15233, 15234, 15235, 15236, 15237, 15238, 15239, 15240, 15241, 15242, 15243, 15244, 15245, 15246, 15247, 15248
15249, 15250, 15251, 15252, 15253, 15254, 15255, 15256, 15257, 15258, 15259, 15260, 15261, 15262, 15263, 15264
15265, 15266, 15267, 15268, 15269, 15270, 15271, 15272, 15273, 15274, 15275, 15276, 15277, 15278, 15279, 15280
15281, 15282, 15283, 15284, 15285, 15286, 15287, 15288, 15289, 15290, 15291, 15292, 15293, 15294, 15295, 15296
15297, 15298, 15299, 15300, 15301, 15302, 15303, 15304, 15305, 15306, 15307, 15308, 15309, 15310, 15311, 15312
15313, 15314, 15315, 15316, 15317, 15318, 15319, 15320, 15321, 15322, 15323, 15324, 15325, 15326, 15327, 15328
15329, 15330, 15331, 15332, 15333, 15334, 15335, 15336, 15337, 15338, 15339, 15340, 15341, 15342, 15343, 15344
15345, 15346, 15347, 15348, 15349, 15350, 15351, 15352, 15353, 15354, 15355, 15356, 15357, 15358, 15359, 15360
15361, 15362, 15363, 15364, 15365, 15366, 15367, 15368, 15369, 15370, 15371, 15372, 15373, 15374, 15375, 15376
15377, 15378, 15379, 15380, 15381, 15382, 15383, 15384, 15385, 15386, 15387, 15388, 15389, 15390, 15391, 15392
15393, 15394, 15395, 15396, 15397, 15398, 15399, 15400, 15401, 15402, 15403, 15404, 15405, 15406, 15407, 15408
15409, 15410, 15411, 15412, 15413, 15414, 15415, 15416, 15417, 15418, 15419, 15420, 15421, 15422, 15423, 15424
15425, 15426, 15427, 15428, 15429, 15430, 15431, 15432, 15433, 15434, 15435, 15436, 15437, 15438, 15439, 15440
15441, 15442, 15443, 15444, 15445, 15446, 15447, 15448, 15449, 15450, 15451, 15452, 15453, 15454, 15455, 15456
15457, 15458, 15459, 15460, 15461, 15462, 15463, 15464, 15465, 15466, 15467, 15468, 15469, 15470, 15471, 15472
15473, 15474, 15475, 15476, 15477, 15478, 15479, 15480, 15481, 15482, 15483, 15484, 15485, 15486, 15487, 15488
15489, 15490, 15491, 15492, 15493, 15494, 15495, 15496, 15497, 15498, 15499, 15500, 15501, 15502, 15503, 15504
15505, 15506, 15507, 15508, 15509, 15510, 15511, 15512, 15513, 15514, 15515, 15516, 15517, 15518, 15519, 15520
15521, 15522, 15523, 15524, 15525, 15526, 15527, 15528, 15529, 15530, 15531, 15532, 15533, 15534, 15535, 15536
15537, 15538, 15539, 15540, 15541, 15542, 15543, 15544, 15545, 15546, 15547, 15548, 15549, 15550, 15551, 15552
15553, 15554, 15555, 15556, 15557, 15558, 15559, 15560, 15561, 15562, 15563, 15564, 15565, 15566, 15567, 15568
15569, 15570, 15571, 15572, 15573, 15574, 15575, 15576, 15577, 15578, 15579, 15580, 15581, 15582, 15583, 15584
15585, 15586, 15587, 15588, 15589, 15590, 15591, 15592, 15593, 15594, 15595, 15596, 15597, 15598, 15599, 15600
15601, 15602, 15603, 15604, 15605, 15606, 15607, 15608, 15609, 15610, 15611, 15612, 15613, 15614, 15615, 15616
15617, 15618, 15619, 15620, 15621, 15622, 15623, 15624, 15625, 15626, 15627, 15628, 15629, 15630, 15631, 15632
15633, 15634, 15635, 15636, 15637, 15638, 15639, 15640, 15641, 15642, 15643, 15644, 15645, 15646, 15647, 15648
15649, 15650, 15651, 15652, 15653, 15654, 15655, 15656, 15657, 15658, 15659, 15660, 15661, 15662, 15663, 15664
15665, 15666, 15667, 15668, 15669, 15670, 15671, 15672, 15673, 15674, 15675, 15676, 15677, 15678, 15679, 15680
15681, 15682, 15683, 15684, 15685, 15686, 15687, 15688, 15689, 15690, 15691, 15692, 15693, 15694, 15695, 15696
15697, 15698, 15699, 15700, 15701, 15702, 15703, 15704, 15705, 15706, 15707, 15708, 15709, 15710, 15711, 15712
15713, 15714, 15715, 15716, 15717, 15718, 15719, 15720, 15721, 15722, 15723, 15724, 15725, 15726, 15727, 15728
15729, 15730, 15731, 15732, 15733, 15734, 15735, 15736, 15737, 15738, 15739, 15740, 15741, 15742, 15743, 15744
15745, 15746, 15747, 15748, 15749, 15750, 15751, 15752, 15753, 15754, 15755, 15756, 15757, 15758, 15759, 15760
15761, 15762, 15763, 15764, 15765, 15766, 15767, 15768, 15769, 15770, 15771, 15772, 15773, 15774, 15775, 15776
15777, 15778, 15779, 15780, 15781, 15782, 15783, 15784, 15785, 15786, 15787, 15788, 15789, 15790, 15791, 15792
15793, 15794, 15795, 15796, 15797, 15798, 15799, 15800, 15801, 15802, 15803, 15804, 15805, 15806, 15807, 15808
15809, 15810, 15811, 15812, 15813, 15814, 15815, 15816, 15817, 15818, 15819, 15820, 15821, 15822, 15823, 15824
15825, 15826, 15827, 15828, 15829, 15830, 15831, 15832, 15833, 15834, 15835, 15836, 15837, 15838, 15839, 15840
15841, 15842, 15843, 15844, 15845, 15846, 15847, 15848, 15849, 15850, 15851, 15852, 15853, 15854, 15855, 15856
15857, 15858, 15859, 15860, 15861, 15862, 15863, 15864, 15865, 15866, 15867, 15868, 15869, 15870, 15871, 15872
15873, 15874, 15875, 15876, 15877, 15878, 15879, 15880, 15881, 15882, 15883, 15884, 15885, 15886, 15887, 15888
15889, 15890, 15891, 15892, 15893, 15894, 15895, 15896, 15897, 15898, 15899, 15900, 15901, 15902, 15903, 15904
15905, 15906, 15907, 15908, 15909, 15910, 15911, 15912, 15913, 15914, 15915, 15916, 15917, 15918, 15919, 15920
15921, 15922, 15923, 15924, 15925, 15926, 15927, 15928, 15929, 15930, 15931, 15932, 15933, 15934, 15935, 15936
15937, 15938, 15939, 15940, 15941, 15942, 15943, 15944, 15945, 15946, 15947, 15948, 15949, 15950, 15951, 15952
15953, 15954, 15955, 15956, 15957, 15958, 15959, 15960, 15961, 15962, 15963
*MATERIAL, NAME=MATERIAL1
*ELASTIC
3000, 0.35
*SOLID SECTION, ELSET=FULLMESH, MATERIAL=MATERIAL1
*STEP, NAME=X-AXIS-TENSION, NLGEOM=NO
*STATIC
*OUTPUT, FIELD
*ELEMENT OUTPUT, DIRECTIONS=YES
IVOL, S
*NODE OUTPUT
U
*BOUNDARY
TOP, 2, 2, 0
BOTTOM, 2, 2, 0
LEFT, 1, 1, -5
RIGHT, 1, 1, 5

*ENDSTEP