*NODE
1, 3.0323629697176595, 0.11047300701320122, 0
2, 3.0333141005559434, 0.14987035490622727, 0
3, 3.036167493070796, 0.19040898392090708, 0
4, 3.040923147262218, 0.2320888940572412, 0
5, 3.0475810631302083, 0.27491008531522954, 0
6, 3.0561412406747657, 0.3188725576948712, 0
7, 3.0666036798958927, 0.3639763111961677, 0
8, 3.078968380793588, 0.41022134581911784, 0
9, 3.0932353433678523, 0.4576076615637218, 0
10, 3.109404567618685, 0.5061352584299803, 0
11, 3.127476053546086, 0.5558041364178924, 0
12, 3.1474498011500556, 0.6066142955274589, 0
13, 3.169325810430594, 0.6585657357586796, 0
14, 3.1931040813877005, 0.7116584571115538, 0
15, 3.2187846140213754, 0.7658924595860821, 0
16, 3.2463674083316194, 0.8212677431822649, 0
17, 3.2758524643184317, 0.8777843079001011, 0
18, 3.3072397819818127, 0.9354421537395918, 0
19, 3.3405293613217615, 0.9942412807007361, 0
20, 3.37572120233828, 1.0541816887835351, 0
21, 3.4128153050313657, 1.1152633779879875, 0
22, 3.451287974427079, 1.176973605730577, 0
23, 3.490615515551477, 1.2387996294277872, 0
24, 3.5307979284045596, 1.3007414490796172, 0
25, 3.5718352129863264, 1.3627990646860677, 0
26, 3.613727369296779, 1.4249724762471385, 0
27, 3.6564743973359155, 1.4872616837628292, 0
28, 3.7000762971037373, 1.5496666872331404, 0
29, 3.7445330686002434, 1.6121874866580712, 0
30, 3.789844711825435, 1.6748240820376232, 0
31, 3.836011226779311, 1.7375764733717942, 0
32, 3.883032613461871, 1.8004446606605868, 0
33, 3.930908871873117, 1.8634286439039986, 0
34, 3.9796400020130465, 1.9265284231020305, 0
35, 4.0292260038816625, 1.9897439982546836, 0
36, 4.079666877478961, 2.0530753693619563, 0
37, 4.1309626228049465, 2.11652253642385, 0
38, 4.183113239859615, 2.1800854994403625, 0
39, 4.236118728642969, 2.2437642584114963, 0
40, 4.2899790891550085, 2.30755881333725, 0
41, 4.344694321395732, 2.371469164217624, 0
42, 4.399168354718979, 2.4361060478571255, 0
43, 4.45230511847859, 2.502080201060266, 0
44, 4.504104612674563, 2.5693916238270424, 0
45, 4.5545668373069, 2.6380403161574555, 0
46, 4.6036917923755984, 2.708026278051505, 0
47, 4.651479477880661, 2.7793495095091925, 0
48, 4.697929893822088, 2.8520100105305173, 0
49, 4.7430430401998755, 2.9260077811154788, 0
50, 4.786818917014028, 3.0013428212640765, 0
51, 4.829257524264542, 3.0780151309763117, 0
52, 4.87035886195142, 3.1560247102521837, 0
53, 4.91012293007466, 3.235371559091693, 0
54, 4.948549728634264, 3.3160556774948384, 0
55, 4.985639257630231, 3.398077065461622, 0
56, 5.021391517062561, 3.481435722992042, 0
57, 5.055806506931254, 3.5661316500860987, 0
58, 5.08888422723631, 3.6521648467437937, 0
59, 5.1206246779777285, 3.7395353129651236, 0
60, 5.15102785915551, 3.8282430487500916, 0
61, 5.1800937707696555, 3.9182880540986966, 0
62, 5.206982813076562, 4.0075321558304715, 0
63, 5.230855386332626, 4.093837180764951, 0
64, 5.251711490537849, 4.177203128902133, 0
65, 5.269551125692231, 4.25763000024202, 0
66, 5.284374291795771, 4.33511779478461, 0
67, 5.29618098884847, 4.409666512529904, 0
68, 5.304971216850329, 4.481276153477903, 0
69, 5.310744975801346, 4.549946717628605, 0
70, 5.313502265701521, 4.615678204982011, 0
71, 5.313243086550855, 4.67847061553812, 0
72, 5.309967438349348, 4.738323949296933, 0
73, 5.303675321097, 4.795238206258451, 0
74, 5.29436673479381, 4.849213386422671, 0
75, 5.2820416794397795, 4.900249489789597, 0
76, 5.266700155034907, 4.9483465163592255, 0
77, 5.248342161579193, 4.993504466131557, 0
78, 5.226967699072638, 5.035723339106593, 0
79, 5.202576767515241, 5.075003135284333, 0
80, 5.175169366907004, 5.111343854664778, 0
81, 5.144745497247925, 5.144745497247925, 0
82, 5.111343854664778, 5.175169366907004, 0
83, 5.075003135284334, 5.202576767515241, 0
84, 5.0357233391065925, 5.226967699072637, 0
85, 4.993504466131557, 5.248342161579193, 0
86, 4.9483465163592255, 5.266700155034907, 0
87, 4.900249489789597, 5.2820416794397795, 0
88, 4.849213386422672, 5.29436673479381, 0
89, 4.795238206258451, 5.303675321097, 0
90, 4.738323949296933, 5.309967438349348, 0
91, 4.67847061553812, 5.313243086550855, 0
92, 4.615678204982011, 5.313502265701521, 0
93, 4.549946717628605, 5.310744975801345, 0
94, 4.481276153477903, 5.304971216850329, 0
95, 4.409666512529904, 5.29618098884847, 0
96, 4.33511779478461, 5.284374291795771, 0
97, 4.25763000024202, 5.269551125692231, 0
98, 4.177203128902135, 5.25171149053785, 0
99, 4.09383718076495, 5.230855386332626, 0
100, 4.0075321558304715, 5.206982813076562, 0
101, 3.9182880540986966, 5.1800937707696555, 0
102, 3.8282430487500916, 5.15102785915551, 0
103, 3.7395353129651245, 5.120624677977729, 0
104, 3.652164846743792, 5.088884227236309, 0
105, 3.5661316500860987, 5.055806506931254, 0
106, 3.481435722992042, 5.021391517062561, 0
107, 3.398077065461622, 4.985639257630231, 0
108, 3.3160556774948398, 4.948549728634265, 0
109, 3.2353715590916927, 4.910122930074661, 0
110, 3.1560247102521837, 4.87035886195142, 0
111, 3.0780151309763117, 4.829257524264542, 0
112, 3.0013428212640765, 4.786818917014028, 0
113, 2.9260077811154788, 4.7430430401998755, 0
114, 2.852010010530517, 4.697929893822087, 0
115, 2.7793495095091925, 4.651479477880661, 0
116, 2.708026278051505, 4.6036917923755984, 0
117, 2.6380403161574555, 4.5545668373069, 0
118, 2.569391623827043, 4.504104612674564, 0
119, 2.5020802010602656, 4.45230511847859, 0
120, 2.4361060478571255, 4.399168354718979, 0
121, 2.371469164217624, 4.344694321395732, 0
122, 2.30755881333725, 4.2899790891550085, 0
123, 2.2437642584114963, 4.236118728642969, 0
124, 2.1800854994403625, 4.183113239859615, 0
125, 2.116522536423849, 4.130962622804946, 0
126, 2.0530753693619563, 4.079666877478961, 0
127, 1.9897439982546836, 4.0292260038816625, 0
128, 1.9265284231020319, 3.979640002013048, 0
129, 1.8634286439039986, 3.930908871873117, 0
130, 1.8004446606605866, 3.883032613461871, 0
131, 1.7375764733717942, 3.836011226779311, 0
132, 1.6748240820376232, 3.789844711825435, 0
133, 1.6121874866580719, 3.7445330686002443, 0
134, 1.5496666872331397, 3.7000762971037373, 0
135, 1.487261683762829, 3.6564743973359155, 0
136, 1.4249724762471385, 3.613727369296779, 0
137, 1.3627990646860675, 3.571835212986327, 0
138, 1.300741449079618, 3.53079792840456, 0
139, 1.2387996294277868, 3.490615515551476, 0
140, 1.1769736057305769, 3.4512879744270792, 0
141, 1.1152633779879875, 3.4128153050313657, 0
142, 1.0509984774714352, 3.3738215753731744, 0
143, 0.9879981543749973, 3.3369356148856957, 0
144, 0.9262624086986759, 3.3021574235689304, 0
145, 0.8657912404424692, 3.2694870014228785, 0
146, 0.806584649606377, 3.2389243484475387, 0
147, 0.7486426361904012, 3.2104694646429124, 0
148, 0.6919652001945407, 3.1841223500089995, 0
149, 0.6365523416187953, 3.1598830045457995, 0
150, 0.5824040604631642, 3.137751428253312, 0
151, 0.5295203567276495, 3.117727621131538, 0
152, 0.47790123041224936, 3.099811583180477, 0
153, 0.427546681516965, 3.084003314400129, 0
154, 0.3784567100417957, 3.0703028147904945, 0
155, 0.3306313159867423, 3.058710084351573, 0
156, 0.2840704993518031, 3.0492251230833642, 0
157, 0.23877426013698017, 3.041847930985868, 0
158, 0.19474259834227156, 3.0365785080590855, 0
159, 0.15197551396767878, 3.033416854303016, 0
160, -0.11047300701320122, 3.0323629697176595, 0
161, -0.14987035490622727, 3.0333141005559434, 0
162, -0.19040898392090708, 3.036167493070796, 0
163, -0.2320888940572412, 3.040923147262218, 0
164, -0.27491008531522954, 3.0475810631302083, 0
165, -0.3188725576948712, 3.0561412406747657, 0
166, -0.3639763111961677, 3.0666036798958927, 0
167, -0.41022134581911784, 3.078968380793588, 0
168, -0.4576076615637218, 3.0932353433678523, 0
169, -0.5061352584299803, 3.109404567618685, 0
170, -0.5558041364178924, 3.127476053546086, 0
171, -0.6066142955274589, 3.1474498011500556, 0
172, -0.6585657357586796, 3.169325810430594, 0
173, -0.7116584571115538, 3.1931040813877005, 0
174, -0.7658924595860821, 3.2187846140213754, 0
175, -0.8212677431822649, 3.2463674083316194, 0
176, -0.8777843079001011, 3.2758524643184317, 0
177, -0.9354421537395918, 3.3072397819818127, 0
178, -0.9942412807007361, 3.3405293613217615, 0
179, -1.0541816887835351, 3.37572120233828, 0
180, -1.1152633779879875, 3.4128153050313657, 0
181, -1.176973605730577, 3.451287974427079, 0
182, -1.2387996294277872, 3.490615515551477, 0
183, -1.3007414490796172, 3.5307979284045596, 0
184, -1.3627990646860677, 3.5718352129863264, 0
185, -1.4249724762471385, 3.613727369296779, 0
186, -1.4872616837628292, 3.6564743973359155, 0
187, -1.5496666872331404, 3.7000762971037373, 0
188, -1.6121874866580712, 3.7445330686002434, 0
189, -1.6748240820376232, 3.789844711825435, 0
190, -1.7375764733717942, 3.836011226779311, 0
191, -1.8004446606605868, 3.883032613461871, 0
192, -1.8634286439039986, 3.930908871873117, 0
193, -1.9265284231020305, 3.9796400020130465, 0
194, -1.9897439982546836, 4.0292260038816625, 0
195, -2.0530753693619563, 4.079666877478961, 0
196, -2.11652253642385, 4.1309626228049465, 0
197, -2.1800854994403625, 4.183113239859615, 0
198, -2.2437642584114963, 4.236118728642969, 0
199, -2.30755881333725, 4.2899790891550085, 0
200, -2.371469164217624, 4.344694321395732, 0
201, -2.4361060478571255, 4.399168354718979, 0
202, -2.502080201060266, 4.45230511847859, 0
203, -2.5693916238270424, 4.504104612674563, 0
204, -2.6380403161574555, 4.5545668373069, 0
205, -2.708026278051505, 4.6036917923755984, 0
206, -2.7793495095091925, 4.651479477880661, 0
207, -2.8520100105305173, 4.697929893822088, 0
208, -2.9260077811154788, 4.7430430401998755, 0
209, -3.0013428212640765, 4.786818917014028, 0
210, -3.0780151309763117, 4.829257524264542, 0
211, -3.1560247102521837, 4.87035886195142, 0
212, -3.235371559091693, 4.91012293007466, 0
213, -3.3160556774948384, 4.948549728634264, 0
214, -3.398077065461622, 4.985639257630231, 0
215, -3.481435722992042, 5.021391517062561, 0
216, -3.5661316500860987, 5.055806506931254, 0
217, -3.6521648467437937, 5.08888422723631, 0
218, -3.7395353129651236, 5.1206246779777285, 0
219, -3.8282430487500916, 5.15102785915551, 0
220, -3.9182880540986966, 5.1800937707696555, 0
221, -4.0075321558304715, 5.206982813076562, 0
222, -4.093837180764951, 5.230855386332626, 0
223, -4.177203128902133, 5.251711490537849, 0
224, -4.25763000024202, 5.269551125692231, 0
225, -4.33511779478461, 5.284374291795771, 0
226, -4.409666512529904, 5.29618098884847, 0
227, -4.481276153477903, 5.304971216850329, 0
228, -4.549946717628605, 5.310744975801346, 0
229, -4.615678204982011, 5.313502265701521, 0
230, -4.67847061553812, 5.313243086550855, 0
231, -4.738323949296933, 5.309967438349348, 0
232, -4.795238206258451, 5.303675321097, 0
233, -4.849213386422671, 5.29436673479381, 0
234, -4.900249489789597, 5.2820416794397795, 0
235, -4.9483465163592255, 5.266700155034907, 0
236, -4.993504466131557, 5.248342161579193, 0
237, -5.035723339106593, 5.226967699072638, 0
238, -5.075003135284333, 5.202576767515241, 0
239, -5.111343854664778, 5.175169366907004, 0
240, -5.144745497247925, 5.144745497247925, 0
241, -5.175169366907004, 5.111343854664778, 0
242, -5.202576767515241, 5.075003135284334, 0
243, -5.226967699072637, 5.0357233391065925, 0
244, -5.248342161579193, 4.993504466131557, 0
245, -5.266700155034907, 4.9483465163592255, 0
246, -5.2820416794397795, 4.900249489789597, 0
247, -5.29436673479381, 4.849213386422672, 0
248, -5.303675321097, 4.795238206258451, 0
249, -5.309967438349348, 4.738323949296933, 0
250, -5.313243086550855, 4.67847061553812, 0
251, -5.313502265701521, 4.615678204982011, 0
252, -5.310744975801345, 4.549946717628605, 0
253, -5.304971216850329, 4.481276153477903, 0
254, -5.29618098884847, 4.409666512529904, 0
255, -5.284374291795771, 4.33511779478461, 0
256, -5.269551125692231, 4.25763000024202, 0
257, -5.25171149053785, 4.177203128902135, 0
258, -5.230855386332626, 4.09383718076495, 0
259, -5.206982813076562, 4.0075321558304715, 0
260, -5.1800937707696555, 3.9182880540986966, 0
261, -5.15102785915551, 3.8282430487500916, 0
262, -5.120624677977729, 3.7395353129651245, 0
263, -5.088884227236309, 3.652164846743792, 0
264, -5.055806506931254, 3.5661316500860987, 0
265, -5.021391517062561, 3.481435722992042, 0
266, -4.985639257630231, 3.398077065461622, 0
267, -4.948549728634265, 3.3160556774948398, 0
268, -4.910122930074661, 3.2353715590916927, 0
269, -4.87035886195142, 3.1560247102521837, 0
270, -4.829257524264542, 3.0780151309763117, 0
271, -4.786818917014028, 3.0013428212640765, 0
272, -4.7430430401998755, 2.9260077811154788, 0
273, -4.697929893822087, 2.852010010530517, 0
274, -4.651479477880661, 2.7793495095091925, 0
275, -4.6036917923755984, 2.708026278051505, 0
276, -4.5545668373069, 2.6380403161574555, 0
277, -4.504104612674564, 2.569391623827043, 0
278, -4.45230511847859, 2.5020802010602656, 0
279, -4.399168354718979, 2.4361060478571255, 0
280, -4.344694321395732, 2.371469164217624, 0
281, -4.2899790891550085, 2.30755881333725, 0
282, -4.236118728642969, 2.2437642584114963, 0
283, -4.183113239859615, 2.1800854994403625, 0
284, -4.130962622804946, 2.116522536423849, 0
285, -4.079666877478961, 2.0530753693619563, 0
286, -4.0292260038816625, 1.9897439982546836, 0
287, -3.979640002013048, 1.9265284231020319, 0
288, -3.930908871873117, 1.8634286439039986, 0
289, -3.883032613461871, 1.8004446606605866, 0
290, -3.836011226779311, 1.7375764733717942, 0
291, -3.789844711825435, 1.6748240820376232, 0
292, -3.7445330686002443, 1.6121874866580719, 0
293, -3.7000762971037373, 1.5496666872331397, 0
294, -3.6564743973359155, 1.487261683762829, 0
295, -3.613727369296779, 1.4249724762471385, 0
296, -3.571835212986327, 1.3627990646860675, 0
297, -3.53079792840456, 1.300741449079618, 0
298, -3.490615515551476, 1.2387996294277868, 0
299, -3.4512879744270792, 1.1769736057305769, 0
300, -3.4128153050313657, 1.1152633779879875, 0
301, -3.3738215753731744, 1.0509984774714352, 0
302, -3.3369356148856957, 0.9879981543749973, 0
303, -3.3021574235689304, 0.9262624086986759, 0
304, -3.2694870014228785, 0.8657912404424692, 0
305, -3.2389243484475387, 0.806584649606377, 0
306, -3.2104694646429124, 0.7486426361904012, 0
307, -3.1841223500089995, 0.6919652001945407, 0
308, -3.1598830045457995, 0.6365523416187953, 0
309, -3.137751428253312, 0.5824040604631642, 0
310, -3.117727621131538, 0.5295203567276495, 0
311, -3.099811583180477, 0.47790123041224936, 0
312, -3.084003314400129, 0.427546681516965, 0
313, -3.0703028147904945, 0.3784567100417957, 0
314, -3.058710084351573, 0.3306313159867423, 0
315, -3.0492251230833642, 0.2840704993518031, 0
316, -3.041847930985868, 0.23877426013698017, 0
317, -3.0365785080590855, 0.19474259834227156, 0
318, -3.033416854303016, 0.15197551396767878, 0
319, -3.032362969717659, -0.11047300701320097, 0
320, -3.033314100555943, -0.149870354906227, 0
321, -3.0361674930707956, -0.19040898392090683, 0
322, -3.040923147262218, -0.23208889405724095, 0
323, -3.047581063130208, -0.2749100853152293, 0
324, -3.0561412406747657, -0.31887255769487094, 0
325, -3.0666036798958927, -0.3639763111961674, 0
326, -3.078968380793588, -0.41022134581911757, 0
327, -3.093235343367852, -0.4576076615637215, 0
328, -3.109404567618685, -0.50613525842998, 0
329, -3.127476053546086, -0.5558041364178921, 0
330, -3.1474498011500556, -0.6066142955274587, 0
331, -3.1693258104305935, -0.6585657357586793, 0
332, -3.1931040813877005, -0.7116584571115535, 0
333, -3.218784614021375, -0.7658924595860818, 0
334, -3.2463674083316194, -0.8212677431822646, 0
335, -3.2758524643184317, -0.8777843079001008, 0
336, -3.3072397819818127, -0.9354421537395915, 0
337, -3.3405293613217615, -0.9942412807007358, 0
338, -3.37572120233828, -1.0541816887835347, 0
339, -3.4128153050313657, -1.115263377987987, 0
340, -3.451287974427079, -1.1769736057305769, 0
341, -3.4906155155514766, -1.238799629427787, 0
342, -3.530797928404559, -1.300741449079617, 0
343, -3.5718352129863264, -1.3627990646860673, 0
344, -3.613727369296779, -1.424972476247138, 0
345, -3.656474397335915, -1.4872616837628287, 0
346, -3.700076297103737, -1.54966668723314, 0
347, -3.7445330686002434, -1.6121874866580708, 0
348, -3.7898447118254346, -1.6748240820376228, 0
349, -3.8360112267793105, -1.737576473371794, 0
350, -3.8830326134618707, -1.8004446606605864, 0
351, -3.9309088718731164, -1.8634286439039982, 0
352, -3.9796400020130465, -1.92652842310203, 0
353, -4.029226003881662, -1.9897439982546832, 0
354, -4.079666877478961, -2.053075369361956, 0
355, -4.1309626228049465, -2.116522536423849, 0
356, -4.183113239859615, -2.180085499440362, 0
357, -4.236118728642969, -2.243764258411496, 0
358, -4.2899790891550085, -2.3075588133372498, 0
359, -4.344694321395732, -2.3714691642176233, 0
360, -4.399168354718979, -2.436106047857125, 0
361, -4.45230511847859, -2.502080201060265, 0
362, -4.5041046126745625, -2.5693916238270416, 0
363, -4.5545668373069, -2.6380403161574546, 0
364, -4.6036917923755984, -2.7080262780515043, 0
365, -4.651479477880661, -2.7793495095091916, 0
366, -4.697929893822087, -2.852010010530517, 0
367, -4.7430430401998755, -2.926007781115478, 0
368, -4.786818917014028, -3.001342821264076, 0
369, -4.829257524264542, -3.0780151309763113, 0
370, -4.87035886195142, -3.1560247102521832, 0
371, -4.91012293007466, -3.2353715590916923, 0
372, -4.948549728634264, -3.3160556774948375, 0
373, -4.985639257630231, -3.3980770654616212, 0
374, -5.021391517062561, -3.481435722992041, 0
375, -5.055806506931254, -3.5661316500860982, 0
376, -5.08888422723631, -3.652164846743793, 0
377, -5.1206246779777285, -3.739535312965123, 0
378, -5.15102785915551, -3.828243048750091, 0
379, -5.1800937707696555, -3.9182880540986957, 0
380, -5.206982813076562, -4.007532155830471, 0
381, -5.230855386332626, -4.09383718076495, 0
382, -5.251711490537849, -4.177203128902132, 0
383, -5.269551125692231, -4.2576300002420195, 0
384, -5.284374291795771, -4.335117794784609, 0
385, -5.29618098884847, -4.4096665125299035, 0
386, -5.304971216850329, -4.481276153477902, 0
387, -5.310744975801346, -4.549946717628604, 0
388, -5.313502265701521, -4.61567820498201, 0
389, -5.313243086550855, -4.678470615538119, 0
390, -5.309967438349347, -4.738323949296932, 0
391, -5.303675321097, -4.79523820625845, 0
392, -5.294366734793809, -4.8492133864226705, 0
393, -5.2820416794397795, -4.900249489789596, 0
394, -5.266700155034907, -4.948346516359225, 0
395, -5.248342161579193, -4.993504466131556, 0
396, -5.226967699072638, -5.0357233391065925, 0
397, -5.202576767515241, -5.075003135284332, 0
398, -5.175169366907004, -5.111343854664777, 0
399, -5.144745497247925, -5.144745497247924, 0
400, -5.111343854664778, -5.175169366907003, 0
401, -5.075003135284334, -5.20257676751524, 0
402, -5.0357233391065925, -5.226967699072636, 0
403, -4.993504466131557, -5.248342161579192, 0
404, -4.9483465163592255, -5.266700155034906, 0
405, -4.900249489789597, -5.282041679439779, 0
406, -4.849213386422672, -5.294366734793809, 0
407, -4.795238206258451, -5.303675321096999, 0
408, -4.738323949296933, -5.309967438349347, 0
409, -4.67847061553812, -5.313243086550854, 0
410, -4.615678204982011, -5.31350226570152, 0
411, -4.549946717628605, -5.310744975801345, 0
412, -4.481276153477903, -5.304971216850328, 0
413, -4.409666512529904, -5.296180988848469, 0
414, -4.33511779478461, -5.28437429179577, 0
415, -4.25763000024202, -5.26955112569223, 0
416, -4.177203128902135, -5.251711490537849, 0
417, -4.09383718076495, -5.2308553863326255, 0
418, -4.0075321558304715, -5.206982813076561, 0
419, -3.9182880540986966, -5.180093770769655, 0
420, -3.828243048750092, -5.151027859155509, 0
421, -3.7395353129651245, -5.1206246779777285, 0
422, -3.6521648467437924, -5.088884227236308, 0
423, -3.566131650086099, -5.055806506931253, 0
424, -3.481435722992042, -5.02139151706256, 0
425, -3.398077065461622, -4.98563925763023, 0
426, -3.3160556774948398, -4.948549728634264, 0
427, -3.2353715590916927, -4.91012293007466, 0
428, -3.156024710252184, -4.870358861951419, 0
429, -3.0780151309763117, -4.829257524264541, 0
430, -3.001342821264077, -4.786818917014027, 0
431, -2.9260077811154788, -4.7430430401998755, 0
432, -2.852010010530517, -4.697929893822086, 0
433, -2.7793495095091925, -4.6514794778806605, 0
434, -2.708026278051505, -4.603691792375598, 0
435, -2.6380403161574555, -4.554566837306899, 0
436, -2.569391623827043, -4.504104612674563, 0
437, -2.502080201060266, -4.45230511847859, 0
438, -2.436106047857126, -4.399168354718978, 0
439, -2.371469164217624, -4.344694321395731, 0
440, -2.30755881333725, -4.2899790891550085, 0
441, -2.2437642584114967, -4.236118728642969, 0
442, -2.1800854994403625, -4.1831132398596145, 0
443, -2.1165225364238496, -4.130962622804946, 0
444, -2.0530753693619563, -4.079666877478961, 0
445, -1.9897439982546838, -4.029226003881662, 0
446, -1.9265284231020319, -3.9796400020130474, 0
447, -1.8634286439039989, -3.9309088718731164, 0
448, -1.8004446606605868, -3.8830326134618707, 0
449, -1.7375764733717944, -3.8360112267793105, 0
450, -1.6748240820376235, -3.7898447118254346, 0
451, -1.612187486658072, -3.744533068600244, 0
452, -1.54966668723314, -3.700076297103737, 0
453, -1.4872616837628292, -3.656474397335915, 0
454, -1.4249724762471385, -3.6137273692967784, 0
455, -1.3627990646860677, -3.5718352129863264, 0
456, -1.3007414490796183, -3.5307979284045596, 0
457, -1.238799629427787, -3.4906155155514758, 0
458, -1.176973605730577, -3.451287974427079, 0
459, -1.1152633779879877, -3.4128153050313657, 0
460, -1.0509984774714354, -3.373821575373174, 0
461, -0.9879981543749973, -3.3369356148856952, 0
462, -0.9262624086986762, -3.3021574235689304, 0
463, -0.8657912404424695, -3.269487001422878, 0
464, -0.8065846496063772, -3.2389243484475383, 0
465, -0.7486426361904014, -3.2104694646429124, 0
466, -0.6919652001945409, -3.184122350008999, 0
467, -0.6365523416187955, -3.1598830045457995, 0
468, -0.5824040604631644, -3.1377514282533117, 0
469, -0.5295203567276497, -3.117727621131538, 0
470, -0.4779012304122496, -3.0998115831804767, 0
471, -0.42754668151696523, -3.0840033144001286, 0
472, -0.37845671004179593, -3.070302814790494, 0
473, -0.3306313159867425, -3.0587100843515724, 0
474, -0.28407049935180334, -3.049225123083364, 0
475, -0.2387742601369804, -3.0418479309858677, 0
476, -0.19474259834227178, -3.0365785080590855, 0
477, -0.151975513967679, -3.0334168543030158, 0
478, 0.11047300701320074, -3.0323629697176595, 0
479, 0.14987035490622677, -3.0333141005559434, 0
480, 0.1904089839209066, -3.036167493070796, 0
481, 0.23208889405724073, -3.040923147262218, 0
482, 0.2749100853152291, -3.0475810631302083, 0
483, 0.3188725576948707, -3.056141240674766, 0
484, 0.3639763111961672, -3.066603679895893, 0
485, 0.41022134581911734, -3.078968380793588, 0
486, 0.4576076615637213, -3.0932353433678523, 0
487, 0.5061352584299798, -3.1094045676186854, 0
488, 0.5558041364178918, -3.127476053546086, 0
489, 0.6066142955274585, -3.1474498011500556, 0
490, 0.658565735758679, -3.169325810430594, 0
491, 0.7116584571115533, -3.193104081387701, 0
492, 0.7658924595860818, -3.2187846140213754, 0
493, 0.8212677431822644, -3.24636740833162, 0
494, 0.8777843079001005, -3.2758524643184317, 0
495, 0.9354421537395913, -3.3072397819818127, 0
496, 0.9942412807007356, -3.3405293613217615, 0
497, 1.0541816887835345, -3.37572120233828, 0
498, 1.1152633779879868, -3.412815305031366, 0
499, 1.1769736057305766, -3.451287974427079, 0
500, 1.238799629427787, -3.490615515551477, 0
501, 1.3007414490796168, -3.5307979284045596, 0
502, 1.362799064686067, -3.571835212986327, 0
503, 1.4249724762471379, -3.6137273692967793, 0
504, 1.4872616837628285, -3.6564743973359155, 0
505, 1.5496666872331397, -3.7000762971037373, 0
506, 1.6121874866580705, -3.744533068600244, 0
507, 1.6748240820376228, -3.789844711825435, 0
508, 1.737576473371794, -3.836011226779311, 0
509, 1.8004446606605862, -3.883032613461871, 0
510, 1.863428643903998, -3.930908871873117, 0
511, 1.9265284231020299, -3.979640002013047, 0
512, 1.9897439982546832, -4.0292260038816625, 0
513, 2.053075369361956, -4.079666877478962, 0
514, 2.116522536423849, -4.1309626228049465, 0
515, 2.180085499440362, -4.183113239859615, 0
516, 2.243764258411496, -4.23611872864297, 0
517, 2.3075588133372498, -4.289979089155009, 0
518, 2.3714691642176233, -4.344694321395733, 0
519, 2.436106047857125, -4.399168354718979, 0
520, 2.502080201060265, -4.45230511847859, 0
521, 2.5693916238270416, -4.504104612674563, 0
522, 2.6380403161574546, -4.5545668373069, 0
523, 2.7080262780515043, -4.603691792375599, 0
524, 2.7793495095091916, -4.651479477880661, 0
525, 2.8520100105305164, -4.697929893822088, 0
526, 2.926007781115478, -4.743043040199876, 0
527, 3.001342821264076, -4.786818917014028, 0
528, 3.078015130976311, -4.829257524264543, 0
529, 3.1560247102521832, -4.870358861951421, 0
530, 3.2353715590916923, -4.910122930074661, 0
531, 3.3160556774948375, -4.948549728634264, 0
532, 3.3980770654616212, -4.985639257630232, 0
533, 3.481435722992041, -5.021391517062561, 0
534, 3.5661316500860982, -5.055806506931255, 0
535, 3.652164846743793, -5.088884227236311, 0
536, 3.7395353129651228, -5.120624677977729, 0
537, 3.8282430487500907, -5.151027859155511, 0
538, 3.9182880540986957, -5.180093770769656, 0
539, 4.007532155830471, -5.2069828130765625, 0
540, 4.09383718076495, -5.230855386332627, 0
541, 4.177203128902132, -5.25171149053785, 0
542, 4.2576300002420195, -5.269551125692232, 0
543, 4.335117794784609, -5.284374291795772, 0
544, 4.4096665125299035, -5.296180988848471, 0
545, 4.481276153477902, -5.304971216850329, 0
546, 4.549946717628604, -5.310744975801347, 0
547, 4.61567820498201, -5.313502265701522, 0
548, 4.678470615538119, -5.313243086550856, 0
549, 4.738323949296932, -5.309967438349348, 0
550, 4.79523820625845, -5.303675321097001, 0
551, 4.8492133864226705, -5.29436673479381, 0
552, 4.900249489789596, -5.28204167943978, 0
553, 4.948346516359225, -5.266700155034908, 0
554, 4.993504466131556, -5.248342161579194, 0
555, 5.0357233391065925, -5.226967699072639, 0
556, 5.075003135284332, -5.202576767515242, 0
557, 5.111343854664777, -5.175169366907005, 0
558, 5.144745497247924, -5.144745497247926, 0
559, 5.175169366907003, -5.111343854664779, 0
560, 5.20257676751524, -5.0750031352843346, 0
561, 5.226967699072636, -5.035723339106593, 0
562, 5.248342161579192, -4.993504466131558, 0
563, 5.266700155034906, -4.9483465163592255, 0
564, 5.282041679439779, -4.900249489789598, 0
565, 5.294366734793809, -4.849213386422673, 0
566, 5.303675321096999, -4.7952382062584515, 0
567, 5.309967438349347, -4.738323949296934, 0
568, 5.313243086550854, -4.678470615538121, 0
569, 5.313502265701521, -4.615678204982012, 0
570, 5.310744975801345, -4.549946717628606, 0
571, 5.304971216850328, -4.4812761534779035, 0
572, 5.296180988848469, -4.409666512529905, 0
573, 5.28437429179577, -4.335117794784611, 0
574, 5.26955112569223, -4.257630000242021, 0
575, 5.251711490537849, -4.177203128902136, 0
576, 5.2308553863326255, -4.093837180764951, 0
577, 5.206982813076561, -4.007532155830472, 0
578, 5.180093770769655, -3.918288054098697, 0
579, 5.151027859155509, -3.8282430487500925, 0
580, 5.1206246779777285, -3.7395353129651254, 0
581, 5.088884227236309, -3.652164846743793, 0
582, 5.055806506931253, -3.5661316500860996, 0
583, 5.02139151706256, -3.481435722992043, 0
584, 4.985639257630231, -3.398077065461623, 0
585, 4.948549728634264, -3.3160556774948406, 0
586, 4.91012293007466, -3.2353715590916936, 0
587, 4.870358861951419, -3.1560247102521846, 0
588, 4.829257524264541, -3.0780151309763126, 0
589, 4.786818917014027, -3.0013428212640774, 0
590, 4.7430430401998755, -2.926007781115479, 0
591, 4.697929893822086, -2.8520100105305173, 0
592, 4.6514794778806605, -2.779349509509193, 0
593, 4.6036917923755984, -2.7080262780515056, 0
594, 4.5545668373069, -2.638040316157456, 0
595, 4.504104612674563, -2.5693916238270433, 0
596, 4.45230511847859, -2.5020802010602665, 0
597, 4.399168354718978, -2.4361060478571264, 0
598, 4.344694321395732, -2.3714691642176247, 0
599, 4.2899790891550085, -2.307558813337251, 0
600, 4.236118728642969, -2.243764258411497, 0
601, 4.1831132398596145, -2.1800854994403633, 0
602, 4.130962622804946, -2.11652253642385, 0
603, 4.079666877478961, -2.053075369361957, 0
604, 4.029226003881662, -1.9897439982546845, 0
605, 3.979640002013048, -1.9265284231020323, 0
606, 3.9309088718731164, -1.8634286439039993, 0
607, 3.883032613461871, -1.8004446606605873, 0
608, 3.8360112267793105, -1.7375764733717949, 0
609, 3.7898447118254346, -1.674824082037624, 0
610, 3.744533068600244, -1.6121874866580725, 0
611, 3.700076297103737, -1.5496666872331404, 0
612, 3.656474397335915, -1.4872616837628296, 0
613, 3.613727369296779, -1.424972476247139, 0
614, 3.5718352129863264, -1.362799064686068, 0
615, 3.5307979284045596, -1.3007414490796188, 0
616, 3.490615515551476, -1.2387996294277872, 0
617, 3.451287974427079, -1.1769736057305775, 0
618, 3.4128153050313657, -1.1152633779879881, 0
619, 3.3738215753731744, -1.0509984774714358, 0
620, 3.3369356148856957, -0.9879981543749976, 0
621, 3.3021574235689304, -0.9262624086986765, 0
622, 3.2694870014228785, -0.8657912404424698, 0
623, 3.2389243484475383, -0.8065846496063775, 0
624, 3.2104694646429124, -0.7486426361904017, 0
625, 3.1841223500089995, -0.6919652001945412, 0
626, 3.1598830045457995, -0.6365523416187957, 0
627, 3.137751428253312, -0.5824040604631646, 0
628, 3.117727621131538, -0.5295203567276501, 0
629, 3.099811583180477, -0.47790123041224986, 0
630, 3.084003314400129, -0.4275466815169655, 0
631, 3.070302814790494, -0.3784567100417962, 0
632, 3.058710084351573, -0.3306313159867428, 0
633, 3.049225123083364, -0.28407049935180356, 0
634, 3.041847930985868, -0.23877426013698064, 0
635, 3.0365785080590855, -0.19474259834227203, 0
636, 3.033416854303016, -0.15197551396767925, 0
637, 3.675022110740561, 0.1104730070132011, 0
638, 3.6710884553635896, 0.11634904952385876, 0
639, 3.669322770464932, 0.125101735835514, 0
640, 3.6697250560445855, 0.13673106594816856, 0
641, 3.672295312102554, 0.15123703986182058, 0
642, 3.6770335386388333, 0.16861965757647127, 0
643, 3.6839397356534263, 0.18887891909212057, 0
644, 3.6930139031463316, 0.2120148244087677, 0
645, 3.7042560411175502, 0.23802737352641268, 0
646, 3.7176661495670817, 0.2669165664450569, 0
647, 3.733244228494925, 0.2986824031646994, 0
648, 3.750990277901082, 0.33332488368533947, 0
649, 3.7709042977855516, 0.37084400800697825, 0
650, 3.7929862881483345, 0.4112397761296153, 0
651, 3.817236248989429, 0.4545121880532509, 0
652, 3.843654180308837, 0.5006612437778848, 0
653, 3.8722400821065577, 0.5496869433035168, 0
654, 3.902993954382591, 0.601589286630147, 0
655, 3.935915797136938, 0.6563682737577762, 0
656, 3.9710056103695965, 0.7140239046864028, 0
657, 4.0082633940805685, 0.7745561794160277, 0
658, 4.047035087743379, 0.8366728583561416, 0
659, 4.086666630831555, 0.8990817019162339, 0
660, 4.127158023345094, 0.9617827100963056, 0
661, 4.1685092652839995, 1.0247758828963562, 0
662, 4.210720356648269, 1.0880612203163853, 0
663, 4.253791297437905, 1.1516387223563933, 0
664, 4.297722087652905, 1.2155083890163803, 0
665, 4.342512727293268, 1.2796702202963464, 0
666, 4.388163216358997, 1.3441242161962907, 0
667, 4.434673554850091, 1.4088703767162147, 0
668, 4.4820437427665505, 1.473908701856117, 0
669, 4.530273780108374, 1.5392391916159986, 0
670, 4.579363666875563, 1.6048618459958583, 0
671, 4.629313403068116, 1.6707766649956983, 0
672, 4.680122988686033, 1.7369836486155155, 0
673, 4.731792423729316, 1.803482796855312, 0
674, 4.784321708197964, 1.8702741097150886, 0
675, 4.837710842091975, 1.9373575871948419, 0
676, 4.891959825411353, 2.0047332292945765, 0
677, 4.947068658156095, 2.072401036014288, 0
678, 5.001733681794095, 2.141198616145404, 0
679, 5.0546512377932435, 2.2119635784793514, 0
680, 5.1058213261535395, 2.284695923016127, 0
681, 5.155243946874988, 2.3593956497557333, 0
682, 5.202919099957583, 2.4360627586981685, 0
683, 5.248846785401329, 2.5146972498434343, 0
684, 5.293027003206224, 2.5952991231915297, 0
685, 5.335459753372269, 2.677868378742454, 0
686, 5.376145035899462, 2.76240501649621, 0
687, 5.4150828507878055, 2.848909036452795, 0
688, 5.4522731980372985, 2.9373804386122093, 0
689, 5.4877160776479394, 3.0278192229744536, 0
690, 5.52141148961973, 3.1202253895395278, 0
691, 5.553359433952671, 3.2145989383074327, 0
692, 5.583559910646761, 3.310939869278166, 0
693, 5.612012919702, 3.409248182451729, 0
694, 5.638718461118387, 3.509523877828123, 0
695, 5.663676534895925, 3.6117669554073464, 0
696, 5.686887141034612, 3.7159774151894003, 0
697, 5.708350279534448, 3.8221552571742823, 0
698, 5.727149356924973, 3.9279133441062997, 0
699, 5.742367779735723, 4.030864538729755, 0
700, 5.754005547966699, 4.131008841044649, 0
701, 5.762062661617901, 4.22834625105098, 0
702, 5.76653912068933, 4.322876768748751, 0
703, 5.767434925180986, 4.414600394137959, 0
704, 5.764750075092867, 4.503517127218607, 0
705, 5.758484570424975, 4.589626967990692, 0
706, 5.748638411177308, 4.672929916454216, 0
707, 5.735211597349868, 4.753425972609178, 0
708, 5.718204128942655, 4.831115136455579, 0
709, 5.697616005955666, 4.905997407993418, 0
710, 5.673447228388905, 4.978072787222694, 0
711, 5.645697796242369, 5.0473412741434105, 0
712, 5.614367709516061, 5.113802868755564, 0
713, 5.579456968209978, 5.177457571059157, 0
714, 5.5409655723241205, 5.238305381054187, 0
715, 5.498893521858491, 5.296346298740656, 0
716, 5.453240816813087, 5.351580324118563, 0
717, 5.404007457187909, 5.404007457187909, 0
718, 5.351580324118563, 5.453240816813087, 0
719, 5.296346298740657, 5.4988935218584905, 0
720, 5.238305381054186, 5.540965572324121, 0
721, 5.177457571059157, 5.579456968209978, 0
722, 5.113802868755564, 5.614367709516061, 0
723, 5.0473412741434105, 5.645697796242369, 0
724, 4.978072787222695, 5.673447228388905, 0
725, 4.905997407993417, 5.697616005955666, 0
726, 4.831115136455579, 5.718204128942655, 0
727, 4.753425972609178, 5.735211597349868, 0
728, 4.672929916454216, 5.748638411177308, 0
729, 4.589626967990693, 5.758484570424974, 0
730, 4.503517127218606, 5.764750075092866, 0
731, 4.414600394137959, 5.767434925180986, 0
732, 4.322876768748751, 5.76653912068933, 0
733, 4.22834625105098, 5.762062661617901, 0
734, 4.131008841044649, 5.754005547966698, 0
735, 4.030864538729754, 5.742367779735722, 0
736, 3.9279133441062997, 5.727149356924973, 0
737, 3.8221552571742823, 5.708350279534448, 0
738, 3.7159774151894003, 5.686887141034612, 0
739, 3.6117669554073473, 5.6636765348959255, 0
740, 3.5095238778281224, 5.638718461118388, 0
741, 3.409248182451729, 5.612012919702, 0
742, 3.310939869278166, 5.583559910646761, 0
743, 3.2145989383074327, 5.553359433952671, 0
744, 3.1202253895395287, 5.52141148961973, 0
745, 3.0278192229744536, 5.4877160776479394, 0
746, 2.9373804386122093, 5.4522731980372985, 0
747, 2.848909036452795, 5.4150828507878055, 0
748, 2.76240501649621, 5.376145035899462, 0
749, 2.6778683787424558, 5.33545975337227, 0
750, 2.5952991231915292, 5.293027003206225, 0
751, 2.5146972498434343, 5.248846785401329, 0
752, 2.4360627586981685, 5.202919099957583, 0
753, 2.3593956497557333, 5.155243946874988, 0
754, 2.2846959230161272, 5.10582132615354, 0
755, 2.21196357847935, 5.054651237793243, 0
756, 2.141198616145404, 5.001733681794095, 0
757, 2.072401036014288, 4.947068658156095, 0
758, 2.0047332292945765, 4.891959825411353, 0
759, 1.9373575871948425, 4.837710842091976, 0
760, 1.870274109715087, 4.784321708197963, 0
761, 1.803482796855312, 4.731792423729316, 0
762, 1.7369836486155155, 4.680122988686033, 0
763, 1.6707766649956983, 4.629313403068116, 0
764, 1.604861845995859, 4.579363666875563, 0
765, 1.5392391916159978, 4.530273780108374, 0
766, 1.473908701856117, 4.4820437427665505, 0
767, 1.4088703767162147, 4.434673554850091, 0
768, 1.3441242161962907, 4.388163216358997, 0
769, 1.279670220296347, 4.342512727293269, 0
770, 1.21550838901638, 4.297722087652904, 0
771, 1.151638722356393, 4.253791297437904, 0
772, 1.0880612203163853, 4.210720356648269, 0
773, 1.0247758828963558, 4.168509265284, 0
774, 0.9617827100963059, 4.127158023345095, 0
775, 0.8990817019162334, 4.086666630831554, 0
776, 0.8366728583561415, 4.047035087743379, 0
777, 0.7745561794160277, 4.0082633940805685, 0
778, 0.7109176809139569, 3.9691047289686954, 0
779, 0.6504665993659001, 3.932348247212293, 0
780, 0.5932029347718593, 3.897993948811363, 0
781, 0.5391266871318324, 3.8660418337659035, 0
782, 0.48823785644582035, 3.8364919020759154, 0
783, 0.44053644271382286, 3.809344153741398, 0
784, 0.39602244593584074, 3.784598588762353, 0
785, 0.3546958661118737, 3.7622552071387787, 0
786, 0.3165567032419198, 3.7423140088706752, 0
787, 0.2816049573259816, 3.7247749939580435, 0
788, 0.24984062836405835, 3.7096381624008825, 0
789, 0.22126371635614908, 3.6969035141991933, 0
790, 0.19587422130225596, 3.686571049352975, 0
791, 0.17367214320237598, 3.6786407678622277, 0
792, 0.1546574820565117, 3.673112669726952, 0
793, 0.13883023786466225, 3.6699867549471477, 0
794, 0.12619041062682726, 3.669263023522814, 0
795, 0.11673800034300633, 3.6709414754539518, 0
796, 0.1104730070132011, 3.675022110740561, 0
797, 0.11047300701320092, 6.516181484858829, 0
798, 0.11047300701320084, 10.0, 0
799, -0.11047300701320079, 9.999999999999998, 0
800, -0.1104730070132011, 3.675022110740561, 0
801, -0.11634904952385876, 3.6710884553635896, 0
802, -0.125101735835514, 3.669322770464932, 0
803, -0.13673106594816856, 3.6697250560445855, 0
804, -0.15123703986182058, 3.672295312102554, 0
805, -0.16861965757647127, 3.6770335386388333, 0
806, -0.18887891909212057, 3.6839397356534263, 0
807, -0.2120148244087677, 3.6930139031463316, 0
808, -0.23802737352641268, 3.7042560411175502, 0
809, -0.2669165664450569, 3.7176661495670817, 0
810, -0.2986824031646994, 3.733244228494925, 0
811, -0.33332488368533947, 3.750990277901082, 0
812, -0.37084400800697825, 3.7709042977855516, 0
813, -0.4112397761296153, 3.7929862881483345, 0
814, -0.4545121880532509, 3.817236248989429, 0
815, -0.5006612437778848, 3.843654180308837, 0
816, -0.5496869433035168, 3.8722400821065577, 0
817, -0.601589286630147, 3.902993954382591, 0
818, -0.6563682737577762, 3.935915797136938, 0
819, -0.7140239046864028, 3.9710056103695965, 0
820, -0.7745561794160277, 4.0082633940805685, 0
821, -0.8366728583561416, 4.047035087743379, 0
822, -0.8990817019162339, 4.086666630831555, 0
823, -0.9617827100963056, 4.127158023345094, 0
824, -1.0247758828963562, 4.1685092652839995, 0
825, -1.0880612203163853, 4.210720356648269, 0
826, -1.1516387223563933, 4.253791297437905, 0
827, -1.2155083890163803, 4.297722087652905, 0
828, -1.2796702202963464, 4.342512727293268, 0
829, -1.3441242161962907, 4.388163216358997, 0
830, -1.4088703767162147, 4.434673554850091, 0
831, -1.473908701856117, 4.4820437427665505, 0
832, -1.5392391916159986, 4.530273780108374, 0
833, -1.6048618459958583, 4.579363666875563, 0
834, -1.6707766649956983, 4.629313403068116, 0
835, -1.7369836486155155, 4.680122988686033, 0
836, -1.803482796855312, 4.731792423729316, 0
837, -1.8702741097150886, 4.784321708197964, 0
838, -1.9373575871948419, 4.837710842091975, 0
839, -2.0047332292945765, 4.891959825411353, 0
840, -2.072401036014288, 4.947068658156095, 0
841, -2.141198616145404, 5.001733681794095, 0
842, -2.2119635784793514, 5.0546512377932435, 0
843, -2.284695923016127, 5.1058213261535395, 0
844, -2.3593956497557333, 5.155243946874988, 0
845, -2.4360627586981685, 5.202919099957583, 0
846, -2.5146972498434343, 5.248846785401329, 0
847, -2.5952991231915297, 5.293027003206224, 0
848, -2.677868378742454, 5.335459753372269, 0
849, -2.76240501649621, 5.376145035899462, 0
850, -2.848909036452795, 5.4150828507878055, 0
851, -2.9373804386122093, 5.4522731980372985, 0
852, -3.0278192229744536, 5.4877160776479394, 0
853, -3.1202253895395278, 5.52141148961973, 0
854, -3.2145989383074327, 5.553359433952671, 0
855, -3.310939869278166, 5.583559910646761, 0
856, -3.409248182451729, 5.612012919702, 0
857, -3.509523877828123, 5.638718461118387, 0
858, -3.6117669554073464, 5.663676534895925, 0
859, -3.7159774151894003, 5.686887141034612, 0
860, -3.8221552571742823, 5.708350279534448, 0
861, -3.9279133441062997, 5.727149356924973, 0
862, -4.030864538729755, 5.742367779735723, 0
863, -4.131008841044649, 5.754005547966699, 0
864, -4.22834625105098, 5.762062661617901, 0
865, -4.322876768748751, 5.76653912068933, 0
866, -4.414600394137959, 5.767434925180986, 0
867, -4.503517127218607, 5.764750075092867, 0
868, -4.589626967990692, 5.758484570424975, 0
869, -4.672929916454216, 5.748638411177308, 0
870, -4.753425972609178, 5.735211597349868, 0
871, -4.831115136455579, 5.718204128942655, 0
872, -4.905997407993418, 5.697616005955666, 0
873, -4.978072787222694, 5.673447228388905, 0
874, -5.0473412741434105, 5.645697796242369, 0
875, -5.113802868755564, 5.614367709516061, 0
876, -5.177457571059157, 5.579456968209978, 0
877, -5.238305381054187, 5.5409655723241205, 0
878, -5.296346298740656, 5.498893521858491, 0
879, -5.351580324118563, 5.453240816813087, 0
880, -5.404007457187909, 5.404007457187909, 0
881, -5.453240816813087, 5.351580324118563, 0
882, -5.4988935218584905, 5.296346298740657, 0
883, -5.540965572324121, 5.238305381054186, 0
884, -5.579456968209978, 5.177457571059157, 0
885, -5.614367709516061, 5.113802868755564, 0
886, -5.645697796242369, 5.0473412741434105, 0
887, -5.673447228388905, 4.978072787222695, 0
888, -5.697616005955666, 4.905997407993417, 0
889, -5.718204128942655, 4.831115136455579, 0
890, -5.735211597349868, 4.753425972609178, 0
891, -5.748638411177308, 4.672929916454216, 0
892, -5.758484570424974, 4.589626967990693, 0
893, -5.764750075092866, 4.503517127218606, 0
894, -5.767434925180986, 4.414600394137959, 0
895, -5.76653912068933, 4.322876768748751, 0
896, -5.762062661617901, 4.22834625105098, 0
897, -5.754005547966698, 4.131008841044649, 0
898, -5.742367779735722, 4.030864538729754, 0
899, -5.727149356924973, 3.9279133441062997, 0
900, -5.708350279534448, 3.8221552571742823, 0
901, -5.686887141034612, 3.7159774151894003, 0
902, -5.6636765348959255, 3.6117669554073473, 0
903, -5.638718461118388, 3.5095238778281224, 0
904, -5.612012919702, 3.409248182451729, 0
905, -5.583559910646761, 3.310939869278166, 0
906, -5.553359433952671, 3.2145989383074327, 0
907, -5.52141148961973, 3.1202253895395287, 0
908, -5.4877160776479394, 3.0278192229744536, 0
909, -5.4522731980372985, 2.9373804386122093, 0
910, -5.4150828507878055, 2.848909036452795, 0
911, -5.376145035899462, 2.76240501649621, 0
912, -5.33545975337227, 2.6778683787424558, 0
913, -5.293027003206225, 2.5952991231915292, 0
914, -5.248846785401329, 2.5146972498434343, 0
915, -5.202919099957583, 2.4360627586981685, 0
916, -5.155243946874988, 2.3593956497557333, 0
917, -5.10582132615354, 2.2846959230161272, 0
918, -5.054651237793243, 2.21196357847935, 0
919, -5.001733681794095, 2.141198616145404, 0
920, -4.947068658156095, 2.072401036014288, 0
921, -4.891959825411353, 2.0047332292945765, 0
922, -4.837710842091976, 1.9373575871948425, 0
923, -4.784321708197963, 1.870274109715087, 0
924, -4.731792423729316, 1.803482796855312, 0
925, -4.680122988686033, 1.7369836486155155, 0
926, -4.629313403068116, 1.6707766649956983, 0
927, -4.579363666875563, 1.604861845995859, 0
928, -4.530273780108374, 1.5392391916159978, 0
929, -4.4820437427665505, 1.473908701856117, 0
930, -4.434673554850091, 1.4088703767162147, 0
931, -4.388163216358997, 1.3441242161962907, 0
932, -4.342512727293269, 1.279670220296347, 0
933, -4.297722087652904, 1.21550838901638, 0
934, -4.253791297437904, 1.151638722356393, 0
935, -4.210720356648269, 1.0880612203163853, 0
936, -4.168509265284, 1.0247758828963558, 0
937, -4.127158023345095, 0.9617827100963059, 0
938, -4.086666630831554, 0.8990817019162334, 0
939, -4.047035087743379, 0.8366728583561415, 0
940, -4.0082633940805685, 0.7745561794160277, 0
941, -3.9691047289686954, 0.7109176809139569, 0
942, -3.932348247212293, 0.6504665993659001, 0
943, -3.897993948811363, 0.5932029347718593, 0
944, -3.8660418337659035, 0.5391266871318324, 0
945, -3.8364919020759154, 0.48823785644582035, 0
946, -3.809344153741398, 0.44053644271382286, 0
947, -3.784598588762353, 0.39602244593584074, 0
948, -3.7622552071387787, 0.3546958661118737, 0
949, -3.7423140088706752, 0.3165567032419198, 0
950, -3.7247749939580435, 0.2816049573259816, 0
951, -3.7096381624008825, 0.24984062836405835, 0
952, -3.6969035141991933, 0.22126371635614908, 0
953, -3.686571049352975, 0.19587422130225596, 0
954, -3.6786407678622277, 0.17367214320237598, 0
955, -3.673112669726952, 0.1546574820565117, 0
956, -3.6699867549471477, 0.13883023786466225, 0
957, -3.669263023522814, 0.12619041062682726, 0
958, -3.6709414754539518, 0.11673800034300633, 0
959, -3.675022110740561, 0.1104730070132011, 0
960, -6.516181484858829, 0.11047300701320092, 0
961, -10.0, 0.11047300701320084, 0
962, -9.999999999999998, -0.11047300701320079, 0
963, -3.675022110740561, -0.11047300701320081, 0
964, -3.671088455363589, -0.11634904952385847, 0
965, -3.6693227704649316, -0.1251017358355137, 0
966, -3.6697250560445855, -0.13673106594816828, 0
967, -3.6722953121025537, -0.1512370398618203, 0
968, -3.677033538638833, -0.168619657576471, 0
969, -3.6839397356534263, -0.18887891909212026, 0
970, -3.693013903146331, -0.2120148244087674, 0
971, -3.70425604111755, -0.23802737352641237, 0
972, -3.7176661495670817, -0.26691656644505657, 0
973, -3.733244228494925, -0.29868240316469913, 0
974, -3.750990277901082, -0.3333248836853392, 0
975, -3.7709042977855516, -0.3708440080069779, 0
976, -3.792986288148334, -0.411239776129615, 0
977, -3.8172362489894285, -0.45451218805325055, 0
978, -3.8436541803088367, -0.5006612437778845, 0
979, -3.8722400821065577, -0.5496869433035164, 0
980, -3.902993954382591, -0.6015892866301467, 0
981, -3.935915797136938, -0.6563682737577757, 0
982, -3.9710056103695965, -0.7140239046864024, 0
983, -4.0082633940805685, -0.7745561794160274, 0
984, -4.047035087743379, -0.8366728583561412, 0
985, -4.086666630831554, -0.8990817019162336, 0
986, -4.127158023345094, -0.9617827100963051, 0
987, -4.1685092652839995, -1.0247758828963558, 0
988, -4.210720356648269, -1.0880612203163849, 0
989, -4.253791297437904, -1.1516387223563929, 0
990, -4.297722087652904, -1.2155083890163798, 0
991, -4.342512727293268, -1.279670220296346, 0
992, -4.388163216358997, -1.3441242161962903, 0
993, -4.434673554850091, -1.4088703767162143, 0
994, -4.48204374276655, -1.4739087018561166, 0
995, -4.530273780108374, -1.5392391916159982, 0
996, -4.579363666875562, -1.604861845995858, 0
997, -4.629313403068116, -1.6707766649956977, 0
998, -4.680122988686033, -1.736983648615515, 0
999, -4.731792423729316, -1.8034827968553113, 0
1000, -4.784321708197964, -1.8702741097150881, 0
1001, -4.837710842091975, -1.9373575871948414, 0
1002, -4.891959825411353, -2.0047332292945756, 0
1003, -4.947068658156095, -2.0724010360142873, 0
1004, -5.001733681794094, -2.1411986161454037, 0
1005, -5.0546512377932435, -2.211963578479351, 0
1006, -5.1058213261535395, -2.284695923016126, 0
1007, -5.155243946874988, -2.359395649755733, 0
1008, -5.202919099957583, -2.4360627586981676, 0
1009, -5.248846785401329, -2.5146972498434335, 0
1010, -5.293027003206224, -2.5952991231915292, 0
1011, -5.335459753372268, -2.6778683787424535, 0
1012, -5.376145035899462, -2.762405016496209, 0
1013, -5.4150828507878055, -2.8489090364527945, 0
1014, -5.452273198037298, -2.937380438612209, 0
1015, -5.487716077647939, -3.027819222974453, 0
1016, -5.52141148961973, -3.120225389539527, 0
1017, -5.553359433952671, -3.214598938307432, 0
1018, -5.583559910646761, -3.3109398692781653, 0
1019, -5.612012919701999, -3.4092481824517287, 0
1020, -5.638718461118387, -3.5095238778281224, 0
1021, -5.663676534895925, -3.6117669554073455, 0
1022, -5.686887141034612, -3.7159774151893994, 0
1023, -5.708350279534448, -3.822155257174282, 0
1024, -5.727149356924972, -3.9279133441062988, 0
1025, -5.742367779735723, -4.030864538729754, 0
1026, -5.754005547966699, -4.131008841044648, 0
1027, -5.762062661617901, -4.22834625105098, 0
1028, -5.76653912068933, -4.32287676874875, 0
1029, -5.767434925180985, -4.414600394137958, 0
1030, -5.764750075092867, -4.503517127218606, 0
1031, -5.758484570424974, -4.589626967990691, 0
1032, -5.748638411177308, -4.6729299164542155, 0
1033, -5.735211597349868, -4.753425972609177, 0
1034, -5.718204128942655, -4.831115136455578, 0
1035, -5.697616005955666, -4.905997407993417, 0
1036, -5.673447228388905, -4.978072787222693, 0
1037, -5.645697796242369, -5.04734127414341, 0
1038, -5.614367709516061, -5.113802868755563, 0
1039, -5.579456968209978, -5.177457571059156, 0
1040, -5.5409655723241205, -5.238305381054186, 0
1041, -5.498893521858491, -5.296346298740655, 0
1042, -5.453240816813087, -5.351580324118562, 0
1043, -5.404007457187909, -5.404007457187908, 0
1044, -5.351580324118563, -5.453240816813086, 0
1045, -5.296346298740657, -5.4988935218584905, 0
1046, -5.238305381054186, -5.5409655723241205, 0
1047, -5.177457571059157, -5.5794569682099775, 0
1048, -5.113802868755564, -5.61436770951606, 0
1049, -5.0473412741434105, -5.645697796242368, 0
1050, -4.978072787222695, -5.673447228388904, 0
1051, -4.905997407993417, -5.697616005955665, 0
1052, -4.831115136455579, -5.718204128942654, 0
1053, -4.753425972609178, -5.735211597349867, 0
1054, -4.672929916454216, -5.748638411177307, 0
1055, -4.589626967990693, -5.758484570424973, 0
1056, -4.503517127218606, -5.7647500750928655, 0
1057, -4.414600394137959, -5.767434925180985, 0
1058, -4.322876768748751, -5.7665391206893295, 0
1059, -4.228346251050981, -5.7620626616179, 0
1060, -4.131008841044649, -5.754005547966697, 0
1061, -4.030864538729754, -5.742367779735722, 0
1062, -3.9279133441062997, -5.727149356924972, 0
1063, -3.8221552571742823, -5.708350279534447, 0
1064, -3.7159774151894003, -5.686887141034611, 0
1065, -3.6117669554073473, -5.663676534895925, 0
1066, -3.509523877828123, -5.638718461118387, 0
1067, -3.4092481824517296, -5.612012919701999, 0
1068, -3.310939869278166, -5.58355991064676, 0
1069, -3.2145989383074327, -5.553359433952671, 0
1070, -3.1202253895395287, -5.52141148961973, 0
1071, -3.0278192229744536, -5.487716077647939, 0
1072, -2.9373804386122098, -5.452273198037298, 0
1073, -2.8489090364527954, -5.415082850787805, 0
1074, -2.76240501649621, -5.376145035899462, 0
1075, -2.677868378742456, -5.335459753372269, 0
1076, -2.5952991231915297, -5.293027003206224, 0
1077, -2.5146972498434343, -5.248846785401329, 0
1078, -2.4360627586981685, -5.202919099957583, 0
1079, -2.359395649755734, -5.155243946874987, 0
1080, -2.2846959230161277, -5.1058213261535395, 0
1081, -2.2119635784793505, -5.054651237793242, 0
1082, -2.1411986161454046, -5.001733681794094, 0
1083, -2.072401036014288, -4.947068658156095, 0
1084, -2.0047332292945765, -4.891959825411353, 0
1085, -1.9373575871948427, -4.837710842091975, 0
1086, -1.8702741097150872, -4.784321708197963, 0
1087, -1.8034827968553122, -4.731792423729316, 0
1088, -1.736983648615516, -4.680122988686033, 0
1089, -1.6707766649956985, -4.629313403068116, 0
1090, -1.6048618459958592, -4.579363666875563, 0
1091, -1.539239191615998, -4.530273780108373, 0
1092, -1.4739087018561172, -4.48204374276655, 0
1093, -1.408870376716215, -4.434673554850091, 0
1094, -1.344124216196291, -4.388163216358997, 0
1095, -1.2796702202963472, -4.342512727293268, 0
1096, -1.2155083890163803, -4.297722087652904, 0
1097, -1.1516387223563933, -4.253791297437904, 0
1098, -1.0880612203163855, -4.210720356648269, 0
1099, -1.024775882896356, -4.1685092652839995, 0
1100, -0.9617827100963061, -4.127158023345094, 0
1101, -0.8990817019162336, -4.086666630831554, 0
1102, -0.8366728583561419, -4.047035087743378, 0
1103, -0.774556179416028, -4.008263394080568, 0
1104, -0.7109176809139571, -3.969104728968695, 0
1105, -0.6504665993659006, -3.9323482472122926, 0
1106, -0.5932029347718595, -3.8979939488113624, 0
1107, -0.5391266871318326, -3.8660418337659035, 0
1108, -0.4882378564458206, -3.836491902075915, 0
1109, -0.4405364427138233, -3.809344153741398, 0
1110, -0.39602244593584096, -3.784598588762353, 0
1111, -0.3546958661118739, -3.7622552071387783, 0
1112, -0.31655670324192003, -3.7423140088706752, 0
1113, -0.28160495732598184, -3.724774993958043, 0
1114, -0.24984062836405857, -3.709638162400882, 0
1115, -0.22126371635614953, -3.696903514199193, 0
1116, -0.19587422130225618, -3.6865710493529744, 0
1117, -0.1736721432023762, -3.6786407678622273, 0
1118, -0.15465748205651192, -3.6731126697269514, 0
1119, -0.13883023786466248, -3.669986754947147, 0
1120, -0.12619041062682748, -3.6692630235228134, 0
1121, -0.11673800034300655, -3.6709414754539513, 0
1122, -0.11047300701320133, -3.675022110740561, 0
1123, -0.11047300701320181, -6.516181484858829, 0
1124, -0.11047300701320173, -9.999999999999998, 0
1125, 0.1104730070131999, -9.999999999999998, 0
1126, 0.11047300701320059, -3.6750221107405614, 0
1127, 0.11634904952385802, -3.6710884553635896, 0
1128, 0.12510173583551348, -3.669322770464932, 0
1129, 0.13673106594816783, -3.669725056044586, 0
1130, 0.15123703986182008, -3.672295312102554, 0
1131, 0.16861965757647077, -3.6770335386388333, 0
1132, 0.18887891909211982, -3.6839397356534263, 0
1133, 0.21201482440876718, -3.6930139031463316, 0
1134, 0.23802737352641215, -3.7042560411175502, 0
1135, 0.26691656644505635, -3.7176661495670817, 0
1136, 0.2986824031646989, -3.7332442284949257, 0
1137, 0.33332488368533897, -3.7509902779010824, 0
1138, 0.3708440080069777, -3.7709042977855516, 0
1139, 0.41123977612961476, -3.7929862881483345, 0
1140, 0.45451218805325033, -3.817236248989429, 0
1141, 0.500661243777884, -3.843654180308837, 0
1142, 0.5496869433035162, -3.872240082106558, 0
1143, 0.6015892866301464, -3.9029939543825916, 0
1144, 0.6563682737577755, -3.935915797136938, 0
1145, 0.7140239046864022, -3.9710056103695965, 0
1146, 0.7745561794160272, -4.0082633940805685, 0
1147, 0.836672858356141, -4.047035087743379, 0
1148, 0.8990817019162334, -4.086666630831555, 0
1149, 0.9617827100963047, -4.127158023345095, 0
1150, 1.0247758828963556, -4.1685092652839995, 0
1151, 1.0880612203163846, -4.21072035664827, 0
1152, 1.1516387223563926, -4.253791297437905, 0
1153, 1.2155083890163796, -4.297722087652905, 0
1154, 1.2796702202963457, -4.342512727293268, 0
1155, 1.34412421619629, -4.388163216358997, 0
1156, 1.408870376716214, -4.434673554850091, 0
1157, 1.4739087018561163, -4.4820437427665505, 0
1158, 1.539239191615998, -4.530273780108374, 0
1159, 1.6048618459958577, -4.579363666875563, 0
1160, 1.6707766649956974, -4.629313403068116, 0
1161, 1.7369836486155148, -4.680122988686033, 0
1162, 1.803482796855311, -4.731792423729316, 0
1163, 1.870274109715088, -4.7843217081979645, 0
1164, 1.9373575871948412, -4.837710842091976, 0
1165, 2.0047332292945756, -4.891959825411354, 0
1166, 2.0724010360142873, -4.947068658156096, 0
1167, 2.1411986161454033, -5.001733681794095, 0
1168, 2.2119635784793505, -5.0546512377932435, 0
1169, 2.284695923016126, -5.10582132615354, 0
1170, 2.3593956497557325, -5.155243946874988, 0
1171, 2.4360627586981676, -5.202919099957584, 0
1172, 2.5146972498434335, -5.24884678540133, 0
1173, 2.595299123191529, -5.293027003206225, 0
1174, 2.6778683787424535, -5.335459753372269, 0
1175, 2.762405016496209, -5.376145035899463, 0
1176, 2.848909036452794, -5.415082850787806, 0
1177, 2.9373804386122084, -5.4522731980372985, 0
1178, 3.0278192229744527, -5.4877160776479394, 0
1179, 3.120225389539527, -5.52141148961973, 0
1180, 3.214598938307432, -5.5533594339526715, 0
1181, 3.3109398692781653, -5.583559910646761, 0
1182, 3.4092481824517287, -5.612012919702, 0
1183, 3.5095238778281224, -5.638718461118388, 0
1184, 3.6117669554073455, -5.6636765348959255, 0
1185, 3.715977415189399, -5.686887141034613, 0
1186, 3.8221552571742814, -5.708350279534449, 0
1187, 3.9279133441062988, -5.727149356924973, 0
1188, 4.030864538729754, -5.742367779735723, 0
1189, 4.131008841044648, -5.7540055479667, 0
1190, 4.228346251050979, -5.762062661617901, 0
1191, 4.32287676874875, -5.766539120689331, 0
1192, 4.414600394137958, -5.767434925180986, 0
1193, 4.503517127218606, -5.764750075092867, 0
1194, 4.589626967990691, -5.758484570424975, 0
1195, 4.6729299164542155, -5.748638411177309, 0
1196, 4.753425972609177, -5.735211597349869, 0
1197, 4.831115136455578, -5.718204128942656, 0
1198, 4.905997407993417, -5.697616005955667, 0
1199, 4.978072787222693, -5.6734472283889055, 0
1200, 5.04734127414341, -5.64569779624237, 0
1201, 5.113802868755563, -5.614367709516062, 0
1202, 5.177457571059156, -5.579456968209979, 0
1203, 5.238305381054186, -5.540965572324121, 0
1204, 5.296346298740655, -5.498893521858492, 0
1205, 5.351580324118562, -5.4532408168130875, 0
1206, 5.404007457187908, -5.40400745718791, 0
1207, 5.453240816813086, -5.351580324118564, 0
1208, 5.4988935218584905, -5.296346298740658, 0
1209, 5.5409655723241205, -5.238305381054187, 0
1210, 5.5794569682099775, -5.177457571059158, 0
1211, 5.61436770951606, -5.113802868755565, 0
1212, 5.645697796242368, -5.047341274143411, 0
1213, 5.673447228388904, -4.978072787222696, 0
1214, 5.697616005955665, -4.905997407993418, 0
1215, 5.718204128942654, -4.83111513645558, 0
1216, 5.735211597349867, -4.753425972609179, 0
1217, 5.748638411177308, -4.672929916454217, 0
1218, 5.758484570424973, -4.589626967990694, 0
1219, 5.764750075092866, -4.503517127218607, 0
1220, 5.767434925180985, -4.41460039413796, 0
1221, 5.7665391206893295, -4.322876768748752, 0
1222, 5.7620626616179, -4.228346251050981, 0
1223, 5.754005547966697, -4.1310088410446495, 0
1224, 5.742367779735722, -4.030864538729755, 0
1225, 5.727149356924972, -3.9279133441063006, 0
1226, 5.708350279534447, -3.822155257174283, 0
1227, 5.686887141034612, -3.7159774151894007, 0
1228, 5.663676534895925, -3.611766955407348, 0
1229, 5.638718461118387, -3.5095238778281237, 0
1230, 5.612012919701999, -3.40924818245173, 0
1231, 5.58355991064676, -3.310939869278167, 0
1232, 5.553359433952671, -3.2145989383074336, 0
1233, 5.52141148961973, -3.1202253895395295, 0
1234, 5.487716077647939, -3.0278192229744545, 0
1235, 5.452273198037298, -2.93738043861221, 0
1236, 5.4150828507878055, -2.848909036452796, 0
1237, 5.376145035899462, -2.762405016496211, 0
1238, 5.335459753372269, -2.6778683787424566, 0
1239, 5.293027003206224, -2.59529912319153, 0
1240, 5.248846785401329, -2.514697249843435, 0
1241, 5.202919099957583, -2.4360627586981694, 0
1242, 5.155243946874988, -2.3593956497557342, 0
1243, 5.10582132615354, -2.284695923016128, 0
1244, 5.054651237793242, -2.211963578479351, 0
1245, 5.001733681794094, -2.141198616145405, 0
1246, 4.947068658156095, -2.0724010360142886, 0
1247, 4.891959825411353, -2.004733229294577, 0
1248, 4.837710842091976, -1.9373575871948432, 0
1249, 4.784321708197963, -1.8702741097150877, 0
1250, 4.731792423729316, -1.8034827968553127, 0
1251, 4.680122988686033, -1.7369836486155166, 0
1252, 4.629313403068116, -1.670776664995699, 0
1253, 4.579363666875563, -1.6048618459958597, 0
1254, 4.530273780108373, -1.5392391916159984, 0
1255, 4.48204374276655, -1.4739087018561179, 0
1256, 4.434673554850091, -1.4088703767162154, 0
1257, 4.388163216358997, -1.3441242161962914, 0
1258, 4.342512727293269, -1.2796702202963477, 0
1259, 4.297722087652904, -1.2155083890163807, 0
1260, 4.253791297437904, -1.1516387223563935, 0
1261, 4.210720356648269, -1.0880612203163857, 0
1262, 4.168509265284, -1.0247758828963565, 0
1263, 4.127158023345095, -0.9617827100963064, 0
1264, 4.086666630831554, -0.8990817019162339, 0
1265, 4.047035087743378, -0.8366728583561424, 0
1266, 4.0082633940805685, -0.7745561794160284, 0
1267, 3.969104728968695, -0.7109176809139575, 0
1268, 3.9323482472122926, -0.6504665993659009, 0
1269, 3.897993948811363, -0.5932029347718598, 0
1270, 3.8660418337659035, -0.5391266871318331, 0
1271, 3.8364919020759154, -0.4882378564458209, 0
1272, 3.809344153741398, -0.44053644271382364, 0
1273, 3.784598588762353, -0.3960224459358413, 0
1274, 3.7622552071387787, -0.35469586611187426, 0
1275, 3.7423140088706752, -0.3165567032419203, 0
1276, 3.724774993958043, -0.2816049573259821, 0
1277, 3.7096381624008825, -0.24984062836405888, 0
1278, 3.6969035141991933, -0.22126371635614983, 0
1279, 3.686571049352975, -0.19587422130225648, 0
1280, 3.6786407678622277, -0.1736721432023765, 0
1281, 3.673112669726952, -0.15465748205651222, 0
1282, 3.6699867549471477, -0.13883023786466278, 0
1283, 3.6692630235228134, -0.1261904106268278, 0
1284, 3.6709414754539518, -0.11673800034300684, 0
1285, 3.675022110740561, -0.11047300701320163, 0
1286, 6.516181484858829, -0.11047300701320233, 0
1287, 10.0, -0.11047300701320253, 0
1288, 9.999999999999998, 0.11047300701319912, 0
1289, -0.11047300701320094, 6.83751105537028, 0
1290, -6.83751105537028, -0.1104730070132008, 0
1291, 0.11047300701320024, -6.83751105537028, 0
1292, 6.83751105537028, 0.1104730070132001, 0
1293, 0.11047300701320088, 8.258090742429415, 0
1294, -0.11047300701320102, 5.256266583055421, 0
1295, -5.256266583055421, -0.1104730070132008, 0
1296, 0.11047300701320041, -5.256266583055421, 0
1297, 5.256266583055421, 0.1104730070132006, 0
1298, -8.258090742429415, 0.11047300701320088, 0
1299, -0.11047300701320177, -8.258090742429413, 0
1300, 8.258090742429415, -0.11047300701320244, 0
1301, -0.11047300701320087, 8.41875552768514, 0
1302, 0.11047300701320101, 5.095601797799695, 0
1303, -5.095601797799695, 0.11047300701320101, 0
1304, -0.11047300701320158, -5.095601797799695, 0
1305, 5.095601797799695, -0.11047300701320198, 0
1306, -8.41875552768514, -0.11047300701320079, 0
1307, 0.11047300701320006, -8.41875552768514, 0
1308, 8.41875552768514, 0.11047300701319962, 0
1309, -3.6572260538476282, -0.10281431586210045, 0
1310, -0.10281431586210195, 3.6572260538476282, 0
1311, -0.1026128481392201, -3.656104785280865, 0
1312, 3.656104785280865, -0.1026128481392216, 0
1313, -3.656104785280865, 0.10261284813922107, 0
1314, 0.10261284813922107, 3.656104785280865, 0
1315, 0.10281431586210013, -3.657226053847629, 0
1316, 3.6572260538476282, 0.10281431586210195, 0
1317, -3.656062592053789, -0.11787231221209518, 0
1318, -0.11787231221209571, 3.6560625920537904, 0
1319, 0.1178723122120949, -3.656062592053789, 0
1320, 3.6560625920537904, 0.11787231221209571, 0
1321, -0.1187601597701387, -3.6548740805738493, 0
1322, 3.6548740805738515, -0.11876015977013862, 0
1323, -3.6548740805738507, 0.11876015977013868, 0
1324, 0.11876015977013868, 3.6548740805738507, 0
1325, -3.6319331376607065, -0.1509079599703198, 0
1326, -0.1509079599703213, 3.6319331376607065, 0
1327, 0.15090795997031947, -3.6319331376607065, 0
1328, 3.6319331376607065, 0.1509079599703213, 0
1329, -3.616080206004401, -0.1072091121704683, 0
1330, -0.10720911217047291, 3.6160802060044044, 0
1331, 0.10720911217046561, -3.6160802060044013, 0
1332, 3.6160802060044044, 0.10720911217047291, 0
1333, -0.1551646331992666, -3.6289133502731037, 0
1334, 3.628913350273104, -0.1551646331992669, 0
1335, -3.628913350273104, 0.15516463319926638, 0
1336, 0.15516463319926638, 3.628913350273104, 0
1337, -0.10737115917032737, -3.6119908543554953, 0
1338, 3.6119908543555006, -0.10737115917033407, 0
1339, -3.6119908543554984, 0.10737115917033144, 0
1340, 0.10737115917033144, 3.6119908543554984, 0
1341, -4.070333228819276, -0.11047300701320081, 0
1342, -0.11047300701320108, 4.070333228819276, 0
1343, -0.11047300701320145, -4.3853119542701275, 0
1344, 4.3853119542701275, -0.1104730070132018, 0
1345, -3.641855759068714, -0.19191820145796917, 0
1346, -0.19191820145796798, 3.641855759068716, 0
1347, 0.191918201457968, -3.6418557590687146, 0
1348, 3.641855759068716, 0.19191820145796798, 0
1349, -3.852594571622953, 0.11047300701320109, 0
1350, 0.11047300701320109, 3.852594571622953, 0
1351, 0.11047300701320055, -4.070333228819276, 0
1352, 4.070333228819276, 0.11047300701320098, 0
1353, -0.19977000785514573, -3.640619921896689, 0
1354, 3.6406199218966893, -0.19977000785514604, 0
1355, -3.6406199218966893, 0.1997700078551455, 0
1356, 0.1997700078551455, 3.6406199218966893, 0
1357, -3.650145995082627, -0.2459771293668508, 0
1358, -0.2459771293668518, 3.650145995082626, 0
1359, 0.2459771293668511, -3.6501459950826263, 0
1360, 3.650145995082626, 0.2459771293668518, 0
1361, -0.3064992807129729, -3.6316379590362593, 0
1362, 3.6316379590362597, -0.306499280712972, 0
1363, -3.6316379590362597, 0.30649928071297267, 0
1364, 0.30649928071297267, 3.6316379590362597, 0
1365, -3.66681534240577, -0.3115566734508691, 0
1366, -0.3115566734508693, 3.6668153424057706, 0
1367, 0.31155667345086985, -3.66681534240577, 0
1368, 3.6668153424057706, 0.3115566734508693, 0
1369, -0.25695990797103063, -3.6552312719804214, 0
1370, 3.6552312719804223, -0.25695990797103063, 0
1371, -3.655231271980422, 0.2569599079710302, 0
1372, 0.2569599079710302, 3.655231271980422, 0
1373, -3.159606350847219, -0.235564004007364, 0
1374, -0.23556400400736302, 3.159606350847219, 0
1375, 0.23556400400736255, -3.159606350847219, 0
1376, 3.159606350847219, 0.23556400400736302, 0
1377, -0.16484200715828146, -3.150206170524601, 0
1378, 3.150206170524601, -0.1648420071582829, 0
1379, -3.150206170524601, 0.16484200715828243, 0
1380, 0.16484200715828243, 3.150206170524601, 0
1381, -0.37267858607197185, -3.681419069303686, 0
1382, 3.6814190693036855, -0.3726785860719734, 0
1383, -3.6814190693036863, 0.3726785860719725, 0
1384, 0.3726785860719725, 3.6814190693036863, 0
1385, -3.6917368894314495, -0.38881923843808197, 0
1386, -0.38881923843808225, 3.6917368894314495, 0
1387, 0.38881923843808025, -3.6917368894314513, 0
1388, 3.6917368894314495, 0.38881923843808225, 0
1389, -3.101134936371169, -0.20410749915224152, 0
1390, -3.5264186458053675, -0.19814322235138168, 0
1391, -0.2041074991522425, 3.1011349363711687, 0
1392, -0.19814322235138662, 3.5264186458053755, 0
1393, 0.20410749915224202, -3.1011349363711687, 0
1394, 0.19814322235138215, -3.5264186458053697, 0
1395, 3.1011349363711687, 0.2041074991522425, 0
1396, 3.5264186458053755, 0.19814322235138662, 0
1397, -3.1060788629393996, -0.12840351284423013, 0
1398, -0.12840351284423035, 3.106078862939401, 0
1399, 0.12840351284422988, -3.106078862939401, 0
1400, 3.106078862939401, 0.12840351284423035, 0
1401, -5.286769836249842, -5.16700516405098, 0
1402, -5.403937518609295, -4.965625904584634, 0
1403, -5.020379334647166, -5.37917030159569, 0
1404, -5.167005164050982, -5.286769836249839, 0
1405, -5.425688266572055, 4.907933397724804, 0
1406, -5.351386615531247, 5.072193687912401, 0
1407, -5.249936743032871, 5.210002286924329, 0
1408, -5.12106896438034, 5.320586460415964, 0
1409, -4.907933397724804, 5.425688266572058, 0
1410, 4.965625904584634, -5.403937518609296, 0
1411, 5.121068964380339, -5.3205864604159645, 0
1412, 5.24993674303287, -5.21000228692433, 0
1413, 5.351386615531246, -5.072193687912402, 0
1414, 5.210002286924329, 5.249936743032871, 0
1415, 5.020379334647166, 5.379170301595691, 0
1416, 5.351386615531251, 5.0721936879123986, 0
1417, -0.20900317226617934, -3.5146060521719122, 0
1418, 3.5146060521719127, -0.20900317226617965, 0
1419, -3.5146060521719127, 0.20900317226617912, 0
1420, 0.20900317226617912, 3.5146060521719127, 0
1421, -3.232046452475509, -0.4383138519195917, 0
1422, -3.1441170973623778, -0.32223067186281196, 0
1423, -0.4383138519195932, 3.2320464524755095, 0
1424, -0.32223067186281207, 3.1441170973623787, 0
1425, 0.4383138519195915, -3.2320464524755095, 0
1426, 0.32223067186281157, -3.144117097362379, 0
1427, 3.2320464524755095, 0.4383138519195932, 0
1428, 3.1441170973623787, 0.32223067186281207, 0
1429, -0.20934399664847753, -3.1011687301712447, 0
1430, -0.3660944834603755, -3.209394519402834, 0
1431, 3.101168730171244, -0.20934399664847725, 0
1432, 3.2093945194028346, -0.36609448346037454, 0
1433, -3.101168730171244, 0.20934399664847678, 0
1434, -3.2093945194028346, 0.36609448346037526, 0
1435, 0.20934399664847678, 3.101168730171244, 0
1436, 0.36609448346037526, 3.2093945194028346, 0
1437, -0.4638331561913134, -3.7150262717980205, 0
1438, 3.715026271798022, -0.46383315619131316, 0
1439, -3.715026271798022, 0.4638331561913127, 0
1440, 0.4638331561913127, 3.715026271798022, 0
1441, -3.7251675034453546, -0.47767665502725964, 0
1442, -0.4776766550272601, 3.7251675034453546, 0
1443, 0.47767665502726, -3.725167503445354, 0
1444, 3.7251675034453546, 0.4776766550272601, 0
1445, -5.27531875913109, -5.092959821481432, 0
1446, -5.212603867520508, -5.175997655692216, 0
1447, -5.336922427534878, -4.944250078914318, 0
1448, -4.902299563585661, -5.402359451145404, 0
1449, -4.9948005683257755, -5.3162503181254905, 0
1450, -5.092959821481432, -5.275318759131092, 0
1451, -5.351468625819865, 4.94888988457183, 0
1452, -5.292561739665265, 5.042411980939936, 0
1453, -5.175693137665392, 5.212269544424659, 0
1454, -5.245383736106268, 5.135792644167353, 0
1455, -5.047268368916428, 5.302154085065024, 0
1456, -4.94888988457183, 5.351468625819867, 0
1457, 5.00033370137253, -5.329861007377113, 0
1458, 4.893119294354281, -5.364345409344324, 0
1459, 5.136642933283157, -5.246511173129263, 0
1460, 5.245383736106267, -5.135792644167354, 0
1461, 5.425688266572054, -4.907933397724805, 0
1462, 5.325918473398368, -4.998730948959156, 0
1463, 5.113619146115102, 5.30858907760461, 0
1464, 5.212269544424659, 5.175693137665392, 0
1465, 4.902299563585661, 5.402359451145405, 0
1466, 4.9948005683257755, 5.316250318125491, 0
1467, 5.325918473398368, 4.998730948959155, 0
1468, 5.277371286512025, 5.09423434578501, 0
1469, -0.15330766268391724, -3.5582061420902207, 0
1470, 3.5582061420902216, -0.1533076626839181, 0
1471, -3.5582061420902216, 0.153307662683918, 0
1472, 0.153307662683918, 3.5582061420902216, 0
1473, -3.164431434343214, -0.4608429376667864, 0
1474, -0.46084293766678724, 3.1644314343432143, 0
1475, 0.4608429376667862, -3.1644314343432143, 0
1476, 3.1644314343432143, 0.46084293766678724, 0
1477, -0.29026205548239153, -3.1378552328469476, 0
1478, -0.3851838179699739, -3.140995927142946, 0
1479, 3.1378552328469476, -0.29026205548239103, 0
1480, 3.1409959271429466, -0.3851838179699736, 0
1481, -3.1378552328469493, 0.29026205548239103, 0
1482, -3.1409959271429466, 0.3851838179699737, 0
1483, 0.29026205548239103, 3.1378552328469493, 0
1484, 0.3851838179699737, 3.1409959271429466, 0
1485, -4.887826720838019, -5.342429700141052, 0
1486, 5.35457806789342, -4.890760512705565, 0
1487, 5.132887166746913, 5.241531231408297, 0
1488, 4.887826720838019, 5.342429700141053, 0
1489, 5.407249109819361, 4.9034804004803885, 0
1490, 5.344991678023989, 4.888445430283682, 0
1491, -5.472841696155288, -4.7172214163615465, 0
1492, -4.717221416361545, -5.472841696155288, 0
1493, 4.7172214163615465, -5.472841696155289, 0
1494, 4.717221416361545, 5.472841696155289, 0
1495, 5.472841696155289, 4.717221416361545, 0
1496, -4.4656443468979905, -0.11047300701320081, 0
1497, -4.3853119542701275, 0.11047300701320106, 0
1498, -0.11047300701320106, 4.4656443468979905, 0
1499, 0.11047300701320106, 4.3853119542701275, 0
1500, 0.1104730070132005, -4.465644346897991, 0
1501, -0.11047300701320137, -3.852594571622953, 0
1502, 4.4656443468979905, 0.11047300701320086, 0
1503, 3.852594571622953, -0.11047300701320167, 0
1504, -3.585923765092053, -0.22816082328742296, 0
1505, -0.2281608232874181, 3.5859237650920592, 0
1506, 0.22816082328742052, -3.5859237650920543, 0
1507, 3.5859237650920592, 0.2281608232874181, 0
1508, -5.417886048853866, -4.842725316716232, 0
1509, -5.472841696155289, 4.717221416361545, 0
1510, -5.379051581740268, 4.836027905284431, 0
1511, -4.836027905284431, 5.379051581740269, 0
1512, -0.25094381668168614, -3.5787930741413274, 0
1513, 3.5787930741413287, -0.25094381668168486, 0
1514, -3.578793074141328, 0.25094381668168597, 0
1515, 0.25094381668168597, 3.578793074141328, 0
1516, -3.3242392439563746, -0.6210567904391485, 0
1517, -3.2323841397363084, -0.5438951754002559, 0
1518, -0.6210567904391501, 3.324239243956375, 0
1519, -0.5438951754002564, 3.2323841397363076, 0
1520, 0.6210567904391483, -3.324239243956375, 0
1521, 0.5438951754002557, -3.2323841397363084, 0
1522, 3.324239243956375, 0.6210567904391501, 0
1523, 3.2323841397363076, 0.5438951754002564, 0
1524, -0.4705938187988926, -3.20418519061148, 0
1525, 3.2041851906114824, -0.4705938187988932, 0
1526, -3.204185190611481, 0.47059381879889295, 0
1527, 0.47059381879889295, 3.204185190611481, 0
1528, -0.5682911845595343, -3.757223208358838, 0
1529, 3.7572232083588384, -0.5682911845595336, 0
1530, -3.7572232083588384, 0.5682911845595331, 0
1531, 0.5682911845595331, 3.7572232083588384, 0
1532, -3.7671572950332495, -0.5781118255103797, 0
1533, -0.578111825510379, 3.7671572950332504, 0
1534, 0.5781118255103789, -3.7671572950332504, 0
1535, 3.7671572950332504, 0.578111825510379, 0
1536, 5.472841696155288, -4.717221416361546, 0
1537, -4.948681377717597, -5.359445943655345, 0
1538, -4.812537706868671, -5.392324203722538, 0
1539, 4.948681377717597, 5.359445943655346, 0
1540, 4.812537706868671, 5.392324203722539, 0
1541, -5.389446174664003, -4.712657353295527, 0
1542, -4.712657353295526, -5.389446174664003, 0
1543, 4.712657353295527, -5.389446174664004, 0
1544, 4.712657353295526, 5.389446174664004, 0
1545, 5.397761228291486, 4.776834871337529, 0
1546, -3.8726776697799186, -0.11047300701320081, 0
1547, -0.11047300701320109, 3.8726776697799186, 0
1548, 0.11047300701320056, -3.872677669779919, 0
1549, 3.8726776697799186, 0.11047300701320104, 0
1550, -5.355389853167119, -4.831947191855857, 0
1551, -5.389446174664004, 4.712657353295526, 0
1552, -4.715728143646473, 5.445556302636226, 0
1553, -3.250263495129143, -0.6541877988909047, 0
1554, -3.3373339029722278, -0.7413995039384265, 0
1555, -0.6541877988909056, 3.2502634951291434, 0
1556, -0.7413995039384276, 3.3373339029722278, 0
1557, 0.6541877988909045, -3.2502634951291434, 0
1558, 0.7413995039384262, -3.3373339029722278, 0
1559, 3.2502634951291434, 0.6541877988909056, 0
1560, 3.3373339029722278, 0.7413995039384276, 0
1561, -0.5702965398718851, -3.2446811339574277, 0
1562, 3.244681133957428, -0.5702965398718862, 0
1563, -3.244681133957428, 0.5702965398718857, 0
1564, 0.5702965398718857, 3.244681133957428, 0
1565, -0.5389879737159353, -3.8076871536166754, 0
1566, 3.807687153616676, -0.5389879737159351, 0
1567, -3.807687153616676, 0.5389879737159345, 0
1568, 0.5389879737159345, 3.807687153616676, 0
1569, -3.8318175628831406, -0.6087011563108106, 0
1570, -0.6087011563108108, 3.8318175628831406, 0
1571, 0.6087011563108103, -3.831817562883141, 0
1572, 3.8318175628831406, 0.6087011563108108, 0
1573, 5.389446174664003, -4.712657353295527, 0
1574, -4.030167032505345, 0.11047300701320108, 0
1575, -3.6867555153405633, -0.05870359582670902, 0
1576, 0.11047300701320108, 4.030167032505345, 0
1577, -0.058703595826709906, 3.6867555153405602, 0
1578, -0.1104730070132014, -4.030167032505345, 0
1579, 0.058703595826709934, -3.6867555153405642, 0
1580, 4.030167032505345, -0.11047300701320172, 0
1581, 3.6867555153405602, 0.058703595826709906, 0
1582, -4.711879755825388, 5.3752377499348825, 0
1583, -3.281296017899478, -0.7693123444182054, 0
1584, -0.7693123444182062, 3.281296017899478, 0
1585, 0.7693123444182053, -3.281296017899478, 0
1586, 3.281296017899478, 0.7693123444182062, 0
1587, -0.5914499850016542, -3.1929260000637005, 0
1588, 3.1929260000637005, -0.5914499850016548, 0
1589, -3.1929260000637005, 0.5914499850016544, 0
1590, 0.5914499850016544, 3.1929260000637005, 0
1591, -0.508042270290476, -3.755977909973271, 0
1592, 3.755977909973272, -0.5080422702904757, 0
1593, -3.755977909973272, 0.5080422702904752, 0
1594, 0.5080422702904752, 3.755977909973272, 0
1595, -3.686737606668335, 0.055582322697412215, 0
1596, -3.77384989026024, -0.11047300701320081, 0
1597, 0.055582322697412215, 3.686737606668335, 0
1598, -0.11047300701320109, 3.77384989026024, 0
1599, -0.05558232269741184, -3.686737606668338, 0
1600, 0.11047300701320058, -3.77384989026024, 0
1601, 3.686737606668335, -0.05558232269741274, 0
1602, 3.77384989026024, 0.11047300701320106, 0
1603, -0.5310095671237263, -3.19842319382985, 0
1604, 3.198423193829851, -0.5310095671237268, 0
1605, -3.198423193829851, 0.5310095671237265, 0
1606, 0.5310095671237265, 3.198423193829851, 0
1607, -3.7638083411817567, 0.1104730070132011, 0
1608, 0.1104730070132011, 3.7638083411817567, 0
1609, -0.11047300701320134, -3.7638083411817567, 0
1610, 3.7638083411817567, -0.11047300701320165, 0
1611, -5.493482368887824, -4.421791699381716, 0
1612, -4.421791699381717, -5.493482368887823, 0
1613, -3.860315674727127, -0.9100599895442842, 0
1614, -0.9746390637908883, -3.898730242851252, 0
1615, -3.8603156747271274, 0.9100599895442845, 0
1616, -5.493482368887824, 4.421791699381717, 0
1617, -4.421791699381717, 5.493482368887824, 0
1618, -1.1615247901997237, 3.677569241919113, 0
1619, 0.9746390637908877, -3.898730242851251, 0
1620, 3.637502326971566, -1.1019437723093775, 0
1621, 4.421791699381719, -5.493482368887824, 0
1622, 5.493482368887823, -4.421791699381718, 0
1623, 1.0424785503736473, 3.598290283752705, 0
1624, 3.5982902837527053, 1.0424785503736487, 0
1625, 4.421791699381717, 5.493482368887824, 0
1626, 5.493482368887824, 4.421791699381717, 0
1627, -5.434676206026025, -5.128469910453036, 0
1628, -5.383308005111447, -5.247294867737182, 0
1629, -5.517677663796459, -5.027607728573772, 0
1630, -5.025532986120706, -5.513276441002378, 0
1631, -5.247294867737182, -5.383308005111446, 0
1632, -5.507168618315125, 5.02265375014063, 0
1633, -5.414766531882156, 5.191096451056649, 0
1634, -5.290662446092246, 5.335840466064759, 0
1635, -5.074054386732576, 5.46640412899929, 0
1636, -5.196296468681689, 5.421940268165574, 0
1637, 5.027607728573772, -5.5176776637964595, 0
1638, 5.196296468681688, -5.421940268165575, 0
1639, 5.377981230702531, -5.2428921167287275, 0
1640, 5.48431985540776, -5.083880075445622, 0
1641, 5.242892116728728, 5.377981230702531, 0
1642, 5.361496260539228, 5.229266756719233, 0
1643, 5.025532986120706, 5.513276441002379, 0
1644, 5.484319855407763, 5.083880075445622, 0
1645, -5.344986553765827, -5.03470534615962, 0
1646, -5.057134120756272, -5.327569193184361, 0
1647, -5.345650186325469, 5.010537943627, 0
1648, -5.425085729279722, 5.034242017919981, 0
1649, -5.298358460097405, 5.103948637897341, 0
1650, -5.358735639570436, 5.144619758454435, 0
1651, 5.0552364168084125, 5.328340663918338, 0
1652, 5.114056958699043, 5.406044278650456, 0
1653, 5.069083910918083, 5.273110688761136, 0
1654, 0.0026348109176231177, -3.4715277352361453, 0
1655, 3.4715277352361706, 0.0026348109176213552, 0
1656, -3.4715277352361613, -0.0026348109176197038, 0
1657, -0.002634810917624422, 3.4715277352361573, 0
1658, -3.1777531762588413, -0.3880958502780889, 0
1659, -0.38809585027808946, 3.177753176258842, 0
1660, 0.3880958502780888, -3.177753176258842, 0
1661, 3.177753176258842, 0.38809585027808946, 0
1662, -0.336897174412803, -3.1643827413085117, 0
1663, -0.25916455244272446, -3.246780172718188, 0
1664, 3.1643827413085117, -0.3368971744128024, 0
1665, 3.2467801727181858, -0.259164552442725, 0
1666, -3.164382741308512, 0.336897174412803, 0
1667, -3.246780172718184, 0.25916455244273034, 0
1668, 0.336897174412803, 3.164382741308512, 0
1669, 0.25916455244273034, 3.246780172718184, 0
1670, 5.376824849725486, -4.95445459152433, 0
1671, 5.162111912193449, 5.195992573076682, 0
1672, 5.363449830977177, 4.948429710992904, 0
1673, -5.450162154911188, -4.57702205139069, 0
1674, -4.577022051390692, -5.450162154911185, 0
1675, 4.57702205139069, -5.4501621549111885, 0
1676, 4.577022051390689, 5.450162154911187, 0
1677, 5.4052777142937165, 4.6474537533928295, 0
1678, -3.4753080250815827, -0.37345041588216477, 0
1679, -0.37345041588216, 3.4753080250816164, 0
1680, 0.3734504158821614, -3.4753080250815924, 0
1681, 3.4753080250816164, 0.37345041588216, 0
1682, -5.387470280566611, -4.901515130977017, 0
1683, -5.450162154911187, 4.577022051390689, 0
1684, -3.2120967398661984, -0.4911688600795732, 0
1685, -0.491168860079574, 3.212096739866198, 0
1686, 0.4911688600795729, -3.212096739866199, 0
1687, 3.212096739866198, 0.491168860079574, 0
1688, -0.41734945106457816, -3.186836133554205, 0
1689, 3.186836133554206, -0.4173494510645783, 0
1690, -3.1868361335542055, 0.4173494510645783, 0
1691, 0.4173494510645783, 3.1868361335542055, 0
1692, -0.7538564713897168, -3.4136998744850886, 0
1693, -0.6854862712509655, -3.809073213437056, 0
1694, -0.612160893693617, -3.8164371142376003, 0
1695, 3.4136998744850886, -0.7538564713897159, 0
1696, 3.7878798062046264, -0.7797089143405717, 0
1697, -3.413699874485089, 0.7538564713897166, 0
1698, -3.8090732134370557, 0.685486271250966, 0
1699, -3.816437114237601, 0.6121608936936169, 0
1700, 0.7538564713897166, 3.413699874485089, 0
1701, 0.779708914340571, 3.7878798062046264, 0
1702, 5.450162154911187, -4.57702205139069, 0
1703, 5.389359353634121, 4.841142478722983, 0
1704, -5.396660154504953, -4.779223215244815, 0
1705, -4.57717126845904, 5.446604944680794, 0
1706, -3.395854807646528, -0.849830502161335, 0
1707, -0.8498305021613357, 3.3958548076465274, 0
1708, 0.8498305021613348, -3.395854807646528, 0
1709, 3.3958548076465274, 0.8498305021613357, 0
1710, -0.6731284104155116, -3.2987790055609025, 0
1711, -0.6374013803697077, -3.241907834182182, 0
1712, 3.2987790055609034, -0.6731284104155126, 0
1713, 3.241907834182182, -0.6374013803697094, 0
1714, -3.2987790055609034, 0.6731284104155121, 0
1715, -3.241907834182182, 0.6374013803697087, 0
1716, 0.6731284104155121, 3.2987790055609034, 0
1717, 0.6374013803697087, 3.241907834182182, 0
1718, -0.7642623559675098, 3.82354791498597, 0
1719, 0.7642623559675088, -3.8235479149859706, 0
1720, 3.82354791498597, 0.7642623559675098, 0
1721, 5.411829892900231, -4.809504248461905, 0
1722, 5.361647589609561, -4.772842352395409, 0
1723, 5.357101186049328, -4.831740781756469, 0
1724, -4.773031894366403, 5.407155604327513, 0
1725, -3.28501228998597, -0.7065658250618163, 0
1726, -0.7065658250618172, 3.28501228998597, 0
1727, 0.7065658250618163, -3.28501228998597, 0
1728, 3.28501228998597, 0.7065658250618172, 0
1729, -5.39370641697967, -4.434039398919995, 0
1730, -4.434039398919996, -5.393706416979669, 0
1731, -3.9745541856834126, -0.9264885183545696, 0
1732, -3.6775692419191124, -1.1615247901997234, 0
1733, -3.717084089027886, -0.7675921266272271, 0
1734, -3.8968317541658455, -0.801410391987159, 0
1735, -1.1615247901997205, -3.677569241919116, 0
1736, -0.9194191955599708, -3.9856864360573745, 0
1737, -3.6375023269715667, 1.1019437723093781, 0
1738, -3.9745541856834126, 0.9264885183545699, 0
1739, -5.39370641697967, 4.434039398919996, 0
1740, -4.434039398919996, 5.39370641697967, 0
1741, -1.1492926510208066, 3.5630661223792295, 0
1742, 1.1615247901997234, -3.6775692419191124, 0
1743, 0.8639914735603016, -3.9341226959398576, 0
1744, 3.5239850510924677, -1.0888034588221054, 0
1745, 3.6016827993619622, -1.2107532497755495, 0
1746, 4.434039398919997, -5.39370641697967, 0
1747, 5.393706416979669, -4.434039398919997, 0
1748, 1.150127723990091, 3.5617533212299155, 0
1749, 0.9452437440396106, 3.482203597331637, 0
1750, 3.6340303742554587, 1.1897689839520296, 0
1751, 3.512307493810258, 1.0960837236518184, 0
1752, 4.434039398919996, 5.39370641697967, 0
1753, 5.416562331629885, 4.506471681724774, 0
1754, -5.5011304132635415, -5.170507827664337, 0
1755, -5.433798768023054, -5.289027113231697, 0
1756, -5.578769475678163, -5.056406492366464, 0
1757, -5.108761198851384, -5.529686995838457, 0
1758, -5.055281795333619, -5.576383617033356, 0
1759, -5.289027113231698, -5.4337987680230535, 0
1760, -5.57309461661095, 5.053731356029865, 0
1761, -5.47135223730189, 5.232113663549953, 0
1762, -5.337705563520088, 5.3859352756849646, 0
1763, -5.215245857540531, 5.290738720654983, 0
1764, -5.111970744939998, 5.53553914028332, 0
1765, -5.2349261639680975, 5.475232250361772, 0
1766, 5.056406492366464, -5.578769475678164, 0
1767, 5.234926163968097, -5.475232250361773, 0
1768, 5.293779158414505, -5.339159359857547, 0
1769, 5.4309121140284935, -5.286641200517929, 0
1770, 5.495935101310915, -5.167221352618887, 0
1771, 5.5451145336662, -5.117222267124478, 0
1772, 5.326239392432772, 5.373725292820354, 0
1773, 5.286641200517929, 5.4309121140284935, 0
1774, 5.422110218647015, 5.279366149841432, 0
1775, 5.282391351363768, 5.214990944871086, 0
1776, 5.108761198851384, 5.529686995838458, 0
1777, 5.055281795333619, 5.576383617033357, 0
1778, 5.545114533666203, 5.117222267124477, 0
1779, -5.431877162948443, 5.113455473421055, 0
1780, -5.335665922137904, 5.229444830046994, 0
1781, -0.06657161961546693, -3.530635636077308, 0
1782, 3.530635636077322, -0.06657161961547012, 0
1783, -3.530635636077317, 0.0665716196154701, 0
1784, 0.06657161961546765, 3.5306356360773146, 0
1785, -3.132444654026539, -0.4173920792041779, 0
1786, -3.269208981664903, -0.2998698924716376, 0
1787, -0.4173920792041786, 3.132444654026539, 0
1788, -0.2998698924716366, 3.269208981664909, 0
1789, 0.4173920792041777, -3.132444654026539, 0
1790, 0.29986989247163576, -3.2692089816649106, 0
1791, 3.132444654026539, 0.4173920792041786, 0
1792, 3.269208981664909, 0.2998698924716366, 0
1793, 5.460973484814482, -4.99391751571556, 0
1794, 5.452088828060924, 4.990986881646434, 0
1795, -5.377230367628174, -4.580081377880536, 0
1796, -4.5800813778805365, -5.377230367628172, 0
1797, 4.580081377880536, -5.377230367628175, 0
1798, 4.580081377880536, 5.377230367628173, 0
1799, -3.5171324870917684, -0.29054007250327873, 0
1800, -0.2905400725032764, 3.5171324870917884, 0
1801, 0.29054007250327657, -3.517132487091774, 0
1802, 3.5171324870917884, 0.2905400725032764, 0
1803, -5.377230367628173, 4.580081377880536, 0
1804, -0.7964403714495917, -3.3312054801311564, 0
1805, -0.8910816547842412, -3.43679129444663, 0
1806, -0.720305828925718, -3.8855763372387475, 0
1807, -0.6542523912517131, -3.8668120372553316, 0
1808, 3.3312054801311564, -0.7964403714495915, 0
1809, 3.43679129444663, -0.8910816547842406, 0
1810, 3.8721081883817523, -0.7284949589640471, 0
1811, 3.8987302428512525, -0.9746390637908886, 0
1812, -3.331205480131157, 0.7964403714495915, 0
1813, -3.4367912944466297, 0.8910816547842407, 0
1814, -3.8855763372387475, 0.7203058289257177, 0
1815, -3.8668120372553316, 0.6542523912517139, 0
1816, 0.7964403714495915, 3.331205480131157, 0
1817, 0.7284949589640465, 3.8721081883817523, 0
1818, 0.9746390637908855, 3.898730242851252, 0
1819, 5.377230367628173, -4.5800813778805365, 0
1820, 5.495023156023245, 4.82224493364839, 0
1821, -5.469024073780759, -4.790333695363251, 0
1822, -4.646207639618505, 5.414096431444119, 0
1823, -4.580160327647958, 5.3753482711397025, 0
1824, -3.3868599009477456, -0.9291877487106895, 0
1825, -3.339716584282744, -0.8803905798770737, 0
1826, -0.92918774871069, 3.386859900947745, 0
1827, -0.8803905798770741, 3.339716584282744, 0
1828, 0.9291877487106893, -3.3868599009477456, 0
1829, 0.8803905798770735, -3.339716584282744, 0
1830, 3.339716584282744, 0.8803905798770741, 0
1831, 3.4674115367707263, 0.9600480158539804, 0
1832, -0.6985554938688542, -3.2440807239838674, 0
1833, -0.7396608036736672, -3.2964481357271462, 0
1834, 3.244080723983868, -0.6985554938688546, 0
1835, 3.2964481357271462, -0.7396608036736676, 0
1836, -3.244080723983868, 0.6985554938688541, 0
1837, -3.2964481357271462, 0.7396608036736674, 0
1838, 0.6985554938688541, 3.244080723983868, 0
1839, 0.7396608036736674, 3.2964481357271462, 0
1840, -0.7227826038859205, 3.8917027740948007, 0
1841, -0.8791803823300709, 3.909788330314572, 0
1842, -0.682736347250722, 3.7572274659730924, 0
1843, 0.6827363472507213, -3.7572274659730938, 0
1844, 0.7227826038859197, -3.891702774094801, 0
1845, 3.8917027740948007, 0.7227826038859205, 0
1846, 3.909788330314572, 0.8791803823300709, 0
1847, 3.7572274659730924, 0.682736347250722, 0
1848, -4.823000341002794, 5.543677760939146, 0
1849, -5.340258510827153, -4.440600237308275, 0
1850, -5.375403880910085, -4.505924938253645, 0
1851, -4.440600237308276, -5.3402585108271525, 0
1852, -4.506114260678411, -5.3746896374279585, 0
1853, -4.025977446816972, -0.8938331593847018, 0
1854, -4.043109872348759, -0.9776285119952138, 0
1855, -3.9609526334337897, -0.8482533256855168, 0
1856, -3.5912637677278294, -1.2175122024993352, 0
1857, -3.5575094368739757, -1.0679029912975597, 0
1858, -3.7597051601356544, -0.6774989535579186, 0
1859, -3.948168537383999, -0.769812458915879, 0
1860, -3.8818637977547206, -0.7195900377745301, 0
1861, -1.0679029912975593, -3.557509436873976, 0
1862, -1.2175122024993341, -3.591263767727831, 0
1863, -0.8898390584776682, -4.03226706360317, 0
1864, -0.8425466940017524, -3.9684796806608436, 0
1865, -3.5239850510924686, 1.088803458822104, 0
1866, -3.6016827993619613, 1.2107532497755487, 0
1867, -4.025977446816972, 0.893833159384702, 0
1868, -3.957635001695349, 0.8430289628668987, 0
1869, -4.043109872348759, 0.9776285119952145, 0
1870, -5.340258510827153, 4.440600237308276, 0
1871, -5.3746896374279585, 4.506114260678411, 0
1872, -4.440600237308276, 5.340258510827153, 0
1873, -4.505954071112788, 5.375407457027362, 0
1874, -1.2302717638550404, 3.5715947037713853, 0
1875, -1.1818891538191039, 3.5118218264778154, 0
1876, -1.09945459809142, 3.49537466327511, 0
1877, 1.217512202499335, -3.59126376772783, 0
1878, 1.0679029912975604, -3.5575094368739757, 0
1879, 0.8315841656121411, -3.98604290248632, 0
1880, 0.9157749578911207, -4.00251868832284, 0
1881, 0.7900441566356818, -3.924040633902781, 0
1882, 3.472840477876653, -1.1206890688529838, 0
1883, 3.536820466247531, -1.1663522833857083, 0
1884, 3.456896048804697, -1.0381533806305854, 0
1885, 3.5509230602239654, -1.2436817108027272, 0
1886, 3.6190517326021108, -1.2931154303106416, 0
1887, 4.440600237308276, -5.340258510827153, 0
1888, 4.505924938253645, -5.375403880910083, 0
1889, 5.3402585108271525, -4.440600237308277, 0
1890, 5.374689637427958, -4.5061142606784115, 0
1891, 1.1080938476378608, 3.4930432343232876, 0
1892, 1.182354394464799, 3.511090431166457, 0
1893, 1.2320074352946142, 3.5782558759399627, 0
1894, 0.9846614177086778, 3.4148791697163072, 0
1895, 3.5684796053319148, 1.232292566154301, 0
1896, 3.466248298185586, 1.124798902167964, 0
1897, 3.5263870118217593, 1.1699643983828816, 0
1898, 3.451788644766381, 1.049791159982122, 0
1899, 4.440600237308276, 5.340258510827153, 0
1900, 4.506114260678411, 5.3746896374279585, 0
1901, 5.356787648831727, 4.51149748301414, 0
1902, 5.379930813128537, 4.428772289082877, 0
1903, 5.392264983142921, 4.57546951361268, 0
1904, -5.357038024538458, -5.330488092697122, 0
1905, -5.448970795376855, -5.219261014422153, 0
1906, -5.545149927039867, -5.116995433867996, 0
1907, -5.583930270826058, -4.966261252712725, 0
1908, -5.12818992991245, -5.417071832858914, 0
1909, -4.962291173613119, -5.581654120753797, 0
1910, -5.205878865858511, -5.46003157316862, 0
1911, -5.578581769275022, 4.956626918593786, 0
1912, -5.2672596745401465, 5.404953649259154, 0
1913, -5.163955051972093, 5.486030273716662, 0
1914, 5.117309067874891, -5.512726123882757, 0
1915, 4.966261252712725, -5.583930270826059, 0
1916, 5.269588086023132, -5.409460182881093, 0
1917, 5.3393929213457625, -5.387732092598045, 0
1918, 5.363079295376848, -5.314815976580212, 0
1919, 5.444317384204084, -5.216528117066225, 0
1920, 5.555912788050399, -5.025436947318122, 0
1921, 5.199587612058535, 5.458319258468089, 0
1922, 4.962291173613119, 5.5816541207537975, 0
1923, 5.47367429562786, 5.1753869786610895, 0
1924, 5.555912788050401, 5.025436947318122, 0
1925, -5.5101674813614645, 5.101756509479083, 0
1926, -5.371313372910586, 5.307238728524781, 0
1927, -3.246681443200635, -0.36803257341181755, 0
1928, -0.36803257341181744, 3.2466814432006372, 0
1929, 0.3680325734118158, -3.246681443200637, 0
1930, 3.2466814432006372, 0.36803257341181744, 0
1931, 5.389762000984418, 5.007214350339614, 0
1932, -5.416413221469643, -4.643321775633611, 0
1933, -4.643321775633611, -5.41641322146964, 0
1934, 4.643321775633611, -5.416413221469644, 0
1935, 4.64332177563361, 5.416413221469643, 0
1936, -5.416413221469643, 4.64332177563361, 0
1937, -0.9263950441238366, -3.3741055037054863, 0
1938, 3.374105503705487, -0.9263950441238366, 0
1939, 3.9172275841869197, -0.7010607062376649, 0
1940, 3.858581769371166, -0.6557845098283033, 0
1941, 3.812962087196041, -0.6061764445719575, 0
1942, 3.9856864360573745, -0.9194191955599711, 0
1943, -3.3741055037054863, 0.9263950441238363, 0
1944, 0.7010607062376643, 3.9172275841869197, 0
1945, 0.6557845098283028, 3.858581769371167, 0
1946, 0.6061764445719573, 3.812962087196041, 0
1947, 0.9194191955599692, 3.9856864360573745, 0
1948, 5.416413221469643, -4.643321775633612, 0
1949, 5.446958385060944, 4.858348655536868, 0
1950, 5.531970360647015, 4.921478730372589, 0
1951, 5.468862697193533, 4.9176562412225, 0
1952, -5.600546286027962, -4.76054543434576, 0
1953, -4.647262106486192, 5.3588466213122725, 0
1954, -3.309986723457613, -0.825124729178788, 0
1955, -0.8251247291787887, 3.309986723457613, 0
1956, 0.8251247291787879, -3.309986723457613, 0
1957, 3.309986723457613, 0.8251247291787887, 0
1958, 3.4086589577926314, 0.9945424660060621, 0
1959, -0.7424845473018997, -3.3555914691994713, 0
1960, -0.6440464037303804, -3.405022954938424, 0
1961, -0.7001620168842795, -3.3940410240148196, 0
1962, -0.6917826669734561, -3.5000852227307657, 0
1963, 3.3555914691994713, -0.7424845473018996, 0
1964, 3.405022954938422, -0.6440464037303827, 0
1965, 3.3940410240148187, -0.7001620168842805, 0
1966, 3.5000852227307604, -0.6917826669734551, 0
1967, -3.3555914691994717, 0.7424845473018992, 0
1968, -3.405022954938425, 0.6440464037303795, 0
1969, -3.3940410240148204, 0.7001620168842788, 0
1970, -3.5000852227307693, 0.6917826669734558, 0
1971, 0.7424845473018992, 3.3555914691994717, 0
1972, 0.6440464037303795, 3.405022954938425, 0
1973, 0.7001620168842788, 3.3940410240148204, 0
1974, 0.6917826669734558, 3.5000852227307693, 0
1975, -0.8398432016685757, 3.9728109839755117, 0
1976, -0.6322209811507848, 3.7811251591859194, 0
1977, -0.680212201587087, 3.83419417700443, 0
1978, -0.6244633740921786, 3.699388009086049, 0
1979, 0.6322209811507842, -3.7811251591859203, 0
1980, 0.6802122015870863, -3.8341941770044308, 0
1981, 0.6244633740921791, -3.699388009086052, 0
1982, 3.9728109839755117, 0.8398432016685757, 0
1983, 3.7811251591859194, 0.6322209811507848, 0
1984, 3.83419417700443, 0.680212201587087, 0
1985, 3.699388009086049, 0.6244633740921786, 0
1986, -4.781345662720228, 5.481518232447409, 0
1987, -5.450829458187162, -4.4868560481826005, 0
1988, -3.5450317168497745, -1.2475034970055152, 0
1989, -3.5288615912383934, -1.1710501574014525, 0
1990, -3.468217621652831, -1.0398140594188334, 0
1991, -3.7825363831420225, -0.6292379110211012, 0
1992, -3.830884720094577, -0.6758600093855379, 0
1993, -1.1093762354380168, -3.490986282090835, 0
1994, -1.2475034970055152, -3.545031716849775, 0
1995, -1.1737388815637584, -3.5300235968248765, 0
1996, -3.4728404778766535, 1.1206890688529827, 0
1997, -3.5368204662475313, 1.1663522833857065, 0
1998, -3.4568960488046976, 1.0381533806305838, 0
1999, -3.5509230602239654, 1.2436817108027265, 0
2000, -3.6190517326021117, 1.293115430310641, 0
2001, -4.486860156661893, 5.450829962511289, 0
2002, 1.247503497005515, -3.545031716849775, 0
2003, 1.171050157401452, -3.5288615912383934, 0
2004, 1.0398140594188328, -3.4682176216528315, 0
2005, 4.486856048182604, -5.450829458187161, 0
2006, 5.534773299802128, 4.586876296061638, 0
2007, 5.364186092746956, 4.6177136775489425, 0
2008, -5.4024657380014105, -5.3532290176620405, 0
2009, -5.3427927061893135, -5.391352421857654, 0
2010, -5.393989393572395, -5.181396694997624, 0
2011, -5.491287286485612, -5.24656395876794, 0
2012, -5.514650858451613, -4.88602177130129, 0
2013, -5.079751732236323, -5.382569946176461, 0
2014, -5.1397537159016675, -5.349584261456202, 0
2015, -5.065815874226708, -5.45338773816924, 0
2016, -5.007722023666299, -5.560237955816404, 0
2017, -5.246230601159032, -5.490827399664677, 0
2018, -5.18061931422016, -5.517114811816934, 0
2019, -5.556216856650929, 5.00407037986932, 0
2020, -5.228932804649084, 5.353456731888879, 0
2021, -5.299483160829398, 5.446449269188092, 0
2022, -5.1294417253918105, 5.428408841663818, 0
2023, -5.188847327307273, 5.530121785594812, 0
2024, 5.12755838197856, -5.56396094853445, 0
2025, 5.180224154166314, -5.5164901365272865, 0
2026, 5.301329362532471, -5.448682940809936, 0
2027, 5.400677141494837, -5.3515493794694295, 0
2028, 5.488742735486452, -5.244719493133761, 0
2029, 5.381430907680862, -5.154933741750976, 0
2030, 5.577717596999522, -5.074530064803451, 0
2031, 5.251307607734159, 5.4706398343827525, 0
2032, 5.180854979851051, 5.517487355789445, 0
2033, 5.007722023666299, 5.560237955816405, 0
2034, 5.526738183531704, 5.167606937386738, 0
2035, 5.4787085781516, 5.237446045528186, 0
2036, 5.421673722202045, 5.210839033929751, 0
2037, 5.594152627631057, 5.063658131265903, 0
2038, -5.560218321271147, 5.125505778047259, 0
2039, -5.507530526337535, 5.171928732912478, 0
2040, -5.400423338480842, 5.351311037711442, 0
2041, -5.434029882932036, 5.2892181371648475, 0
2042, -3.207793859805288, -0.31737637834728827, 0
2043, -3.361058989548797, -0.3680299919948797, 0
2044, -0.3173763783472849, 3.207793859805291, 0
2045, -0.36802999199488856, 3.3610589895488143, 0
2046, 0.31737637834728183, -3.2077938598052915, 0
2047, 0.36802999199488684, -3.3610589895488023, 0
2048, 3.207793859805291, 0.3173763783472849, 0
2049, 3.3610589895488143, 0.36802999199488856, 0
2050, 5.433996068348713, 5.049302677460255, 0
2051, -5.360185063877941, -4.6472676309819745, 0
2052, -4.647267630981975, -5.360185063877939, 0
2053, 4.6472676309819745, -5.360185063877942, 0
2054, 4.647267630981975, 5.360185063877941, 0
2055, -5.360185063877941, 4.647267630981975, 0
2056, -0.9888713672691937, -3.4505905026310506, 0
2057, -0.8541429127952705, -3.374692626705608, 0
2058, 3.4072332168187214, -0.9883988181450849, 0
2059, 3.3746926267056074, -0.8541429127952705, 0
2060, 3.7997395793152577, -0.704344391833582, 0
2061, 4.03226706360317, -0.8898390584776686, 0
2062, 3.9684796806608436, -0.8425466940017524, 0
2063, -3.3746926267056074, 0.8541429127952707, 0
2064, 0.7043443918335809, 3.7997395793152577, 0
2065, 0.8898390584776674, 4.032267063603171, 0
2066, 0.8425466940017515, 3.9684796806608458, 0
2067, 5.360185063877941, -4.647267630981977, 0
2068, 5.503070981493981, 4.875743607403829, 0
2069, 5.6063684254995305, 4.832849878755169, 0
2070, -5.53058444210897, -4.756892314728162, 0
2071, 3.3748475750985114, 0.9370680323029356, 0
2072, -0.9413107234893783, 3.992356525731581, 0
2073, -0.8005478205997987, 3.9044958055024077, 0
2074, -0.6519542440234924, 3.881225769121953, 0
2075, 0.6519542440234916, -3.8812257691219534, 0
2076, 3.992356525731581, 0.9413107234893783, 0
2077, 3.9044958055024077, 0.8005478205997987, 0
2078, 3.881225769121953, 0.6519542440234924, 0
2079, -3.4249363037201714, -1.0660982318606322, 0
2080, -3.8808179417648296, -0.6521993458193844, 0
2081, -3.8039246099798585, -0.7588691578353138, 0
2082, -3.4376363892921526, 0.9658761562972253, 0
2083, 1.0660982318606318, -3.424936303720172, 0
2084, 5.46200977238557, 4.600029900555441, 0
2085, -5.336133715224472, -5.205833664535334, 0
2086, -5.3582361884633265, -5.111809725044458, 0
2087, -5.474233711244659, -4.846571702225968, 0
2088, -5.454082618700735, -4.918575592432695, 0
2089, -5.202040701322297, -5.339288279849618, 0
2090, -5.119297206271887, -5.473521166657046, 0
2091, -5.176518138752779, 5.332042724319349, 0
2092, -5.058666349287353, 5.384604457751461, 0
2093, 5.151852588204817, -5.4630263372691275, 0
2094, 5.128764066644754, -5.393469785667354, 0
2095, 5.438887505181885, -5.159171872729696, 0
2096, 5.370087833155226, 5.149851903636811, 0
2097, 5.426021281468679, 5.1148183497341595, 0
2098, -3.303869789767564, -0.3491291524145956, 0
2099, -3.361056823713079, -0.2720660384301307, 0
2100, -3.309731665072888, -0.4273630948814845, 0
2101, -3.2835703753089316, -0.49393421997830494, 0
2102, -0.34912915241459963, 3.3038697897675755, 0
2103, -0.272066038430117, 3.361056823713105, 0
2104, -0.42736309488149604, 3.3097316650728974, 0
2105, -0.4939342199783074, 3.283570375308927, 0
2106, 0.3491291524145978, -3.3038697897675693, 0
2107, 0.2720660384301337, -3.3610568237130924, 0
2108, 0.4273630948814866, -3.3097316650728885, 0
2109, 0.49393421997830556, -3.2835703753089307, 0
2110, 3.3038697897675755, 0.34912915241459963, 0
2111, 3.361056823713105, 0.272066038430117, 0
2112, 3.3097316650728974, 0.42736309488149604, 0
2113, 3.283570375308927, 0.4939342199783074, 0
2114, -0.9426751934806761, -3.424566367787956, 0
2115, -0.997063471137455, -3.3936967641954454, 0
2116, -0.8205386532962049, -3.4367174141760612, 0
2117, -0.8006657625355122, -3.385624819638296, 0
2118, -0.8494279275868426, -3.32092292340875, 0
2119, 3.486203534740966, -0.9592370111896134, 0
2120, 3.436717414176061, -0.8205386532962042, 0
2121, 3.3856248196382963, -0.800665762535512, 0
2122, 3.32092292340875, -0.8494279275868422, 0
2123, -3.4367174141760604, 0.8205386532962048, 0
2124, -3.3856248196382963, 0.8006657625355124, 0
2125, -3.32092292340875, 0.8494279275868419, 0
2126, -5.5720416121704375, -4.634690562759761, 0
2127, -5.56203546452881, -4.826320898695581, 0
2128, -0.894341718078436, 3.963039634994463, 0
2129, -0.8929779742986766, 4.027324129486632, 0
2130, -0.7678032126094301, 3.9514329357809883, 0
2131, 3.963039634994463, 0.894341718078436, 0
2132, 4.027324129486632, 0.8929779742986766, 0
2133, 3.9514329357809883, 0.7678032126094301, 0
2134, -3.39193407882744, 0.9980955030325387, 0
2135, 5.4869394975728545, 4.530102347623401, 0
2136, 5.509470398540531, 4.654739501724666, 0
2137, -5.513696038047589, -4.956867515274885, 0
2138, -5.259549802195854, -5.262977942615469, 0
2139, -5.187538059361044, -5.3994690931561395, 0
2140, -5.158794904387556, 5.383066491405904, 0
2141, 5.063641425920345, -5.36349761491853, 0
2142, -3.4290803013597886, -0.5126910525802355, 0
2143, -3.297602493663998, -0.5595117330066287, 0
2144, -0.5126910525802938, 3.4290803013598334, 0
2145, -0.5595117330066306, 3.297602493663997, 0
2146, 0.5126910525802447, -3.4290803013597984, 0
2147, 0.559511733006629, -3.297602493663998, 0
2148, 3.4290803013598334, 0.5126910525802938, 0
2149, 3.297602493663997, 0.5595117330066306, 0
2150, -0.8556111310184529, -3.626787244185519, 0
2151, -0.7656398008583067, -3.4876618253445377, 0
2152, 3.557326390805185, -0.8556838779463314, 0
2153, 3.4876618253445373, -0.7656398008583065, 0
2154, -3.626787244185518, 0.8556111310184513, 0
2155, -3.487661825344539, 0.7656398008583073, 0
2156, -5.5685459068252685, -4.701637725006355, 0
2157, 5.466449452908814, 4.474511630856306, 0
2158, 5.600890298274131, 4.482632985173549, 0
2159, 5.533500941954818, 4.481368834312791, 0
2160, 5.456361110035807, 4.665582662165001, 0
2161, 5.629287883915743, 4.660764920805721, 0
2162, -5.461532982707149, -4.995285682228787, 0
2163, -5.108530204730079, 5.370787090210812, 0
2164, 5.065483774462491, -5.445228968162452, 0
2165, -3.358682565222821, -0.48502597149399557, 0
2166, -3.2541563264292863, -0.5969612302646593, 0
2167, -3.37305940122895, -0.5633906549797615, 0
2168, -0.48502597149402804, 3.358682565222847, 0
2169, -0.5969612302646601, 3.254156326429285, 0
2170, -0.5633906549797632, 3.373059401228947, 0
2171, 0.4850259714940009, -3.3586825652228263, 0
2172, 0.5969612302646591, -3.2541563264292863, 0
2173, 0.5633906549797608, -3.3730594012289505, 0
2174, 3.358682565222847, 0.48502597149402804, 0
2175, 3.254156326429285, 0.5969612302646601, 0
2176, 3.373059401228947, 0.5633906549797632, 0
2177, -0.8557140707096125, -3.52849747438988, 0
2178, 3.491881304166819, -0.8557524191283946, 0
2179, -3.528497474389879, 0.8557140707096116, 0
2180, -5.513491520899722, -4.665198164707516, 0
2181, -5.656259910634444, -4.672652942570669, 0
2182, 5.566225133673533, 4.533735602651981, 0
2183, 5.662365878778534, 4.561643354726015, 0
2184, 5.57033304480234, 4.638783517799402, 0
2185, -5.459275701870146, -5.064130465020259, 0
2186, -0.8557692133652048, -3.4758456851428514, 0
2187, 3.5246601201585115, -0.9094489103493396, 0
2188, -3.475845685142851, 0.8557692133652043, 0
2189, -5.5152387955798385, -4.597113154493761, 0
2190, -5.620475220741553, -4.71157383547259, 0
2191, -5.668009686715657, -4.759458758377052, 0
2192, 5.617692049885774, 4.601815224259435, 0
2193, 5.56784755795776, 4.735499775762382, 0
2194, -5.509263918884221, -5.079109086089104, 0
2195, 3.5896221044430483, -0.9993719641634173, 0
2196, -5.4704130594335245, -4.630027711038378, 0
2197, -5.620828594770211, -4.49922223080625, 0
2198, 5.5243676456684065, 4.705450056888971, 0
2199, 3.543846530577535, -0.9640146752392272, 0
2200, 3.5323839619026707, -1.0261652599508904, 0
2201, 3.615945248121608, -0.9179820268468587, 0
2202, -5.579947686263211, -4.5610186892405915, 0
2203, 3.58425924868599, -1.0650032019910558, 0
2204, -5.516126265927382, -4.522653033332872, 0
2205, -5.669168290998963, -4.575621369140245, 0
2206, 3.5816738244801223, -1.1255699849209924, 0
2207, -5.6278379825505604, -4.548279663789276, 0
2208, -5.465859536806894, -4.079336753645154, 0
2209, -4.079336753645153, -5.4658595368069, 0
2210, -5.059954989742039, -3.006298717751107, 0
2211, -4.837561638727206, -2.3191335246187528, 0
2212, -4.630302854686832, -2.0476386400536306, 0
2213, -4.870441820613488, -2.6905488952847683, 0
2214, -4.426773315519177, -1.772376795108455, 0
2215, -4.028879943732134, -1.6423415876888319, 0
2216, -2.9253553577890683, -5.014582601805355, 0
2217, -2.5406976014334224, -4.767661618667384, 0
2218, -2.2570422484943693, -4.5460539800115445, 0
2219, -2.0078176158997114, -4.328267582696657, 0
2220, -1.5689981399093462, -4.2831545801097715, 0
2221, -1.3019169043235763, -4.103700824852336, 0
2222, -4.919826017241081, 2.7674804465558975, 0
2223, -4.789070198895232, 2.254059684575248, 0
2224, -4.57813069575687, 1.978384931887367, 0
2225, -3.9819740549551073, 1.5818342021615215, 0
2226, -4.378040554290675, 1.7042917454221076, 0
2227, -5.465859536806901, 4.079336753645153, 0
2228, -4.079336753645155, 5.465859536806894, 0
2229, -2.925355357789068, 5.0145826018053565, 0
2230, -2.3259501823836755, 4.603461794020966, 0
2231, -2.6149546135772743, 4.819720354422254, 0
2232, -2.069135573109361, 4.381157573574477, 0
2233, -1.7029647691707595, 4.076640704237842, 0
2234, 1.6364988603557356, -4.330167642487542, 0
2235, 1.3682489662900479, -4.147274489528647, 0
2236, 1.9783849318873716, -4.578130695756866, 0
2237, 2.2540596845752447, -4.789070198895232, 0
2238, 3.0062987177511067, -5.059954989742041, 0
2239, 2.6905488952847656, -4.870441820613488, 0
2240, 3.8907268925871175, -1.4611668189707632, 0
2241, 4.079336753645154, -5.465859536806895, 0
2242, 5.477289948403387, -4.169359105275243, 0
2243, 4.225052216127076, -1.885529089344271, 0
2244, 4.659532338466742, -2.3961953858366205, 0
2245, 4.434902436180979, -2.130569326273632, 0
2246, 4.870441820613485, -2.690548895284769, 0
2247, 5.059954989742038, -3.0062987177511085, 0
2248, 1.4010068213073146, 3.8463856189961443, 0
2249, 3.8463856189961456, 1.401006821307315, 0
2250, 1.8245585199984806, 4.174726840435313, 0
2251, 1.978384931887367, 4.57813069575687, 0
2252, 2.3961953858366174, 4.659532338466744, 0
2253, 2.845749267390663, 4.967872944305035, 0
2254, 4.330167642487542, 1.6364988603557362, 0
2255, 4.381157573574477, 2.069135573109361, 0
2256, 4.603461794020966, 2.3259501823836755, 0
2257, 4.819720354422254, 2.6149546135772743, 0
2258, 5.0145826018053565, 2.925355357789068, 0
2259, 4.079336753645153, 5.465859536806901, 0
2260, 5.477289948403392, 4.169359105275238, 0
2261, -0.3183892646844601, -3.6847114803874854, 0
2262, 3.6847114803874854, -0.3183892646844613, 0
2263, -3.684711480387486, 0.3183892646844605, 0
2264, 0.3183892646844605, 3.684711480387486, 0
2265, 4.5322062371485945, -5.486598156712779, 0
2266, 4.488683407709801, -5.524569234536687, 0
2267, 4.589769437297262, -5.500790049451818, 0
2268, 4.542089082700358, -5.700005782339288, 0
2269, -4.966027203168438, 5.5430497307112185, 0
2270, -3.1092275759868055, -0.27127767118602947, 0
2271, -0.2712776711860296, 3.1092275759868064, 0
2272, 0.2712776711860293, -3.1092275759868064, 0
2273, 3.1092275759868064, 0.2712776711860296, 0
2274, -5.229228965833444, -5.123352032490334, 0
2275, -5.137605499520029, -5.23175215332331, 0
2276, -5.197000820933851, 5.161694760658241, 0
2277, -5.096449123131674, 5.2622010808278885, 0
2278, -5.1571658889123055, 5.270981659721816, 0
2279, -5.12685892299365, 5.222615047558024, 0
2280, -4.989063109817992, 5.308825137453961, 0
2281, -5.004977657200331, 5.364062557052838, 0
2282, 4.94779065431725, -5.350411744877665, 0
2283, 5.079142393682025, -5.273096783573557, 0
2284, 5.049098557961477, -5.314474573690219, 0
2285, 5.1982370168432395, -5.175929743657528, 0
2286, 5.289615685738897, -5.052462469880938, 0
2287, 5.304132423622003, -5.113572329783868, 0
2288, 5.2843301065651085, 5.037681038553957, 0
2289, 5.230062002680677, 5.123168840760645, 0
2290, -4.764531251869952, -5.599996281038478, 0
2291, 4.691192148863715, -5.6101163812018395, 0
2292, 4.764531251869952, 5.599996281038479, 0
2293, -5.599996281038479, 4.764531251869952, 0
2294, -5.343646553296835, 4.887176641205252, 0
2295, -5.481623602382424, 4.820578057797842, 0
2296, -4.893441579266811, 5.369280981738115, 0
2297, -0.19818008879748283, -3.587212361259568, 0
2298, -0.40288427258044246, -3.43371738642268, 0
2299, 3.5872123612595694, -0.19818008879748242, 0
2300, 3.4337173864226855, -0.4028842725804444, 0
2301, -3.587212361259569, 0.19818008879748314, 0
2302, -3.4337173864226807, 0.40288427258044224, 0
2303, 0.19818008879748314, 3.587212361259569, 0
2304, 0.40288427258044224, 3.4337173864226807, 0
2305, 5.569387983846094, -4.830471026744295, 0
2306, 5.610116381201839, -4.691192148863715, 0
2307, -4.763431027316965, -5.3619591440326575, 0
2308, -4.76151092573432, -5.42859517204712, 0
2309, -4.846584424889023, -5.494250134228501, 0
2310, -4.780518599033684, -5.491910841453513, 0
2311, -4.815144100685181, -5.448102924360056, 0
2312, -4.811475355421086, -5.551714874226601, 0
2313, -4.731542689654627, -5.539891715786038, 0
2314, -4.888362539454133, -5.559232804951559, 0
2315, -4.642953466338383, -5.627619379790244, 0
2316, -4.636839362166243, -5.525065027123471, 0
2317, -4.699792466229682, -5.5964231324453735, 0
2318, -4.687030011542257, -5.514344761709238, 0
2319, -4.728470057566325, -5.6650982613705985, 0
2320, -4.651413556929809, -5.575655572336242, 0
2321, -4.531505630740099, -5.58280426503163, 0
2322, -4.59065677550897, -5.565763920818621, 0
2323, -4.5433510524255105, -5.51273846346705, 0
2324, -4.592724760288193, -5.498958436561585, 0
2325, -4.477112002610274, -5.537574200244996, 0
2326, -4.5016342344240865, -5.449944535408084, 0
2327, -4.430922676361274, -5.648443327452206, 0
2328, -4.471100326085728, -5.600125728338615, 0
2329, -4.525247575705499, -5.6749672198316805, 0
2330, -4.38949878022838, -5.573134706648501, 0
2331, 4.8097123615157, -5.42595720793532, 0
2332, 4.763431027316965, 5.361959144032658, 0
2333, 4.76151092573432, 5.428595172047121, 0
2334, 4.846584424889023, 5.494250134228502, 0
2335, 4.780518599033684, 5.491910841453514, 0
2336, 4.815144100685181, 5.4481029243600565, 0
2337, 4.811475355421086, 5.551714874226602, 0
2338, 4.731542689654627, 5.539891715786039, 0
2339, 4.888362539454133, 5.55923280495156, 0
2340, 4.642953466338383, 5.627619379790245, 0
2341, 4.636839362166242, 5.525065027123472, 0
2342, 4.699792466229682, 5.596423132445374, 0
2343, 4.687030011542257, 5.514344761709239, 0
2344, 4.728470057566325, 5.665098261370599, 0
2345, 4.651413556929809, 5.575655572336243, 0
2346, 4.531505630740104, 5.582804265031632, 0
2347, 4.590656775508972, 5.565763920818622, 0
2348, 4.543351052425512, 5.512738463467053, 0
2349, 4.592724760288193, 5.498958436561585, 0
2350, 4.477112002610274, 5.537574200245, 0
2351, 4.50163423442408, 5.449944535408088, 0
2352, 4.430922676361285, 5.6484433274522114, 0
2353, 4.471100326085735, 5.600125728338619, 0
2354, 4.525247575705508, 5.674967219831683, 0
2355, 4.389498780228383, 5.573134706648506, 0
2356, -5.364958014113365, 4.772717276431317, 0
2357, -5.424957560823262, 4.792584785896343, 0
2358, -5.4355227156591175, -4.266041877693219, 0
2359, -4.26604187769322, -5.435522715659117, 0
2360, -1.0777781355954, -4.019110788042526, 0
2361, -5.607218755552433, 4.535337734140889, 0
2362, -5.4355227156591175, 4.26604187769322, 0
2363, -4.535337734140889, 5.6072187555524335, 0
2364, -4.26604187769322, 5.4355227156591175, 0
2365, -1.2358770069770828, 4.06098700960139, 0
2366, -1.3409626195984878, 3.8028992171338594, 0
2367, 1.077778135595396, -4.019110788042526, 0
2368, 4.266041877693219, -5.43552271565912, 0
2369, 4.26604187769322, 5.4355227156591175, 0
2370, -5.458051198321645, 4.97124352774056, 0
2371, -5.511073983483166, 4.904212568661507, 0
2372, -5.40511426215758, 4.958377158571715, 0
2373, -5.299762839042332, 5.169700798812511, 0
2374, -3.5835268832487683, -0.38107249886702926, 0
2375, -0.38107249886702343, 3.5835268832487857, 0
2376, 0.38107249886703043, -3.5835268832487737, 0
2377, 3.5835268832487857, 0.38107249886702343, 0
2378, 5.428977173032061, -4.754530923291641, 0
2379, 5.492662401395885, -4.804556572833378, 0
2380, -5.360066875258311, -4.361339242495907, 0
2381, -4.361339242495908, -5.36006687525831, 0
2382, -4.060987009601389, -1.2358770069770801, 0
2383, -3.8028992171338594, -1.3409626195984885, 0
2384, -1.3104464274414447, -3.716616134491314, 0
2385, -0.9684170382511973, -4.048092732861935, 0
2386, -5.360066875258311, 4.361339242495908, 0
2387, -4.361339242495908, 5.360066875258311, 0
2388, 1.3409626195984883, -3.80289921713386, 0
2389, 4.361339242495907, -5.360066875258314, 0
2390, 5.36006687525831, -4.361339242495909, 0
2391, 3.710130972823365, 1.3148160992910483, 0
2392, 4.361339242495908, 5.360066875258311, 0
2393, -5.2787267960791695, 5.270194034848858, 0
2394, 5.210558421065406, -5.300726364217357, 0
2395, 5.174932865354535, -5.35174734138688, 0
2396, 5.385077205060366, 5.337622783041584, 0
2397, 5.318636493635234, 5.295338010169349, 0
2398, 5.0780010034022185, 5.466434730934958, 0
2399, 5.139424666979046, 5.471821083581599, 0
2400, 5.0131500326166805, 5.446600217318472, 0
2401, 5.0607445495227, 5.415173030909526, 0
2402, 4.942840064978703, 5.4941459998492, 0
2403, 4.9601610874438045, 5.418375423307639, 0
2404, -5.400112622568943, 5.076280971132061, 0
2405, 0.0074258056998992225, -3.5995801215898147, 0
2406, 3.599580121589807, 0.007425805699911657, 0
2407, -3.5995801215898124, -0.007425805699903976, 0
2408, -0.007425805699910193, 3.5995801215898062, 0
2409, -3.1184330544457506, -0.3673768532272586, 0
2410, -0.3673768532272588, 3.1184330544457506, 0
2411, 0.367376853227258, -3.118433054445751, 0
2412, 3.1184330544457506, 0.3673768532272588, 0
2413, 4.019133043775807, -1.1701292742505616, 0
2414, -3.800601935504619, 0.8055522421491651, 0
2415, 1.1701292742505611, 4.019133043775807, 0
2416, -4.690141986780834, 5.603820479055436, 0
2417, -4.847137695886821, 5.630007305245656, 0
2418, -3.889588266595604, -1.111910666716781, 0
2419, -3.9207027539402444, -0.8955508974114151, 0
2420, -3.879254724315825, -0.8559640715995807, 0
2421, -3.7832170610183766, -0.852704415317351, 0
2422, -3.608747240843507, -1.2937926657112158, 0
2423, -1.2937926657112158, -3.6087472408435084, 0
2424, -0.7767187094790979, -3.9339692878323924, 0
2425, -0.8960372249709705, -3.909826905138885, 0
2426, -3.933950171464988, 0.7744191428670162, 0
2427, -3.866379340947624, 0.7861449237522158, 0
2428, -3.8189346627925054, 0.746513879508823, 0
2429, -3.686282414629551, 0.7366385924610273, 0
2430, -3.751392856828783, 0.7579061850740256, 0
2431, -3.848696371643673, 0.8473855171941024, 0
2432, -3.6963731781217355, 0.8160470166815389, 0
2433, -3.764719264703793, 0.8953684389339588, 0
2434, -3.904138032303289, 0.8695214097446412, 0
2435, -3.906729137137959, 0.8181098484228958, 0
2436, -4.05004997821127, 1.1495077907069589, 0
2437, -5.450931114888692, 4.487684195062865, 0
2438, -1.1845293131543597, 3.6172067875080183, 0
2439, -1.2860166029619153, 3.6904490656851636, 0
2440, -1.2254908949665557, 3.667382325730518, 0
2441, -1.2125762370073792, 3.792210833460522, 0
2442, -1.2357053622313388, 3.7315214303525828, 0
2443, -1.2780307806945101, 3.7824039532851406, 0
2444, -1.2656353365866948, 3.9230091132847034, 0
2445, -1.2548781398050044, 3.8512118246356812, 0
2446, -1.1114051076466787, 3.909412512828735, 0
2447, -1.3260890002788939, 3.87724699624226, 0
2448, -1.1901597725938649, 3.897612910862505, 0
2449, -0.9131435927822549, 3.5998716074257784, 0
2450, 1.2937926657112155, -3.6087472408435075, 0
2451, 0.9269402117962042, -3.940264364435736, 0
2452, 0.9993810233188292, -3.985384956019656, 0
2453, 0.8366364141300131, -3.8585336373079158, 0
2454, 0.9080360703774611, -3.870398008735416, 0
2455, 1.0050197912303132, -3.734860903025346, 0
2456, 0.9716030520871363, -3.8134164750268944, 0
2457, 3.792975023494706, -1.2134251368048516, 0
2458, 5.450931114888691, -4.487684195062866, 0
2459, 1.0871540044336028, 3.553065632310395, 0
2460, 1.0128494702441653, 3.5243422233856663, 0
2461, 1.154493927641361, 3.7514698395618447, 0
2462, 1.0504935942344704, 3.4474614998926283, 0
2463, 1.057068722099834, 3.498337423125521, 0
2464, 0.8792851961406294, 3.3983841206237644, 0
2465, 0.8698826992863761, 3.3342135614630024, 0
2466, 0.9318308626576948, 3.364456229322803, 0
2467, 3.5870009093542126, 1.1201312324225796, 0
2468, 3.5236618334794514, 1.0185352460085928, 0
2469, 5.350929934031994, 4.36278631094068, 0
2470, 5.433065521985237, 4.3660536095424725, 0
2471, -5.634904596066799, -4.925058520792914, 0
2472, -5.575411186824901, -4.9035887571278165, 0
2473, -5.62515868112351, -4.99892061327998, 0
2474, -4.9979652948059385, -5.622774002947939, 0
2475, -4.925186598862161, -5.635286546514492, 0
2476, -4.842416260208929, -5.628761398653639, 0
2477, -5.61939903346852, 4.996613258826388, 0
2478, -5.635527888011185, 4.925267527037823, 0
2479, 4.925058520792914, -5.6349045960668, 0
2480, 4.855831685968709, -5.536808973044711, 0
2481, 4.904361552082257, -5.576035839788652, 0
2482, 4.934064296366784, -5.48965581572952, 0
2483, 4.824706045009958, -5.624949346344689, 0
2484, 4.872573116991819, -5.653204189004612, 0
2485, 4.99892061327998, -5.625158681123511, 0
2486, 5.611300659920932, -4.99336899469928, 0
2487, 5.535893876393271, -4.92699318574935, 0
2488, 5.56244442147193, -4.9728513734044455, 0
2489, 5.61661219419096, -4.912294586978471, 0
2490, 4.9979652948059385, 5.62277400294794, 0
2491, 4.925186598862161, 5.635286546514493, 0
2492, 4.842416260208929, 5.62876139865364, 0
2493, 5.611300659920934, 4.993368994699278, 0
2494, 5.560577310250271, 4.969626492840895, 0
2495, 5.607384781558366, 4.909243598145962, 0
2496, -5.471094044689964, 5.063629597129133, 0
2497, 4.641674613259739, -5.495174690035682, 0
2498, -5.495174690035681, 4.641674613259737, 0
2499, 4.048092732861935, -0.9684170382511986, 0
2500, 0.9684170382511985, 4.048092732861935, 0
2501, 5.4951746900356815, -4.641674613259738, 0
2502, -3.3646659310116513, -0.7966557860026197, 0
2503, -3.4998525422398448, -0.6953990189567224, 0
2504, -3.4228622366207464, -0.7334815882743677, 0
2505, -0.7966557860026205, 3.364665931011651, 0
2506, -0.6953990189567246, 3.499852542239844, 0
2507, -0.7334815882743693, 3.4228622366207455, 0
2508, 0.7966557860026194, -3.364665931011651, 0
2509, 0.6953990189567234, -3.4998525422398448, 0
2510, 0.733481588274368, -3.422862236620746, 0
2511, 3.364665931011651, 0.7966557860026205, 0
2512, 3.499852542239844, 0.6953990189567246, 0
2513, 3.4228622366207455, 0.7334815882743693, 0
2514, -0.718189535994535, 3.796914909165804, 0
2515, -0.8094378761298289, 3.692230612655212, 0
2516, -0.774032070621594, 3.7534796250345774, 0
2517, -0.8698366417369318, 3.8025530306408286, 0
2518, -0.8368351775239844, 3.748925891163068, 0
2519, -0.8143951896446499, 3.7997030880793963, 0
2520, -0.9530630831213247, 3.7143686180960946, 0
2521, -0.8830498387357922, 3.6916258751488367, 0
2522, -0.9027171576388482, 3.7502190963534705, 0
2523, -0.9954805683457723, 3.8449968609223393, 0
2524, -0.937743719516341, 3.808721786213858, 0
2525, -0.932940513048702, 3.6571768818163704, 0
2526, -1.0489156699806172, 3.648507588107358, 0
2527, -0.9920984102620141, 3.668498400843486, 0
2528, -1.048107911993214, 3.7557067521561884, 0
2529, -1.035815247435344, 3.7020115002209377, 0
2530, -1.1035259371018498, 3.71476495646572, 0
2531, -0.8457233663873176, 3.62857122209726, 0
2532, -0.8993966776259485, 3.8540020982679017, 0
2533, -1.1149694284045577, 3.6252618778575734, 0
2534, -0.9936780277350904, 3.7837801885370386, 0
2535, -1.124354550501679, 3.8009354487834734, 0
2536, -1.1639549047159734, 3.745174823802445, 0
2537, -0.8359212137690551, 3.512003777143954, 0
2538, -0.7339133654361816, 3.6070111147281088, 0
2539, -1.057103576957469, 3.5663036471009235, 0
2540, -0.8600435412052051, 3.5686711852445265, 0
2541, -0.9338973750432048, 3.503764964959768, 0
2542, -0.790036614085224, 3.5650039821896216, 0
2543, -0.7861551239297098, 3.636788619700063, 0
2544, -0.7228825487092785, 3.6870789320991157, 0
2545, -0.7663351054246962, 3.49812229097256, 0
2546, -0.7320426313941175, 3.5471828898526203, 0
2547, -0.6407925442908596, 3.5799794957551523, 0
2548, -0.8120647046355778, 3.450239537598321, 0
2549, -0.8808133026134876, 3.4591747338515106, 0
2550, -0.5484049351015533, 3.697102971832031, 0
2551, 0.7181895359945341, -3.796914909165805, 0
2552, 0.8073753122694463, -3.681565300803576, 0
2553, 0.7520775566749291, -3.7309633372727453, 0
2554, 0.7098340914231142, -3.6280245755158047, 0
2555, 0.6980524611030086, -3.6929966646603773, 0
2556, 0.7508031581006817, -3.669007896563628, 0
2557, 0.8006340906861902, -3.5782252264713357, 0
2558, 0.5484049351015535, -3.69710297183203, 0
2559, 3.796914909165804, 0.718189535994535, 0
2560, 3.6861177375875425, 0.8129715047931205, 0
2561, 3.7304534391649184, 0.7526483530660425, 0
2562, 3.697102971832031, 0.5484049351015533, 0
2563, -4.855035034797229, 5.477173806247682, 0
2564, -4.894486465058407, 5.537144875708533, 0
2565, -4.856685702094302, 5.425952022094001, 0
2566, -4.8622910423825205, 5.57923137682227, 0
2567, -4.921610621521284, 5.624583566665163, 0
2568, -4.93476609224433, 5.485465029450891, 0
2569, -4.927387145933922, 5.574865237462909, 0
2570, -5.005556720041597, 5.484312531846843, 0
2571, -5.01276109215652, 5.424151457614222, 0
2572, -5.03954242586778, 5.549854628229762, 0
2573, -4.960538790128604, 5.437985403082515, 0
2574, -4.9976894227926145, 5.601499130055611, 0
2575, -5.06455637522798, 5.596058103558777, 0
2576, -5.4220507369263204, -4.531728532657469, 0
2577, -3.601448143630063, -1.1386972504794768, 0
2578, -3.5346233124884137, -0.905747893577252, 0
2579, -1.1386142353475006, -3.601394290702838, 0
2580, -3.59650052249147, 1.1487467284791018, 0
2581, -3.767651612773858, 1.365151887562923, 0
2582, -4.530757124834711, 5.421814737118299, 0
2583, 1.1386972504794763, -3.601448143630063, 0
2584, 4.531728532657472, -5.422050736926318, 0
2585, 5.321616701838803, -5.196634697595693, 0
2586, 5.297446565010551, -5.265894758964678, 0
2587, 5.245443527064756, -5.261960047823186, 0
2588, -5.45662387783308, 5.159615111919725, 0
2589, -5.3927204380390386, 5.246376306604491, 0
2590, -1.0546326303050544, -3.4402859979337466, 0
2591, -1.0306716066382842, -3.5023613819910326, 0
2592, -0.9609227759167187, -3.5895917935957518, 0
2593, -1.0094072560425522, -3.556859100966765, 0
2594, -1.0376130810742512, -3.6509128284735533, 0
2595, 3.6490245645202117, -0.7192424740914809, 0
2596, 3.909826905138885, -0.8960372249709706, 0
2597, 0.719242474091481, 3.649024564520216, 0
2598, 0.8960372249709676, 3.9098269051388854, 0
2599, 5.661448681420483, 4.777984218877175, 0
2600, 5.662660615075178, 4.856115393075972, 0
2601, -0.9618995953301336, 4.058185007208146, 0
2602, -1.047938889580948, 3.9951409080871714, 0
2603, -0.994149138090702, 4.011964481636761, 0
2604, -1.045663715802037, 4.082268887151493, 0
2605, -0.997570955633463, 3.9285026489428, 0
2606, -0.9412853481844479, 3.9007382691587535, 0
2607, 4.058185007208146, 0.9618995953301336, 0
2608, 3.969807251555329, 1.1289377977600212, 0
2609, 3.9984943704883524, 1.0372169161155766, 0
2610, 4.0138614645746085, 0.9880839438852436, 0
2611, 3.8361227370621713, 0.844644202257489, 0
2612, -3.7573167834042307, -0.7314971914686894, 0
2613, -3.8566303654248664, -0.7664854343227743, 0
2614, -5.322252149751552, -5.078302631142515, 0
2615, 5.416426564536195, -5.094265334557475, 0
2616, 5.443841826586551, -5.046374000308244, 0
2617, 5.386930862655353, -5.017476668051498, 0
2618, 5.328548662952796, 5.1855301187046665, 0
2619, 5.325207834983061, 5.1195787848129, 0
2620, 5.27890312871078, 5.154984677413802, 0
2621, 3.435665689298104, -0.943887184836697, 0
2622, -5.254311794977756, -5.209645830624393, 0
2623, -5.199220601903837, -5.235259821322988, 0
2624, -5.323852941352603, -5.274264959477705, 0
2625, -5.290199185828905, -5.33203384780033, 0
2626, -0.7463583347814104, -3.598785590422141, 0
2627, 5.685205153459023, 4.703717022923228, 0
2628, 5.627052084447885, 4.721549649084924, 0
2629, 5.023533402462876, -5.405288151825075, 0
2630, 4.9932258685539175, -5.46265546244758, 0
2631, 5.071310132583315, -5.494400089215637, 0
2632, -3.4200047941424607, -0.43238390245698394, 0
2633, -0.43238390245702346, 3.4200047941425162, 0
2634, 0.4323839024569882, -3.420004794142472, 0
2635, 3.4200047941425162, 0.43238390245702346, 0
2636, -3.5035977752867344, 0.9277288407789965, 0
2637, -5.702347864974591, -4.706576442465147, 0
2638, 5.719772957019316, 4.543527377372818, 0
2639, 5.686875043162939, 4.461260108935165, 0
2640, 5.696199372473208, 4.624498411476152, 0
2641, -5.3980477832476765, -5.065277891562042, 0
2642, -5.640004160149719, -4.832484791794792, 0
2643, -5.484671233020074, -5.122981869453463, 0
2644, 3.725550253246414, -0.9983821771393441, 0
2645, -5.719955082490755, -4.543540629144986, 0
2646, -5.707058897120051, -4.625781974795324, 0
2647, -5.349703154481874, -4.108396215787729, 0
2648, -4.108396215787729, -5.349703154481877, 0
2649, -4.951261803640786, -3.0635664967556786, 0
2650, -4.936160673509988, -2.245401839156144, 0
2651, -4.69764848385403, -2.4799927648164175, 0
2652, -4.784982641900582, -2.148130007472463, 0
2653, -4.428409368326011, -2.136051282780808, 0
2654, -4.657658803355517, -1.9158385555932964, 0
2655, -4.769201672505627, -2.7552697122827334, 0
2656, -4.923572833414278, -2.871491288545518, 0
2657, -4.556844511211225, -1.7789918910801463, 0
2658, -4.276232463547526, -1.9466154546446768, 0
2659, -4.369546033816663, -1.6074278815333694, 0
2660, -3.90648031917022, -1.6373744390821672, 0
2661, -4.081159571998878, -1.797759098236305, 0
2662, -3.0556184574775545, -4.96634703529135, 0
2663, -2.792679189429305, -4.878493258524566, 0
2664, -2.6091449374280837, -4.670147989556223, 0
2665, -2.3158798167833234, -4.841912718592334, 0
2666, -2.38934480341535, -4.524751572617193, 0
2667, -2.1041598195309152, -4.699511149142799, 0
2668, -2.257506893270536, -4.413125428705582, 0
2669, -2.134005190261302, -4.30322570632858, 0
2670, -1.9065671929237147, -4.530494342110946, 0
2671, -1.824558519998482, -4.174726840435313, 0
2672, -2.0083000265117112, -4.199935466369353, 0
2673, -1.6722043887422664, -4.4209344710632035, 0
2674, -1.5029957758580452, -4.373774512222798, 0
2675, -1.5818342021615217, -3.981974054955107, 0
2676, -1.1846654244820096, -4.136581004783774, 0
2677, -1.4050931903582653, -4.23375443510332, 0
2678, -4.877587858543364, 2.8982123547489786, 0
2679, -4.7798262522830335, 2.6416842887135865, 0
2680, -4.818925297814044, 2.1204870227456905, 0
2681, -4.546053980011544, 2.257042248494369, 0
2682, -4.925131874513288, 2.2536490997956253, 0
2683, -4.671193120474497, 1.9051942372891433, 0
2684, -4.328267582696658, 2.0078176158997088, 0
2685, -3.8945391858929006, 1.6461594510361808, 0
2686, -4.032599318751697, 1.7364421175971865, 0
2687, -4.237001367157364, 1.501789584082937, 0
2688, -4.519679937604413, 1.80751330198556, 0
2689, -4.469474650605236, 1.6358932711884973, 0
2690, -5.349703154481878, 4.108396215787729, 0
2691, -4.10839621578773, 5.349703154481874, 0
2692, -3.055618457477554, 4.966347035291351, 0
2693, -2.8975398407123905, 4.87874520536618, 0
2694, -2.240688726028704, 4.805897953294961, 0
2695, -2.496964381657194, 4.674560336009963, 0
2696, -2.399987296873383, 4.511537943404846, 0
2697, -2.6815386900735887, 4.720343465812744, 0
2698, -1.973347178582679, 4.584536230507388, 0
2699, -2.230203128795204, 4.445017702511462, 0
2700, -2.1429897780697886, 4.292431967516926, 0
2701, -1.980174728689966, 4.2347233509828115, 0
2702, -1.6989057929109201, 3.9532528876491027, 0
2703, -1.501789584082937, 4.237001367157364, 0
2704, -1.8233649699358498, 4.048003664352681, 0
2705, 1.6446226920987073, -4.457805286321637, 0
2706, 1.88552908934427, -4.225052216127078, 0
2707, 1.5126375131364393, -4.360536598851383, 0
2708, 1.305840767512209, -4.236673175339373, 0
2709, 1.6423415876888317, -4.028879943732134, 0
2710, 2.0724607429435924, -4.377162842212265, 0
2711, 1.8479084481117856, -4.605988811201641, 0
2712, 1.9827376618916857, -4.7118509711178636, 0
2713, 2.3366471002758677, -4.590180591894813, 0
2714, 2.1204870227456887, -4.8189252978140455, 0
2715, 2.253649099795625, -4.925131874513288, 0
2716, 3.0635664967556786, -4.951261803640787, 0
2717, 2.8714912885455175, -4.9235728334142825, 0
2718, 2.7552697122827317, -4.769201672505627, 0
2719, 2.5682015346403206, -4.728478087228776, 0
2720, 3.8592153298668133, -1.5769333728746866, 0
2721, 4.237001367157364, -1.5017895840829376, 0
2722, 3.761891821797251, -1.3691046420800628, 0
2723, 4.108396215787729, -5.349703154481875, 0
2724, 5.365228673682584, -4.194215626766743, 0
2725, 4.378040554290675, -1.7042917454221105, 0
2726, 4.076640704237842, -1.7029647691707612, 0
2727, 4.098698463825649, -1.8841948234811448, 0
2728, 4.198572052659771, -2.009402318791404, 0
2729, 4.6322589801594605, -2.528059227730974, 0
2730, 4.85724720165908, -2.304412794974238, 0
2731, 4.525187502700035, -2.388993697524589, 0
2732, 4.41129908795498, -2.2590704687625074, 0
2733, 4.683334863042152, -2.1171845128398763, 0
2734, 4.526818386252276, -1.909423388341086, 0
2735, 4.304591151243783, -2.1328686091421587, 0
2736, 4.769201672505625, -2.755269712282734, 0
2737, 4.923572833414281, -2.8714912885455197, 0
2738, 4.951261803640785, -3.06356649675568, 0
2739, 1.5156144211270695, 3.8141557089632587, 0
2740, 1.4348731928765002, 4.191708003630327, 0
2741, 1.3086333588990475, 3.7193069641502015, 0
2742, 4.147274489528647, 1.3682489662900488, 0
2743, 3.9819740549551073, 1.5818342021615215, 0
2744, 3.8141557089632583, 1.5156144211270692, 0
2745, 1.6364988603557358, 4.330167642487544, 0
2746, 1.6423415876888319, 4.028879943732135, 0
2747, 1.8223159807050162, 4.049361953985134, 0
2748, 1.9472742777642293, 4.147527638080868, 0
2749, 1.847908448111784, 4.605988811201644, 0
2750, 2.0724607429435924, 4.377162842212267, 0
2751, 2.081638106795294, 4.727482454112971, 0
2752, 2.528059227730973, 4.632258980159463, 0
2753, 2.3044127949742363, 4.857247201659081, 0
2754, 2.2877121064942854, 4.509662254966749, 0
2755, 2.9762479789869185, 4.9226367282870465, 0
2756, 2.716510330863882, 4.829831400272149, 0
2757, 4.421194656701335, 1.569298441213281, 0
2758, 4.469877568902942, 1.7397127277869413, 0
2759, 4.174726840435316, 1.8245585199984764, 0
2760, 4.584536230507388, 1.973347178582679, 0
2761, 4.445017702511462, 2.230203128795204, 0
2762, 4.292431967516926, 2.1429897780697886, 0
2763, 4.805897953294961, 2.240688726028704, 0
2764, 4.674560336009963, 2.496964381657194, 0
2765, 4.511537943404846, 2.399987296873383, 0
2766, 4.876459941366653, 2.793918812378112, 0
2767, 4.720343465812744, 2.6815386900735887, 0
2768, 4.907752675202452, 2.9844863962919876, 0
2769, 4.108396215787729, 5.349703154481878, 0
2770, 5.365228673682587, 4.19421562676674, 0
2771, -3.032889912010338, 0.020751253477238912, 0
2772, 0.020751253477238774, 3.032889912010338, 0
2773, -0.020751253477239134, -3.032889912010338, 0
2774, 3.032889912010338, -0.020751253477239023, 0
2775, -5.164937751962355, -5.190198819047155, 0
2776, 5.154576521252963, -5.199994946884363, 0
2777, 5.2518110018011654, -5.085799935036049, 0
2778, 4.70321002284753, -5.68216560088249, 0
2779, 4.770926047783136, -5.6683537229053345, 0
2780, 4.60671408983758, -5.661234302533099, 0
2781, 4.759929359226497, -5.5997082055786445, 0
2782, 4.649312136323467, -5.697746797659392, 0
2783, 4.8088903234438805, -5.569798230525138, 0
2784, 4.793344945514606, -5.49778652990497, 0
2785, 4.716303001648461, -5.543772656914798, 0
2786, 4.766988894480219, -5.5411598518476595, 0
2787, 4.653859953522038, -5.558062239858484, 0
2788, 4.559938828686322, -5.543636453536281, 0
2789, 4.634318923431506, -5.611490703007727, 0
2790, -5.669306151110596, 4.779704351530159, 0
2791, -5.653672434391701, 4.685229940966267, 0
2792, -5.6187667157050685, 4.844677310397922, 0
2793, -5.642648890116005, 4.735584874275408, 0
2794, -5.433841936959006, 4.851568436911618, 0
2795, -0.3134504877944153, -3.4921545977366906, 0
2796, 3.4921545977366937, -0.3134504877944159, 0
2797, -3.492154597736691, 0.3134504877944151, 0
2798, 0.3134504877944151, 3.492154597736691, 0
2799, 5.646584871100508, -4.774730280079128, 0
2800, 5.682165600882489, -4.703210022847531, 0
2801, 5.661234302533099, -4.606714089837583, 0
2802, 5.652491510214342, -4.659128632147206, 0
2803, -4.933643627409469, -5.484199913852499, 0
2804, -4.995205130967343, -5.44938496706451, 0
2805, -4.945224420565488, -5.43284212801731, 0
2806, -4.62452292108765, -5.696406734841832, 0
2807, -4.570328045437142, -5.706789035734999, 0
2808, -4.674110313158814, -5.6728301642357, 0
2809, -4.447704336359874, -5.446023506516005, 0
2810, -4.323396866135845, -5.6585414306597155, 0
2811, 4.7531528825582425, -5.429052590329086, 0
2812, 4.778159322188179, -5.36769447496874, 0
2813, 4.8358750797695835, -5.37411303077525, 0
2814, 4.62452292108765, 5.696406734841833, 0
2815, 4.570328045437146, 5.706789035735002, 0
2816, 4.674110313158814, 5.672830164235701, 0
2817, 4.44770433635987, 5.446023506516006, 0
2818, 4.323396866135862, 5.6585414306597235, 0
2819, -5.429626969729454, 4.742657701195795, 0
2820, -4.329760625022613, -5.502543141559527, 0
2821, -5.6904210941159254, 4.541391683793739, 0
2822, -4.541391683793738, 5.690421094115926, 0
2823, -4.494895483932543, 5.534047126606884, 0
2824, -1.1758649183815493, 4.149571531210581, 0
2825, -1.3390458743037104, 4.189107423282785, 0
2826, -1.4005233904302625, 3.7161097165693233, 0
2827, -1.492325468304591, 3.8469076137736486, 0
2828, 1.0329992061317015, -4.0873255914981375, 0
2829, 1.2037352785247928, -4.108431777901795, 0
2830, 4.32976062502261, 5.502543141559533, 0
2831, -5.51561613376399, 4.962292001250131, 0
2832, -3.639194648131661, -0.3631164962340196, 0
2833, -3.5902195872542753, -0.30655195032703375, 0
2834, -0.3631164962340164, 3.6391946481316713, 0
2835, -0.30655195032703225, 3.5902195872542904, 0
2836, 0.36311649623401976, -3.639194648131664, 0
2837, 0.3065519503270364, -3.590219587254278, 0
2838, 3.6391946481316713, 0.3631164962340164, 0
2839, 3.5902195872542904, 0.30655195032703225, 0
2840, 5.455096785960796, -4.853602640387223, 0
2841, 5.483136029113808, -4.903904511051138, 0
2842, 5.553727921778667, -4.7502972524589175, 0
2843, -5.436498166718124, -4.370106103107008, 0
2844, -4.370106103107009, -5.436498166718123, 0
2845, -4.0943695348308475, -1.1199468065997502, 0
2846, -4.181319407111925, -1.248529344432522, 0
2847, -3.716109716569323, -1.4005233904302625, 0
2848, -1.40613082536911, -3.7079387934769192, 0
2849, -0.9978952081401189, -3.9745098702214845, 0
2850, -5.436498166718124, 4.370106103107009, 0
2851, -4.370106103107009, 5.436498166718124, 0
2852, 1.4005233904302623, -3.7161097165693233, 0
2853, 1.4923254683045906, -3.8469076137736473, 0
2854, 4.3701061031070125, -5.436498166718124, 0
2855, 5.436498166718123, -4.37010610310701, 0
2856, 3.6473385951368718, 1.357125312105656, 0
2857, 3.640492646318265, 1.2715162380066285, 0
2858, 4.370106103107009, 5.436498166718124, 0
2859, 5.1613121694175375, -5.2903725793069345, 0
2860, 5.235737831817291, -5.358499459428733, 0
2861, 5.369448822021227, 5.2813624840959505, 0
2862, 5.2826528029214055, 5.338390471238211, 0
2863, 5.220305452697332, 5.315536572027647, 0
2864, 5.263256051824007, 5.275181687297572, 0
2865, 5.173217033685167, 5.367875983658652, 0
2866, 5.168393783372081, 5.290080837073421, 0
2867, 5.202927518096481, 5.4082793639102045, 0
2868, 4.933941194608311, 5.542039855604005, 0
2869, 4.894728495260734, 5.509218904779405, 0
2870, 4.107310483284231, -1.1113152407461846, 0
2871, 4.1453195723793455, -1.273290726010272, 0
2872, 1.111315240746184, 4.107310483284231, 0
2873, 1.2732907260102717, 4.1453195723793455, 0
2874, -4.702638215244944, 5.678737516045739, 0
2875, -4.745945844112799, 5.5502772427171125, 0
2876, -4.860320717612018, 5.67795604798142, 0
2877, -4.778337466589322, 5.663062297199755, 0
2878, -3.9519516947183186, -1.0283094119375908, 0
2879, -3.9064071236186804, -0.9689728024362422, 0
2880, -3.7641263425369553, -0.7992889807832733, 0
2881, -3.692346832140348, -0.8550622706760265, 0
2882, -3.6673110823841677, -1.240226003592502, 0
2883, -1.2402260035925015, -3.6673110823841717, 0
2884, -0.9400689125068655, -3.937788386593732, 0
2885, -0.8176234870693916, -3.8292081263446693, 0
2886, -3.585959022747306, 0.7442007971280528, 0
2887, -3.691843023729746, 0.8890557443300489, 0
2888, -3.610014051174752, 0.968232898162334, 0
2889, -3.637500590521065, 0.9147666425507782, 0
2890, -3.5698257012338037, 0.9137739914035021, 0
2891, -3.702572533014881, 0.9820179889139687, 0
2892, -3.724804161909218, 0.9323517493228233, 0
2893, -3.805218200189456, 0.9981555110542468, 0
2894, -4.123419467575959, 1.1005706064368084, 0
2895, -4.150675666331116, 1.2696067011504004, 0
2896, -5.444707011971884, 4.436979506287811, 0
2897, -5.421319934256698, 4.532101559511316, 0
2898, -5.53418249119722, 4.494759892413033, 0
2899, -1.3547876706890538, 3.6508079592058764, 0
2900, -1.3877757316970323, 4.0215497022186115, 0
2901, -1.1641848573108506, 3.9929651254395058, 0
2902, 1.2402260035925017, -3.6673110823841677, 0
2903, 0.785672889954375, -3.871608529059343, 0
2904, 1.1413771155788597, -3.8500857279476324, 0
2905, 3.6970276339184487, -1.2336589843461574, 0
2906, 5.444707011971883, -4.436979506287812, 0
2907, 5.421319934256697, -4.532101559511317, 0
2908, 0.9146421115569079, 3.606601212740364, 0
2909, 1.1737115272215322, 3.656119057017108, 0
2910, 0.9996475249585347, 3.470221524020402, 0
2911, 0.928732517731378, 3.4273349554887864, 0
2912, 3.5598197277165045, 1.07653257042377, 0
2913, 3.5811433611647168, 1.1747865131701658, 0
2914, 5.43655893856338, 4.422880167805515, 0
2915, 5.558321213447684, 4.290896945176022, 0
2916, -4.885739119618445, -5.607444718935451, 0
2917, -4.859894292075158, -5.676405070611511, 0
2918, -4.78822730476982, -5.655660436541089, 0
2919, 4.90431410514009, -5.430032084987659, 0
2920, 4.8758139174087844, -5.481486725105482, 0
2921, 5.569893272638215, -4.884718833233507, 0
2922, 4.885739119618445, 5.607444718935452, 0
2923, 4.859894292075158, 5.676405070611512, 0
2924, 4.78822730476982, 5.65566043654109, 0
2925, 5.653350275351618, 4.931243844054059, 0
2926, -5.551816195717524, 4.699493280069038, 0
2927, 3.9745098702214845, -0.9978952081401186, 0
2928, 0.9978952081401166, 3.9745098702214836, 0
2929, -3.4617549682044175, -0.6050953219207162, 0
2930, -3.374454240369089, -0.6764766072616154, 0
2931, -0.6050953219207809, 3.46175496820435, 0
2932, -0.6764766072616168, 3.374454240369089, 0
2933, 0.6050953219207273, -3.461754968204407, 0
2934, 0.6764766072616153, -3.374454240369089, 0
2935, 3.46175496820435, 0.6050953219207809, 0
2936, 3.374454240369089, 0.6764766072616168, 0
2937, 3.5112505363546602, 0.8153076741431362, 0
2938, -0.9983607527507372, 3.734451834288177, 0
2939, -1.1440072825803584, 3.858292943962996, 0
2940, -1.1025177653123557, 3.545311838989265, 0
2941, -1.0163878591859794, 3.4938844918333927, 0
2942, -1.0560692871396131, 3.44145065074634, 0
2943, -0.9942728471085379, 3.4103334742187195, 0
2944, -0.9450784805054232, 3.4447671262183626, 0
2945, -0.6753224628697867, 3.7064223208440463, 0
2946, -0.6581542583679425, 3.643174485804402, 0
2947, -0.5834205806980683, 3.6297238436377697, 0
2948, -0.7276037975519689, 3.7363430744045387, 0
2949, -0.7814748925133662, 3.411573614017037, 0
2950, -0.4774870728510682, 3.6215326867379396, 0
2951, -0.4197405396886246, 3.626729309045329, 0
2952, -0.4445576192720779, 3.678391477724015, 0
2953, -0.49929562123804794, 3.6721278373654527, 0
2954, 0.8358752459874199, -3.767756214621025, 0
2955, 0.8019668960408786, -3.7311610091910636, 0
2956, 0.8809263975123816, -3.812770363525365, 0
2957, 0.9166799781032926, -3.7319362259712543, 0
2958, 0.9027238984952461, -3.5079442227187276, 0
2959, 0.7812556608622051, -3.4944070111114685, 0
2960, 0.47748707285106845, -3.6215326867379405, 0
2961, 0.41974053968862574, -3.62672930904532, 0
2962, 0.4445576192720778, -3.6783914777240105, 0
2963, 0.499295621238048, -3.672127837365453, 0
2964, 0.5584166721693621, -3.6166465256193, 0
2965, 3.6171818495751453, 0.7158514219480072, 0
2966, 3.6215326867379396, 0.4774870728510682, 0
2967, 3.626729309045329, 0.4197405396886246, 0
2968, 3.678391477724015, 0.4445576192720779, 0
2969, 3.6721278373654527, 0.49929562123804794, 0
2970, 3.6166465256192977, 0.5584166721693651, 0
2971, -4.809425953327618, 5.440732790745464, 0
2972, -3.629817167082686, -1.1824285450840544, 0
2973, -3.550252699292008, -1.1214393973659913, 0
2974, -3.4816764997375174, -1.1151803329389895, 0
2975, -3.457495681471096, -0.8970057071347398, 0
2976, -1.182357160000024, -3.629770858709217, 0
2977, -1.1221734713635803, -3.5489745344499855, 0
2978, -3.6977173230916036, 1.413145483262329, 0
2979, -3.8408888119936653, 1.4966052679532953, 0
2980, -3.7444864586544258, 1.2236506388514168, 0
2981, 1.182428545084054, -3.629817167082686, 0
2982, 1.1214393973659915, -3.5502526992920083, 0
2983, 1.1151803329389895, -3.481676499737518, 0
2984, 1.0573104441633374, -3.6535775822772063, 0
2985, -1.082006001027106, -3.613695994134175, 0
2986, 3.5679795682861526, -0.7411765001399337, 0
2987, 3.6551323222141128, -0.8223818123181096, 0
2988, 3.7263207842518105, -0.731406229633636, 0
2989, 3.937788386593732, -0.9400689125068655, 0
2990, 3.8877973658100324, -0.8129797934124192, 0
2991, 3.931996790566438, -0.7647734389169373, 0
2992, 0.7314062296336357, 3.726320784251813, 0
2993, 0.9400689125068628, 3.9377883865937315, 0
2994, 0.8129797934124166, 3.887797365810037, 0
2995, 0.7647734389169342, 3.931996790566439, 0
2996, 0.9168742933678764, 3.7734921623963196, 0
2997, 5.605499882787439, 4.776897263316486, 0
2998, 5.5527767419627745, 4.805698724294191, 0
2999, 5.509668450104123, 4.764297605919168, 0
3000, 5.45491558000056, 4.781284011832438, 0
3001, -1.0117451183231414, 4.11970339596675, 0
3002, -1.0903505303530345, 4.138742003490477, 0
3003, -1.1290751983243688, 4.175999245220496, 0
3004, -1.1255411880169894, 4.0649791089509195, 0
3005, -1.057297899952689, 3.9357127771150933, 0
3006, -1.1056824898715791, 3.973783615872125, 0
3007, -1.058169421277069, 3.8686985711554733, 0
3008, -1.0433759341020268, 3.8130719973731217, 0
3009, 4.092426054367886, 1.1212431010453705, 0
3010, 3.855971386121768, 0.8003645909239274, 0
3011, 3.7923339143353716, 1.0338780223231692, 0
3012, 3.7624300450905612, 0.8226044755709198, 0
3013, -5.244104024619186, -5.311162886865258, 0
3014, -0.7364415396013061, -3.5398302140017144, 0
3015, -0.7985043688067824, -3.559702451673065, 0
3016, -0.6576554153096206, -3.583394442259346, 0
3017, -3.3648543838178644, -0.4301775968733224, 0
3018, -3.4179782212244745, -0.3750671234489221, 0
3019, -0.43017759687333185, 3.3648543838178977, 0
3020, -0.3750671234489527, 3.4179782212244993, 0
3021, 0.4301775968733224, -3.36485438381787, 0
3022, 0.3750671234489245, -3.4179782212244825, 0
3023, 3.3648543838178977, 0.43017759687333185, 0
3024, 3.4179782212244993, 0.3750671234489527, 0
3025, -3.5340609600631536, 1.0057006255262182, 0
3026, 3.657422130318988, -0.9763481711246427, 0
3027, 3.6422132512364054, -1.0383134696486773, 0
3028, 3.7202549512191228, -0.8984135065121172, 0
3029, 3.670854856268356, -0.9228819552602748, 0
3030, -5.287480591802257, -4.123962766401735, 0
3031, -5.340639828842522, -4.199669724551554, 0
3032, -4.1239627664017355, -5.287480591802258, 0
3033, -4.199669724551556, -5.340639828842524, 0
3034, -4.89303712024708, -3.0942436571261154, 0
3035, -4.881743757907596, -2.998882496138596, 0
3036, -4.988978129590487, -2.2059053058762608, 0
3037, -4.911219490527858, -2.156984971883766, 0
3038, -4.609992189301193, -2.5444270821501496, 0
3039, -4.5630452066600204, -2.3585024251984557, 0
3040, -4.784217182029926, -2.035956890075454, 0
3041, -4.4084189651688295, -2.2615362131208965, 0
3042, -4.301673543461156, -2.135297193321483, 0
3043, -4.7134121635845165, -1.8719902766157497, 0
3044, -4.736837726480945, -1.9591455380969882, 0
3045, -4.63366294121456, -1.8279581550653288, 0
3046, -4.749781982396388, -1.908940596855714, 0
3047, -4.685753025739368, -1.8278500377307738, 0
3048, -4.7149694268447, -2.789939310385949, 0
3049, -4.696116627118212, -2.6977710525823304, 0
3050, -4.791049305710403, -2.845989874494181, 0
3051, -4.538063561479332, -1.6880419139563476, 0
3052, -4.611379595675066, -1.7371397345288475, 0
3053, -4.645841581734772, -1.776827037324356, 0
3054, -4.187829541738811, -2.018087420583664, 0
3055, -4.4417576641481595, -1.5541178628850663, 0
3056, -4.282680597079396, -1.4689759557746997, 0
3057, -3.9213877991607604, -1.7227388428539934, 0
3058, -3.8544425679320673, -1.67565826491932, 0
3059, -3.8310224383434806, -1.5893157888856162, 0
3060, -4.0142634179999925, -1.8494221187383197, 0
3061, -2.9963648186782557, -4.886292355481858, 0
3062, -3.08975827639283, -4.901550289977987, 0
3063, -3.158255710940418, -4.979032001547326, 0
3064, -3.0393885274196935, -4.916403792356555, 0
3065, -2.9803859065650813, -4.9631864469193525, 0
3066, -3.1093385392773674, -4.953258741264767, 0
3067, -2.843484967285189, -4.795158031522505, 0
3068, -2.6458107543976883, -4.617911962761687, 0
3069, -2.6980703479761847, -4.695669928048684, 0
3070, -2.5552481458357543, -4.59527123957983, 0
3071, -2.2437176308858815, -4.938412911591608, 0
3072, -2.433644630248716, -4.469749285018367, 0
3073, -2.487739577185108, -4.5390077055667195, 0
3074, -2.3448809942605657, -4.443598544442249, 0
3075, -2.4402087425310888, -4.520377219023941, 0
3076, -2.4241316202499634, -4.631340326292985, 0
3077, -2.383864710712775, -4.474996727382385, 0
3078, -2.0348390586848577, -4.78560549574739, 0
3079, -2.303073699575962, -4.35990093416875, 0
3080, -2.3458384780964527, -4.39083001590696, 0
3081, -2.2179967771087363, -4.333182158693053, 0
3082, -2.26806962388233, -4.322550838660399, 0
3083, -2.1774722103301216, -4.2510060974222466, 0
3084, -2.2191458868930884, -4.281535244861366, 0
3085, -2.0930484064687978, -4.224933200454143, 0
3086, -1.8359524223344998, -4.6213763518212865, 0
3087, -1.8936482469160243, -4.086646602875435, 0
3088, -2.050848983847226, -4.147307109237202, 0
3089, -1.9692198728975356, -4.124825794006724, 0
3090, -1.6191198104045164, -4.491897171663425, 0
3091, -1.4676396796024513, -4.422317728644154, 0
3092, -1.4207397442732788, -4.349829312699732, 0
3093, -1.646159451036181, -3.8945391858929, 0
3094, -1.7364421175971867, -4.032599318751696, 0
3095, -1.4903938053078, -3.8496241653970262, 0
3096, -1.2274910964581704, -4.211906288856047, 0
3097, -1.14868002883016, -4.189699453638658, 0
3098, -1.0974753008804923, -4.11626203908509, 0
3099, -4.796028634897723, 2.8429541991661957, 0
3100, -4.8149622351747805, 2.934603011322401, 0
3101, -4.894331916236995, 2.9991099941595025, 0
3102, -4.827570294782507, 2.8842181907580158, 0
3103, -4.871380045205127, 2.8240173577203307, 0
3104, -4.86685891705864, 2.9518309983579925, 0
3105, -4.6995291646693484, 2.6954845988149554, 0
3106, -4.669447374039922, 2.5007228135618704, 0
3107, -4.8749099230671655, 2.0748930025030843, 0
3108, -4.787503266290715, 2.0247354941548075, 0
3109, -4.900932739639792, 2.164014867290079, 0
3110, -4.821583992243152, 2.0665830140850323, 0
3111, -4.869114451839349, 2.124945381659611, 0
3112, -4.455993388893776, 2.332942622482425, 0
3113, -4.982735875982733, 2.2105732205328152, 0
3114, -4.954247844062844, 2.1654834314700677, 0
3115, -5.009155976748904, 2.3059579178031218, 0
3116, -5.017902526606741, 2.2521839270655275, 0
3117, -4.72104472947956, 1.8659875015846883, 0
3118, -4.745887803507398, 1.9488723089277984, 0
3119, -4.64275396158221, 1.819342149148148, 0
3120, -4.239703318763526, 2.080480701349416, 0
3121, -4.390473449806452, 2.168079756844101, 0
3122, -4.183595984279662, 1.9185472999699964, 0
3123, -3.847702141628004, 1.6806171515074815, 0
3124, -3.917746947398287, 1.7254619673142353, 0
3125, -3.8259106673441643, 1.601026141276564, 0
3126, -4.029172580817346, 1.8379079682489878, 0
3127, -4.327214217169623, 1.4369852751227887, 0
3128, -4.51845399788783, 1.599253628449949, 0
3129, -4.444031640753394, 1.5524391065036582, 0
3130, -4.542563798645539, 1.6846316693001877, 0
3131, -5.287480591802259, 4.1239627664017355, 0
3132, -5.340639828842525, 4.199669724551556, 0
3133, -4.1239627664017355, 5.287480591802257, 0
3134, -4.199669724551555, 5.340639828842522, 0
3135, -3.08975827639283, 4.901550289977988, 0
3136, -2.993408200180423, 4.8921778835084755, 0
3137, -3.158255710940419, 4.979032001547328, 0
3138, -3.0396681898582574, 4.916551139649446, 0
3139, -3.1412799675688183, 4.925021033947318, 0
3140, -2.934229545034683, 4.815604942981612, 0
3141, -2.832813147742935, 4.798903649359819, 0
3142, -2.9482069225070187, 4.865956957610915, 0
3143, -2.8803478046550426, 4.8265252087468316, 0
3144, -2.079419771965428, 4.730237560741873, 0
3145, -2.1709544025000778, 4.8936607016040075, 0
3146, -2.5533219067696185, 4.597891690698848, 0
3147, -2.4396474421425727, 4.4622962449098935, 0
3148, -2.351507104431649, 4.433965457669019, 0
3149, -2.7172063976099996, 4.667109329585012, 0
3150, -2.7676428489401, 4.739468574584231, 0
3151, -1.8088859287554866, 4.517891348365445, 0
3152, -1.9025853817903537, 4.674510296514266, 0
3153, -2.182551942501227, 4.244903502238494, 0
3154, -2.0993722294365367, 4.216677675560336, 0
3155, -2.2257360087199785, 4.32218287595694, 0
3156, -1.960566278093845, 4.130838779510465, 0
3157, -1.7848175201504632, 3.9689586825591827, 0
3158, -1.737900512767864, 3.9011164551829456, 0
3159, -1.651070199010915, 3.876823924669757, 0
3160, -1.4369852751227887, 4.327214217169623, 0
3161, -1.6049882757733573, 4.372850626719898, 0
3162, -1.863316781875779, 3.996271834930051, 0
3163, -1.9042077209456845, 4.069144414078908, 0
3164, 1.6041858806058027, -4.511860634165626, 0
3165, 1.6952534622130435, -4.537832614912007, 0
3166, 1.558952903997781, -4.435871195760005, 0
3167, 1.6439099384843454, -4.545217744186459, 0
3168, 1.955809935772534, -4.136810636442781, 0
3169, 1.4730766867091079, -4.414852826106417, 0
3170, 1.4221224528536458, -4.336175650192758, 0
3171, 1.429407331512872, -4.387296200991073, 0
3172, 1.272409990981046, -4.284562195468877, 0
3173, 1.3493397867661037, -4.304354241193621, 0
3174, 1.225380792187086, -4.214974397344094, 0
3175, 1.707857956074211, -3.941283732545508, 0
3176, 1.7977590982363048, -4.081159571998879, 0
3177, 2.23099546815138, -4.444092207284708, 0
3178, 2.1447110047891993, -4.290364151826214, 0
3179, 1.8047745322832545, -4.66150264951711, 0
3180, 1.8938837376196271, -4.686225647143713, 0
3181, 1.7651878993615033, -4.586229761012357, 0
3182, 1.8544091720589555, -4.655554149010474, 0
3183, 1.9387621610867387, -4.767106213200755, 0
3184, 2.0293276857197418, -4.794056978791876, 0
3185, 1.9330138986649765, -4.7174045769473505, 0
3186, 1.9894736905722166, -4.762338732167218, 0
3187, 2.4626484669143616, -4.573179150969276, 0
3188, 2.074893002503083, -4.874909923067166, 0
3189, 2.164014867290078, -4.900932739639794, 0
3190, 2.070025254377416, -4.824387361433557, 0
3191, 2.12494538165961, -4.8691144518393505, 0
3192, 2.210573220532815, -4.982735875982733, 0
3193, 2.3059579178031213, -5.009155976748904, 0
3194, 2.2035546899008236, -4.932579541627792, 0
3195, 2.2634178045944684, -4.977344770345574, 0
3196, 3.0942436571261154, -4.893037120247082, 0
3197, 2.9988824961385943, -4.881743757907598, 0
3198, 2.789939310385948, -4.7149694268447, 0
3199, 2.697771052582332, -4.696116627118212, 0
3200, 2.84598987449418, -4.791049305710405, 0
3201, 3.784161941814595, -1.5369421402975296, 0
3202, 3.807873012370323, -1.6140746759525186, 0
3203, 3.8817858701493124, -1.66219098536961, 0
3204, 4.327214217169623, -1.4369852751227894, 0
3205, 3.694671211916408, -1.415235928862936, 0
3206, 4.123962766401735, -5.287480591802258, 0
3207, 4.199669724551554, -5.340639828842523, 0
3208, 5.305199775134742, -4.2075307493243175, 0
3209, 5.351028156338196, -4.277873127828614, 0
3210, 5.318901954688834, -4.116101916339141, 0
3211, 4.506895061515669, -1.7116611603462437, 0
3212, 4.407907329465209, -1.579107770534504, 0
3213, 3.9888831509267986, -1.7696722570668624, 0
3214, 4.046266590804682, -1.9253221397685378, 0
3215, 4.122076178825671, -1.967983809056235, 0
3216, 4.025325650438629, -1.844639718630966, 0
3217, 4.146547653695997, -2.051462988220189, 0
3218, 4.224363165875486, -2.0945076253031027, 0
3219, 4.575073861136074, -2.5700948182691867, 0
3220, 4.659168206173794, -2.624581522179913, 0
3221, 4.552146215409729, -2.4789890563288792, 0
3222, 4.627437732269495, -2.581415459715862, 0
3223, 4.582193448834352, -2.5198652423824224, 0
3224, 4.946381587674746, -2.2377587092817333, 0
3225, 4.46999133613825, -2.4334496779446626, 0
3226, 4.499229181109848, -2.477578474458115, 0
3227, 4.444282227940315, -2.345035932927208, 0
3228, 4.475570128499311, -2.383882723714509, 0
3229, 4.358884162346777, -2.3039441830830745, 0
3230, 4.391235038991571, -2.345995896067297, 0
3231, 4.331212141822452, -2.218573174978806, 0
3232, 4.777211451961314, -2.0415977080593435, 0
3233, 4.659322459850993, -1.9145301416459257, 0
3234, 4.251766666965325, -2.176839120724797, 0
3235, 4.714969426844699, -2.7899393103859498, 0
3236, 4.697962314110185, -2.703584324155051, 0
3237, 4.791049305710402, -2.845989874494182, 0
3238, 4.8930371202470795, -3.0942436571261167, 0
3239, 4.8817437579075955, -2.9988824961385974, 0
3240, 1.4753311066021983, 3.7400093531349357, 0
3241, 1.5520533368384695, 3.7629106440661495, 0
3242, 1.600389410726081, 3.8358589320033802, 0
3243, 1.3712669390075083, 4.2815137715418174, 0
3244, 1.3538327364091005, 3.6522252059468023, 0
3245, 4.179652365344494, 1.249675967954993, 0
3246, 4.270042792714969, 1.379391428206303, 0
3247, 3.8945391858929006, 1.6461594510361808, 0
3248, 4.032599318751696, 1.7364421175971865, 0
3249, 3.7629106440661495, 1.5520533368384692, 0
3250, 3.7414068841777173, 1.4675588578406482, 0
3251, 3.8318441971849904, 1.5947433770201787, 0
3252, 1.739712727786942, 4.469877568902943, 0
3253, 1.5692984412132807, 4.421194656701336, 0
3254, 1.7078579560742113, 3.9412837325455086, 0
3255, 1.8627324477442975, 3.9970284632817545, 0
3256, 1.905626300035207, 4.071928120139906, 0
3257, 1.7825232795578851, 3.97685727539619, 0
3258, 1.9886319042267449, 4.0956007977464886, 0
3259, 2.0354277373155285, 4.175305042508912, 0
3260, 1.8893315126682777, 4.691362673775628, 0
3261, 1.804774532283254, 4.661502649517111, 0
3262, 1.7540672129861519, 4.577589055115857, 0
3263, 1.79553437072766, 4.609808785293877, 0
3264, 2.1447110047891993, 4.290364151826215, 0
3265, 2.023015416552474, 4.800290111603448, 0
3266, 2.4828453253705844, 4.54693412098956, 0
3267, 2.570094818269186, 4.575073861136076, 0
3268, 2.6245815221799136, 4.659168206173796, 0
3269, 2.519679964928123, 4.582057255234728, 0
3270, 2.456442957332128, 4.618412422781619, 0
3271, 2.5814154597158616, 4.627437732269497, 0
3272, 2.3735818364769457, 4.561703341657821, 0
3273, 2.403958213802369, 4.60620982797219, 0
3274, 2.2377587092817324, 4.946381587674747, 0
3275, 2.348945427594602, 4.437005049150261, 0
3276, 2.9189905675060897, 4.841830094080562, 0
3277, 3.011512679573783, 4.8589252584608875, 0
3278, 3.078016084878538, 4.937350665018891, 0
3279, 2.961135224308725, 4.872656371140943, 0
3280, 2.901534699701662, 4.917953042944784, 0
3281, 3.029917549604287, 4.91072782222871, 0
3282, 2.7688146854048776, 4.748013820611761, 0
3283, 4.46995593855331, 1.5333005717162105, 0
3284, 4.49331343709603, 1.6180603544837548, 0
3285, 4.396500572838538, 1.4864434160047941, 0
3286, 4.575343570928885, 1.7647950570426267, 0
3287, 4.086646602875436, 1.8936482469160214, 0
3288, 4.2319696589516775, 1.9824010327422414, 0
3289, 4.674510296514266, 1.9025853817903537, 0
3290, 4.377178436420113, 2.288282002531575, 0
3291, 4.244903502238494, 2.182551942501227, 0
3292, 4.319905885305159, 2.224326406816397, 0
3293, 4.216677675560336, 2.0993722294365367, 0
3294, 4.730237560741873, 2.079419771965428, 0
3295, 4.8936607016040075, 2.1709544025000778, 0
3296, 4.597891690698848, 2.5533219067696185, 0
3297, 4.4622962449098935, 2.4396474421425727, 0
3298, 4.794084901887604, 2.844139206648336, 0
3299, 4.667109329585012, 2.7172063976099996, 0
3300, 4.850526101241941, 3.016161666095619, 0
3301, 4.924076512453853, 3.077889761200406, 0
3302, 4.1239627664017355, 5.287480591802259, 0
3303, 4.199669724551556, 5.340639828842525, 0
3304, 5.305199775134745, 4.207530749324315, 0
3305, 5.352324716407689, 4.278012845143816, 0
3306, 5.318901954688835, 4.11610191633914, 0
3307, 4.399037280013374, -5.629955725865747, 0
3308, 4.502325821361872, -5.616263309146253, 0
3309, 4.429286857420887, -5.564865667194454, 0
3310, 4.515385526476354, -5.567458353070515, 0
3311, 4.315552840265143, -5.5407224580201175, 0
3312, 4.449448710558173, -5.613809606373033, 0
3313, 4.447374627575532, -5.694104271755917, 0
3314, 4.367547393708498, -5.575747262070461, 0
3315, 4.36890514778233, -5.517626135765281, 0
3316, 4.277360676192651, -5.653524509776784, 0
3317, 4.311844295923465, -5.602333348037893, 0
3318, 4.20078520043099, -5.56473130861807, 0
3319, 4.251185384039301, -5.598682106116612, 0
3320, 4.172124072567924, -5.6616640444729605, 0
3321, -5.704769088652593, 4.706980304730108, 0
3322, -5.694053150409158, 4.62424473445015, 0
3323, -5.614288810904379, 4.615291049563139, 0
3324, -5.552790529757887, 4.817858046803715, 0
3325, -5.515160722634854, 4.7656771015620585, 0
3326, -5.518558398878993, 4.854574601989083, 0
3327, -5.574638737285411, 4.892024433661299, 0
3328, -5.671294061265776, 4.858489071762838, 0
3329, -0.2655426658724745, -3.5234581987186298, 0
3330, -0.32533995010085925, -3.562662002366228, 0
3331, -0.39226536840264603, -3.5151204148319923, 0
3332, 3.5234581987186315, -0.26554266587247444, 0
3333, 3.56266200236623, -0.3253399501008571, 0
3334, 3.515120414831997, -0.392265368402646, 0
3335, -3.52345819871863, 0.26554266587247427, 0
3336, -3.5626620023662285, 0.32533995010085903, 0
3337, -3.515120414831993, 0.3922653684026458, 0
3338, 0.26554266587247427, 3.52345819871863, 0
3339, 0.32533995010085903, 3.5626620023662285, 0
3340, 0.3922653684026458, 3.515120414831993, 0
3341, 5.696062525371235, -4.785561773175592, 0
3342, 5.714873120460465, -4.626705592612291, 0
3343, 5.700005782339286, -4.54208908270036, 0
3344, 5.571956516535162, -4.519153142814449, 0
3345, -4.89258149149574, -5.510599238463255, 0
3346, -4.886214126915042, -5.455442469575263, 0
3347, -4.374969815041167, -5.630173463540922, 0
3348, -4.382346928891355, -5.702395385216259, 0
3349, -4.328992112485125, -5.712568473718866, 0
3350, 4.37496981504118, 5.6301734635409275, 0
3351, 4.3823469288913675, 5.702395385216259, 0
3352, 4.328992112485141, 5.712568473718871, 0
3353, -4.378153823758755, -5.52216287524585, 0
3354, -5.739037637958064, 4.544929109709853, 0
3355, -5.694175628987083, 4.456887223205478, 0
3356, -4.544929109709853, 5.739037637958064, 0
3357, -4.613570268804641, 5.643347834977931, 0
3358, -4.433952480474249, 5.656417143678653, 0
3359, -4.582059880261758, 5.53363312894396, 0
3360, -4.533866918768452, 5.488287580283378, 0
3361, -1.2247683024756695, 4.215864877881992, 0
3362, -1.432428858921494, 3.669618382811193, 0
3363, -1.4781001073423647, 3.736046234515805, 0
3364, -1.407907073558819, 3.854953424740104, 0
3365, 1.0251825994173143, -4.033389714510612, 0
3366, 1.1187467191398888, -4.094808950587662, 0
3367, 4.378153823758755, 5.522162875245854, 0
3368, 5.5176600628632135, -4.85708427920982, 0
3369, 5.594516930565042, -4.783946378103083, 0
3370, 5.544591130926513, -4.685129523455961, 0
3371, 5.571793139596284, -4.604370332769931, 0
3372, 5.504179558358634, -4.756026023388123, 0
3373, -5.403713219244574, -4.318376729974862, 0
3374, -5.3683571390056954, -4.2610526067655305, 0
3375, -5.536478249265747, -4.317132250533265, 0
3376, -4.317943060551392, -5.449978454411849, 0
3377, -4.1472483836194804, -1.0846768055465845, 0
3378, -4.163763217758606, -1.1667113431867018, 0
3379, -4.0819378692665715, -1.0440339941425298, 0
3380, -4.233937578071844, -1.2123375502551255, 0
3381, -4.255089543516287, -1.2994356548397235, 0
3382, -3.669618382811193, -1.432428858921494, 0
3383, -3.6511225665749847, -1.3578683614001652, 0
3384, -3.736046234515804, -1.4781001073423645, 0
3385, -1.435693479898802, -3.6648613116686226, 0
3386, -1.4795407972650894, -3.7339842541868267, 0
3387, -1.0212298760178067, -4.026554099730389, 0
3388, -5.536478249265747, 4.317132250533266, 0
3389, -5.403713219244574, 4.3183767299748625, 0
3390, -5.368357139005696, 4.261052606765532, 0
3391, -4.3183767299748625, 5.403713219244574, 0
3392, -4.261052606765531, 5.3683571390056954, 0
3393, -4.317132250533266, 5.536478249265747, 0
3394, 1.4324288589214937, -3.6696183828111932, 0
3395, 1.357868361400165, -3.651122566574985, 0
3396, 1.4781001073423643, -3.7360462345158045, 0
3397, 1.59048626093177, -3.8404804814915945, 0
3398, 4.318376729974863, -5.403713219244579, 0
3399, 4.261052606765533, -5.368357139005696, 0
3400, 5.560394736769775, -4.290763937940431, 0
3401, 3.606382692751834, 1.3173221917475213, 0
3402, 4.317943060551392, 5.449978454411854, 0
3403, 4.154545307121881, -1.0798097839394527, 0
3404, 4.090650327125611, -1.0343089567081833, 0
3405, 4.172632342072854, -1.1602422407465431, 0
3406, 4.243111709499848, -1.3013461005483646, 0
3407, 1.079809783939452, 4.154545307121881, 0
3408, 1.0343089567081827, 4.090650327125611, 0
3409, 1.1602422407465427, 4.172632342072854, 0
3410, -4.790099337125268, 5.599415855073315, 0
3411, -4.741074578494469, 5.6232660921351485, 0
3412, -3.9861392326014222, -0.9824793292934082, 0
3413, -4.016395119114067, -1.0407154533235563, 0
3414, -3.970219286605956, -1.1069973832481994, 0
3415, -3.8778145333028142, -1.0380668725036157, 0
3416, -3.790344886414074, -1.2162434632735835, 0
3417, -1.2951397940909395, -3.6637592840985675, 0
3418, -0.7788321734640723, -3.874428136988388, 0
3419, -0.7525467675240253, -3.812631311374996, 0
3420, -0.8390361950712274, -3.886824980499974, 0
3421, -0.7245570176160848, -3.70642889708845, 0
3422, -0.7215011429945333, -3.764023845918933, 0
3423, -0.6457929749042289, -3.740419480928887, 0
3424, -0.808130962204415, -3.739741709852323, 0
3425, -0.9215445499787938, -3.8065733491408973, 0
3426, -0.8860007829674715, -3.8525701553968927, 0
3427, -3.5325116381592983, 0.7352104929683121, 0
3428, -3.549748759609152, 0.7961033365299917, 0
3429, -3.609080152512383, 0.7989139306667721, 0
3430, -3.930170964576779, 1.0575075561809866, 0
3431, -4.164080046507512, 1.0734501472250246, 0
3432, -4.094261939939207, 1.0319158008421498, 0
3433, -4.176172840447743, 1.1578437099616328, 0
3434, -4.245272270750552, 1.2998378374818231, 0
3435, -5.489032837413562, 4.532684386485553, 0
3436, -1.296475009460581, 3.6049996972812512, 0
3437, -1.2471495419429575, 3.6204502130993146, 0
3438, -1.3421370235605454, 3.708335113003695, 0
3439, -1.3389709327513726, 3.957076528932291, 0
3440, -1.2128571527451868, 3.955009931741411, 0
3441, -1.2163937000875227, 4.0097304116140124, 0
3442, -1.2896322566571867, 4.011222702782456, 0
3443, -1.3204796958653666, 4.0984592911085596, 0
3444, -1.2862544884722384, 4.061489328370708, 0
3445, -1.1561850899874822, 3.939571884124213, 0
3446, 1.062149511203347, -3.8055486592456043, 0
3447, 1.0735187135736435, -3.921030388105942, 0
3448, 1.2137352174373572, -3.7711014743647753, 0
3449, 3.6439128030810526, -1.244860095643635, 0
3450, 0.9502906711898857, 3.5494079203192075, 0
3451, 0.9788509550987805, 3.6069160492581753, 0
3452, 0.8450524081907002, 3.5235194606663613, 0
3453, 0.8739624182606864, 3.464178124299539, 0
3454, 1.0265072661199706, 3.719464797983717, 0
3455, 0.9019061203298799, 3.51924984629286, 0
3456, 0.8025036117568247, 3.4660775865177627, 0
3457, 0.9463528854522775, 3.68704053421864, 0
3458, 1.0179989511378997, 3.656703571538719, 0
3459, 0.764278830125807, 3.5388712236711726, 0
3460, 0.7437099429852227, 3.4719037166358864, 0
3461, 0.8163723649826695, 3.4044166328144554, 0
3462, 1.0958499150426313, 3.65499298321815, 0
3463, 1.1124559390349296, 3.6022416234062886, 0
3464, 1.1843509319856236, 3.6033301763957706, 0
3465, 5.506711803590871, 4.346838543157669, 0
3466, 3.8988316286367692, -1.1093998849774152, 0
3467, 1.109399884977415, 3.8988316286367657, 0
3468, -3.4261177637670843, -0.5657177296667621, 0
3469, -3.3232920765970655, -0.6723744083833378, 0
3470, -3.439515607015737, -0.670283474559803, 0
3471, -3.402088182925906, -0.6219377964566097, 0
3472, -0.5657177296668024, 3.4261177637670652, 0
3473, -0.6723744083833393, 3.3232920765970655, 0
3474, -0.6702834745598051, 3.4395156070157364, 0
3475, -0.6219377964566363, 3.4020881829259086, 0
3476, 0.5657177296667685, -3.426117763767082, 0
3477, 0.6723744083833377, -3.323292076597065, 0
3478, 0.6702834745598034, -3.4395156070157373, 0
3479, 0.6219377964566138, -3.402088182925907, 0
3480, 3.4261177637670652, 0.5657177296668024, 0
3481, 3.3232920765970655, 0.6723744083833393, 0
3482, 3.4395156070157364, 0.6702834745598051, 0
3483, 3.4020881829259086, 0.6219377964566363, 0
3484, 3.4826704927286496, 0.7575283191048667, 0
3485, 3.5519586474834757, 0.7432496474716832, 0
3486, 3.4471210093930407, 0.811070664181518, 0
3487, 3.6112577320798005, 0.7930817707538566, 0
3488, 3.474559925667436, 0.8832039663498187, 0
3489, -0.9825383708426052, 3.5605706891234976, 0
3490, -0.9714953805186599, 3.6159361182888525, 0
3491, -0.556644987786157, 3.540885820702474, 0
3492, -0.5422439733939408, 3.48200473797068, 0
3493, -0.4666263064172801, 3.531700778435188, 0
3494, 0.8138434340076747, -3.813332853770397, 0
3495, 0.926467827303513, -3.7845895843612847, 0
3496, 0.8595536384617813, -3.71211934610456, 0
3497, 0.9238360319393458, -3.6190595833704733, 0
3498, 0.8632648640035373, -3.645951045926315, 0
3499, 0.9124169467413906, -3.675000804173454, 0
3500, 0.984309338943836, -3.6605398667361473, 0
3501, 0.8133531733111852, -3.62928543129022, 0
3502, 1.0154003523578203, -3.600338499651166, 0
3503, 0.8953511909669527, -3.4428987710368024, 0
3504, 0.8332451936927461, -3.4574484374584356, 0
3505, 0.9654200602762634, -3.467897237157037, 0
3506, 1.0016430765477213, -3.5298788410460795, 0
3507, 0.9951211690629481, -3.4076732833753063, 0
3508, 0.9623447323874639, -3.5741247440981563, 0
3509, 0.7367586395271395, -3.4723969556142866, 0
3510, 0.7415372704884771, -3.5477389557927603, 0
3511, 0.8393199237653399, -3.525132004828781, 0
3512, 0.8709688739928544, -3.58164187399798, 0
3513, 0.5875494367503524, -3.6611228485944687, 0
3514, 0.6359826848271342, -3.59761883423492, 0
3515, 0.6821815056126563, -3.558757692462882, 0
3516, 0.618646104426633, -3.5301172338639386, 0
3517, 0.5124817607942972, -3.52848801964749, 0
3518, 0.5659362515602719, -3.5050412395611663, 0
3519, 0.5714125630651268, -3.5614661792456266, 0
3520, 3.6677264924367106, 0.7530002137151239, 0
3521, 3.6771905321851173, 0.6871635278190383, 0
3522, 3.6164124917615745, 0.6371357529704988, 0
3523, 3.6611228485944687, 0.5875494367503502, 0
3524, 3.528488019647508, 0.5124817607942984, 0
3525, -3.507241602521038, -1.07173005020056, 0
3526, -3.4771979672785687, -0.8074032398859691, 0
3527, -3.488681264995427, -0.9664709913561013, 0
3528, -3.6925843723659075, 1.3307164788069639, 0
3529, -3.773201297076671, 1.448188139011928, 0
3530, -3.6711045673437663, 1.2391257654560086, 0
3531, -3.665464057447964, 1.1678010171630038, 0
3532, -3.7483897390379, 1.0937277226529718, 0
3533, -3.69434193042256, 1.1166753916710277, 0
3534, -3.744045135937964, 1.1586172888531263, 0
3535, -3.6976294408461245, 1.0492960936111246, 0
3536, -3.8817285236225207, 1.1902011282564398, 0
3537, -3.7561445910839772, 1.0336572857645707, 0
3538, -3.6507962842892105, 1.0120345003094966, 0
3539, -3.822776219125201, 1.1312984071807555, 0
3540, -3.8158256659731307, 1.0644858341942043, 0
3541, -3.874897005675706, 1.0921084279701727, 0
3542, -3.870600900299275, 1.0217129161877225, 0
3543, -3.932947302411651, 0.9854210362746096, 0
3544, -3.853379060233437, 0.9669991650988532, 0
3545, -3.801830837141013, 0.9401181697364595, 0
3546, -3.9910157533230315, 1.0237542065103131, 0
3547, -3.915862900819915, 0.9292056220735201, 0
3548, -3.993223617399612, 1.0994511525625543, 0
3549, 1.0717300502005598, -3.507241602521038, 0
3550, 1.0855526828363664, -3.608073549225097, 0
3551, 3.5409176711396055, -0.7964080477410685, 0
3552, 3.597269327367937, -0.8127178409688273, 0
3553, 3.7376693923682662, -0.6490714617679977, 0
3554, 3.680781953478303, -0.7691123641705526, 0
3555, 3.9204395617851313, -0.8487722104698044, 0
3556, 3.844151459054489, -0.7773858265827369, 0
3557, 0.649071461767997, 3.7376693923682662, 0
3558, 0.8264823560705729, 3.671753898039756, 0
3559, 0.8487722104698026, 3.920439561785134, 0
3560, 0.7773858265827375, 3.84415145905449, 0
3561, 0.8523168716200739, 3.819061091868153, 0
3562, 0.9269398472019831, 3.844790271647005, 0
3563, 0.9973242163255552, 3.7984941556694807, 0
3564, 0.9788032507422579, 3.846987606150596, 0
3565, 1.0540177323977014, 3.847930504063641, 0
3566, -1.0782216778557694, 4.0395253781867115, 0
3567, -1.1367253372961845, 4.1155906134300775, 0
3568, 4.146171535110016, 1.0853950596109794, 0
3569, 4.16222438786582, 1.1676756405873172, 0
3570, 4.078555081661745, 1.0422337222741902, 0
3571, 3.834494022846939, 0.9439506071150285, 0
3572, 3.7749893669247165, 0.7745774328203658, 0
3573, -3.488896264670539, 0.9784094461915734, 0
3574, -3.5048991780317267, 1.0443271179478908, 0
3575, -3.5855211028021228, 1.0541022260014947, 0
3576, -3.572843096008579, 1.1035320585635273, 0
3577, 3.8153613202743584, -0.9227851971357256, 0
3578, 3.822389873309018, -0.8486268877442049, 0
3579, -5.290529642299438, -4.2107847589990435, 0
3580, -4.210784758999044, -5.29052964229944, 0
3581, -4.834921176803299, -3.024799090244063, 0
3582, -4.952179970054461, -2.1244562962145666, 0
3583, -4.861330910761468, -2.08595178443011, 0
3584, -4.562360384210171, -2.5794402304935735, 0
3585, -4.540715065002161, -2.4876311988714295, 0
3586, -4.831564804811376, -1.9978339079644867, 0
3587, -4.357272280207284, -2.305324155253342, 0
3588, -4.3289529996340015, -2.2204806853328525, 0
3589, -4.440493378426803, -2.3507658811374688, 0
3590, -4.389256451615701, -2.3456745802024557, 0
3591, -4.250138719079852, -2.1781942063888, 0
3592, -4.22513239159587, -2.0957480785706903, 0
3593, -4.652572476317067, -2.7269463176613487, 0
3594, -4.641715933434711, -2.6291021322951686, 0
3595, -4.746067897399666, -2.873413036588929, 0
3596, -4.831775767032998, -2.9248329614494017, 0
3597, -4.579395625934984, -1.6567207975946612, 0
3598, -4.140473931713763, -2.0563734690250683, 0
3599, -4.113857615039939, -1.9740910882411222, 0
3600, -4.482242374615964, -1.5242301472899167, 0
3601, -4.4974892203751615, -1.6149366050671214, 0
3602, -4.4007896704195435, -1.4833194831856864, 0
3603, -3.8824690178602403, -1.7518476042747635, 0
3604, -3.9664207813054526, -1.6708907038151428, 0
3605, -4.03042648840641, -1.7283230722107485, 0
3606, -3.9612050662906637, -1.7907113064271836, 0
3607, -3.7939621326415054, -1.6241378796659567, 0
3608, -3.773002125087799, -1.544877570214123, 0
3609, -3.8860986836115536, -1.4573101146425391, 0
3610, -3.841119878282017, -1.5160362394311577, 0
3611, -3.807775568076063, -1.443909692964353, 0
3612, -3.9368299497017327, -1.5427534686937832, 0
3613, -3.880757200953366, -1.5588334569239832, 0
3614, -3.9726690094585195, -1.6019624611501042, 0
3615, -4.099471365174069, -1.4847581580219624, 0
3616, -4.048057919288004, -1.5563297365876807, 0
3617, -3.9924439344948683, -1.549541602640732, 0
3618, -3.974860089688057, -1.4623910896339174, 0
3619, -4.058592193393343, -1.9156539946711073, 0
3620, -3.0232194918225312, -4.8377749806211705, 0
3621, -2.887440480814813, -4.918827588314333, 0
3622, -2.871835190414523, -4.748655992192574, 0
3623, -2.9245905880320504, -4.832192873724082, 0
3624, -2.7271367538944493, -4.652288249797457, 0
3625, -2.7744169698876138, -4.739250394297281, 0
3626, -2.586049394490279, -4.553369292971593, 0
3627, -2.204935608666968, -4.9902748747858245, 0
3628, -2.1564987609266857, -4.911853562290903, 0
3629, -2.519212723483313, -4.49967610530253, 0
3630, -2.4880340710188014, -4.607286658544815, 0
3631, -2.4853285178164133, -4.697009340984697, 0
3632, -2.4401617960659445, -4.57701665449435, 0
3633, -1.9971756874000868, -4.832382295397489, 0
3634, -1.9528338231098918, -4.7494251617660765, 0
3635, -2.0656303866655272, -4.289135273951763, 0
3636, -2.006531331427906, -4.264095782577681, 0
3637, -1.8765563036985828, -4.298799843939336, 0
3638, -1.9277588323214503, -4.229819739518697, 0
3639, -1.945806283668859, -4.297411770459343, 0
3640, -1.9264754236841415, -4.414001656024072, 0
3641, -1.954007976700634, -4.358669121617325, 0
3642, -2.030508245144464, -4.431250527105158, 0
3643, -1.9811351829358355, -4.406683308787396, 0
3644, -1.9725347575421048, -4.4858641528166014, 0
3645, -2.076300077852761, -4.367169806908149, 0
3646, -2.126664200984725, -4.183413283379766, 0
3647, -1.7980149104978762, -4.670202359331516, 0
3648, -1.751776985807592, -4.592306654145127, 0
3649, -1.9306581793673934, -4.039463848103771, 0
3650, -1.8492730482982436, -4.014456442701591, 0
3651, -1.9999296916750688, -4.081415786295393, 0
3652, -1.589185511824789, -4.531912911343516, 0
3653, -1.5491231190926524, -4.4485233453743795, 0
3654, -1.6813214470871707, -4.54693204389871, 0
3655, -1.3925067100635407, -4.389131984411274, 0
3656, -1.4828425128412877, -4.289749895307154, 0
3657, -1.6806171515074817, -3.8477021416280035, 0
3658, -1.7254619673142355, -3.917746947398287, 0
3659, -1.6010261412765643, -3.825910667344164, 0
3660, -1.2000393206153501, -4.251817607630981, 0
3661, -1.2512594953209917, -4.148556166619422, 0
3662, -1.3304815641585441, -4.186993001325501, 0
3663, -1.2868104955646014, -4.263933716999823, 0
3664, -1.075022560282252, -4.161722592869758, 0
3665, -4.749196932552861, 2.8715054031592806, 0
3666, -4.8410156838383775, 3.0214257421420188, 0
3667, -4.9151702456963084, 3.0825822551342186, 0
3668, -4.823457618587457, 2.7339281452010487, 0
3669, -4.654718864699663, 2.725508203727041, 0
3670, -4.739644006925496, 2.774165341147881, 0
3671, -4.642070219480507, 2.6288534497649856, 0
3672, -4.560694055809178, 2.4722563698184867, 0
3673, -4.835836657215866, 1.9943943318415467, 0
3674, -4.407749799832019, 2.3736008771848085, 0
3675, -4.377979108576605, 2.287596527293407, 0
3676, -4.667821584782578, 1.996667382684019, 0
3677, -4.789062224850516, 1.9212882242876006, 0
3678, -4.6831016304114765, 1.7879922550682408, 0
3679, -4.1922612811117865, 2.1194048077858376, 0
3680, -4.2686363345616645, 2.162796997558389, 0
3681, -4.164840282767212, 2.036673769321503, 0
3682, -3.9760406883321093, 1.665355275854446, 0
3683, -3.9003874581042166, 1.5625227117395701, 0
3684, -3.985488593214377, 1.8716445377262034, 0
3685, -4.060936901650249, 1.9138148164665685, 0
3686, -4.375539368160363, 1.4022709521086714, 0
3687, -4.4836825797741575, 1.5231669201686315, 0
3688, -4.401017572640529, 1.483153492271693, 0
3689, -4.383635501959773, 1.6164578616047143, 0
3690, -4.582242712556518, 1.6545632975389724, 0
3691, -4.463784034913157, 1.7235992673691347, 0
3692, -4.5971725538598305, 1.748042721918119, 0
3693, -5.290529642299441, 4.210784758999044, 0
3694, -4.210784758999044, 5.290529642299438, 0
3695, -3.021269550933843, 4.841297868892586, 0
3696, -2.8689097350736286, 4.753454530768432, 0
3697, -2.021838161651064, 4.801752227574001, 0
3698, -2.133054722155048, 4.941358591807942, 0
3699, -2.222996695106248, 4.966122359095071, 0
3700, -2.5848352481603087, 4.5550210147983154, 0
3701, -2.48922844809122, 4.538639501926381, 0
3702, -2.629141906795022, 4.641659268616858, 0
3703, -2.384742305109135, 4.394529791391498, 0
3704, -2.7069429200984163, 4.809359331929763, 0
3705, -2.8001364666381137, 4.699018429049345, 0
3706, -1.7533098617273462, 4.590309253661023, 0
3707, -1.8644826124234546, 4.722958205435002, 0
3708, -2.130785771989239, 4.178389771096964, 0
3709, -2.040348798413204, 4.160294677995187, 0
3710, -2.0538421289359956, 4.293326969906533, 0
3711, -2.257961936553598, 4.284013084598865, 0
3712, -2.158167070977384, 4.3801658881666325, 0
3713, -2.292630717480507, 4.372098902131706, 0
3714, -1.9962150916366646, 4.086079676842283, 0
3715, -1.8144577800231088, 3.929965208693427, 0
3716, -1.7322068731223466, 4.013918082952389, 0
3717, -1.7642902305621566, 4.067053598294136, 0
3718, -1.7594538101960704, 4.23704928904362, 0
3719, -1.746095795703689, 4.151602606089621, 0
3720, -1.6864627794949092, 3.8397564013998853, 0
3721, -1.6067568355348671, 3.817988836398476, 0
3722, -1.5428622774675993, 3.776336423763383, 0
3723, -1.5654088916454183, 3.8952367423220524, 0
3724, -1.4022709521086714, 4.375539368160363, 0
3725, -1.4857942829355208, 4.3973918196221256, 0
3726, -1.3553280864264288, 4.304017862077004, 0
3727, -1.6309198405610648, 4.476123061115819, 0
3728, -1.9380444935103815, 4.0300472773134, 0
3729, 1.527020585624257, -4.478462557865353, 0
3730, 1.9934579262189207, -4.089541454044425, 0
3731, 1.911624182524802, -4.063729669354015, 0
3732, 2.0372659265196598, -4.164107849766394, 0
3733, 1.3736343723263686, -4.347932907626025, 0
3734, 1.423614425166352, -4.2336173693986385, 0
3735, 1.2846109604699711, -4.155370322823339, 0
3736, 1.7429537145405285, -3.8943602606539187, 0
3737, 1.6650605029275258, -3.872116333584239, 0
3738, 1.7875914911596893, -3.965309363473675, 0
3739, 2.2887031682121637, -4.3766864921237465, 0
3740, 2.183543019784643, -4.243712860044619, 0
3741, 1.8591390755433435, -4.729752545909034, 0
3742, 1.8500770999977232, -4.4138770111578856, 0
3743, 1.7102669369780132, -4.590864579076025, 0
3744, 1.9933996392925761, -4.837072036112907, 0
3745, 2.5037811919001265, -4.519728778836462, 0
3746, 2.412243383480396, -4.49183790049274, 0
3747, 2.554301057267044, -4.6011583597304115, 0
3748, 2.4527609580635565, -4.523018193274953, 0
3749, 2.394686152999437, -4.5565684873293275, 0
3750, 2.5456835840492844, -4.550118392580434, 0
3751, 2.129317700666254, -4.946061746004482, 0
3752, 3.0247990902440622, -4.8349211768033005, 0
3753, 2.726946317661349, -4.652572476317067, 0
3754, 2.8734130365889285, -4.7460678973996675, 0
3755, 2.9248329614494017, -4.831775767032999, 0
3756, 3.8460685531551437, -1.511182842897181, 0
3757, 3.8117131092334553, -1.4355622368556067, 0
3758, 3.8384177381394213, -1.6874476251098487, 0
3759, 3.9102533077196036, -1.7310667309345469, 0
3760, 3.9995481776682063, -1.5853989711140584, 0
3761, 4.375539368160363, -1.402270952108672, 0
3762, 4.397391819622125, -1.4857942829355204, 0
3763, 3.732695401416971, -1.4810311233164846, 0
3764, 3.6886840538455243, -1.3344704943106278, 0
3765, 4.2107847589990435, -5.290529642299439, 0
3766, 5.304486519649614, -4.291108680929663, 0
3767, 5.404176233067684, -4.314340080365169, 0
3768, 5.482808113145782, -4.306015009933495, 0
3769, 5.268900326422376, -4.12861109056265, 0
3770, 4.5611902389392665, -1.6705166979933523, 0
3771, 4.484227259823746, -1.625351395958218, 0
3772, 4.587965278906291, -1.7622464683339407, 0
3773, 4.59510015030689, -1.7103912939970185, 0
3774, 4.4624630844932485, -1.538832148663542, 0
3775, 3.9418732514085177, -1.8054060735281972, 0
3776, 4.185672129055959, -1.9418778008746969, 0
3777, 4.161891586594182, -1.8833234166205766, 0
3778, 4.197958565059838, -1.7559482151030157, 0
3779, 4.129212780541726, -1.8052763546777748, 0
3780, 4.195579692848558, -1.8240685054927241, 0
3781, 4.313739898821544, -1.8052033589128273, 0
3782, 4.251030356008927, -1.79190325129807, 0
3783, 4.271875852854206, -1.848104167557362, 0
3784, 4.3337608417387345, -1.9735344658135587, 0
3785, 4.28905986308881, -1.917607498281903, 0
3786, 4.298130362232921, -1.7243150729426644, 0
3787, 4.24573601253115, -1.9653976247143092, 0
3788, 4.391862294820406, -1.8812678252955197, 0
3789, 4.331850572530271, -1.864752934338425, 0
3790, 4.34924022258658, -1.9188551000866518, 0
3791, 4.434436809364057, -1.9725044522422917, 0
3792, 4.08071823225048, -2.0004852652366645, 0
3793, 3.9821368344911114, -1.8742330569352563, 0
3794, 4.182771872496039, -2.127190450419688, 0
3795, 4.609493493211627, -2.6517198957054844, 0
3796, 4.994938329368202, -2.201448309149335, 0
3797, 4.913811390554831, -2.15494311422919, 0
3798, 4.289529427836735, -2.2533046074783254, 0
3799, 4.827499191827615, -2.001107425871934, 0
3800, 4.747273935860896, -1.954545900244275, 0
3801, 4.714337579373565, -1.8712624659596435, 0
3802, 4.649670031560193, -1.8184717162123873, 0
3803, 4.70926527091637, -1.9214228657785826, 0
3804, 4.672738049735692, -2.0017068121514825, 0
3805, 4.78164143760379, -2.663185395576488, 0
3806, 4.651846132672283, -2.727432979313608, 0
3807, 4.746067897399665, -2.87341303658893, 0
3808, 4.831775767032999, -2.9248329614494026, 0
3809, 4.834921176803298, -3.0247990902440645, 0
3810, 1.450260789611798, 3.8016459523901855, 0
3811, 1.374947787629385, 3.7682154701102313, 0
3812, 1.625103932657858, 3.7926267083209146, 0
3813, 1.668952277420615, 3.863557762185332, 0
3814, 1.7183720301396523, 3.8874208303843134, 0
3815, 1.599342724493503, 3.9371559807095746, 0
3816, 1.6197214249244118, 3.886712618593774, 0
3817, 1.3371943892348692, 4.329620857101938, 0
3818, 1.290208437447652, 4.259066222908426, 0
3819, 1.4200995215479715, 4.35072055461897, 0
3820, 1.4194308022851865, 3.689406146257182, 0
3821, 1.2736547003301613, 3.646970061706248, 0
3822, 4.233010396066221, 1.2129752839448444, 0
3823, 4.251019409585321, 1.2962962193375276, 0
3824, 4.323139657913635, 1.3417847937326406, 0
3825, 4.352966197820487, 1.4175899409772117, 0
3826, 3.847702141628004, 1.6806171515074813, 0
3827, 3.9177469473982875, 1.7254619673142353, 0
3828, 3.7042537327574783, 1.5003132857407016, 0
3829, 3.6859118113452953, 1.4212472164800567, 0
3830, 3.7629030912545267, 1.3853944369164468, 0
3831, 3.8045418793446797, 1.4510751811997198, 0
3832, 3.9025333655730314, 1.5373999986149667, 0
3833, 3.876235267169619, 1.4684723927637233, 0
3834, 3.9958071764349588, 1.3752325120183964, 0
3835, 3.9740575206240507, 1.4706306451037632, 0
3836, 3.92432859239741, 1.4068576882290138, 0
3837, 3.92470716649327, 1.489459392354544, 0
3838, 3.7925263484223906, 1.6251765335373987, 0
3839, 1.53330057171621, 4.46995593855331, 0
3840, 1.4880480492147545, 4.3995645503285195, 0
3841, 1.618060354483753, 4.49331343709603, 0
3842, 1.8801745113143795, 4.1352213294227615, 0
3843, 1.8218920557901659, 4.11207203780097, 0
3844, 1.6958164759477554, 4.148821705610019, 0
3845, 1.7442050459159133, 4.080190392941769, 0
3846, 1.7633722877158704, 4.145946664167552, 0
3847, 1.7433455895056253, 4.267953734567315, 0
3848, 1.7319800482633476, 4.203440988108984, 0
3849, 1.7898739679444005, 4.2264990555687545, 0
3850, 1.9099183275024658, 4.269417725875898, 0
3851, 1.8553049830556576, 4.232829772599601, 0
3852, 1.6609017977328782, 4.249220743919008, 0
3853, 1.9041983772094584, 4.19331479792627, 0
3854, 1.8260442101032661, 4.335559665740984, 0
3855, 1.7992886865683284, 4.283904922747683, 0
3856, 1.8572860792027932, 4.288926202933981, 0
3857, 1.9137636255593558, 4.360544972555668, 0
3858, 1.9375702094149279, 4.0306519266247, 0
3859, 1.7617711928844184, 3.92426952825073, 0
3860, 2.0639371849964507, 4.131118451102354, 0
3861, 2.106182199488954, 4.208377450193268, 0
3862, 1.8565292804361204, 4.733070916666786, 0
3863, 1.9505149763390934, 4.752338794068797, 0
3864, 1.7261988986176202, 4.625635955673923, 0
3865, 1.6791238411959846, 4.549832055101815, 0
3866, 2.183543019784643, 4.24371286004462, 0
3867, 2.226209275980134, 4.321622317618013, 0
3868, 1.9899519254812958, 4.841353995287029, 0
3869, 2.0865340914334674, 4.860615899468502, 0
3870, 2.5156319826247593, 4.504329138415875, 0
3871, 2.6517198957054835, 4.609493493211628, 0
3872, 2.7035626394469006, 4.6874726702895195, 0
3873, 2.201448309149334, 4.994938329368203, 0
3874, 2.38313006175248, 4.3964428200380885, 0
3875, 2.42149890938559, 4.48482930857064, 0
3876, 2.946693622531769, 4.794155189213239, 0
3877, 3.099371849355779, 4.883303906176787, 0
3878, 2.8100145154109946, 4.8718093712207, 0
3879, 2.798002150979465, 4.702357052438436, 0
3880, 2.848709629691445, 4.78658817104582, 0
3881, 4.532818036874074, 1.588508420807593, 0
3882, 4.547041151176924, 1.6812387664419648, 0
3883, 4.415005171783791, 1.6561654067430622, 0
3884, 4.435977370494839, 1.4576907794740037, 0
3885, 4.33626277563177, 1.5495040896675887, 0
3886, 4.62193385252393, 1.7290400237781633, 0
3887, 4.645364245179448, 1.8173139746174656, 0
3888, 4.039463848103772, 1.9306581793673918, 0
3889, 4.014456442701591, 1.8492730482982431, 0
3890, 4.113125912583491, 1.974673859630268, 0
3891, 4.722958205435002, 1.8644826124234546, 0
3892, 4.749044175349556, 1.9531370353995297, 0
3893, 4.33872562150504, 2.3212024085285, 0
3894, 4.428381967246696, 2.3562127032507694, 0
3895, 4.380488340042221, 2.1585544522795233, 0
3896, 4.382527292059528, 2.2258703522196885, 0
3897, 4.283634827009572, 2.258281291240678, 0
3898, 4.178389771096964, 2.130785771989239, 0
3899, 4.293326969906533, 2.0538421289359956, 0
3900, 4.941358591807942, 2.133054722155048, 0
3901, 4.966122359095071, 2.222996695106248, 0
3902, 4.8585775780252485, 2.0881941055663558, 0
3903, 4.5550210147983154, 2.5848352481603087, 0
3904, 4.538639501926381, 2.48922844809122, 0
3905, 4.641659268616858, 2.629141906795022, 0
3906, 4.747985775319561, 2.8722437918042427, 0
3907, 4.739941937087406, 2.773974880309493, 0
3908, 4.832065818218748, 2.9246644177683723, 0
3909, 4.87669993967598, 3.1028513176434185, 0
3910, 4.210784758999044, 5.290529642299441, 0
3911, 5.435945501062111, 4.247997482142723, 0
3912, 5.393721279156359, 4.321092152122145, 0
3913, 5.3052389193217, 4.290964749290087, 0
3914, 5.2689003264223775, 4.128611090562649, 0
3915, -3.0326264408639982, -0.044860876767981034, 0
3916, -0.04486087676798123, 3.0326264408639987, 0
3917, 0.04486087676798081, -3.0326264408639987, 0
3918, 3.0326264408639987, 0.04486087676798109, 0
3919, 4.552330372936617, -5.643831342952437, 0
3920, 4.369109143775031, -5.702793141164672, 0
3921, 4.335436973077562, -5.65543603901095, 0
3922, 4.30463019961077, -5.7082148394507755, 0
3923, 4.458361604399956, -5.743004112822587, 0
3924, -5.658150914437393, 4.5843124573682426, 0
3925, -5.556824948898629, 4.637933013861904, 0
3926, -5.599952641141651, 4.672425927692596, 0
3927, -5.5227013655450055, 4.585455253887173, 0
3928, -0.3626976457537656, -3.4698692249731273, 0
3929, -0.2874804045060305, -3.3692078996432024, 0
3930, -0.3140042614594695, -3.4278214389784254, 0
3931, -0.22845394657565898, -3.4312266816240578, 0
3932, -0.5321033103592663, -3.4919679423645302, 0
3933, -0.4026733938529359, -3.600649080320927, 0
3934, -0.3516072816382127, -3.6068980081755946, 0
3935, 3.4698692249731313, -0.3626976457537667, 0
3936, 3.369207899643203, -0.2874804045060323, 0
3937, 3.4278214389784276, -0.3140042614594708, 0
3938, 3.4312266816240578, -0.2284539465756597, 0
3939, 3.491967942364539, -0.5321033103592716, 0
3940, 3.6006490803209283, -0.402673393852929, 0
3941, 3.6068980081755946, -0.35160728163820837, 0
3942, -3.4698692249731278, 0.3626976457537654, 0
3943, -3.3692078996432016, 0.2874804045060297, 0
3944, -3.4278214389784254, 0.314004261459469, 0
3945, -3.4312266816240573, 0.22845394657565793, 0
3946, -3.4919679423645307, 0.5321033103592656, 0
3947, -3.6006490803209275, 0.4026733938529355, 0
3948, -3.606898008175595, 0.35160728163821237, 0
3949, 0.3626976457537654, 3.4698692249731278, 0
3950, 0.2874804045060297, 3.3692078996432016, 0
3951, 0.314004261459469, 3.4278214389784254, 0
3952, 0.22845394657565793, 3.4312266816240573, 0
3953, 0.5321033103592656, 3.4919679423645307, 0
3954, 0.4026733938529355, 3.6006490803209275, 0
3955, 0.35160728163821237, 3.606898008175595, 0
3956, 5.516640738489826, -4.4834319928195185, 0
3957, 5.512339713683251, -4.550782357037077, 0
3958, 5.5983742339269895, -4.417554103559376, 0
3959, 5.546628116934334, -4.43699521319643, 0
3960, 5.54850650617282, -4.363408398385732, 0
3961, 5.633231679555548, -4.545971152975961, 0
3962, 5.662265449350138, -4.469150877590957, 0
3963, -5.651804931404662, 4.49734032958969, 0
3964, -5.601673357258466, 4.402416230414588, 0
3965, -5.640200096249408, 4.44276924536276, 0
3966, -5.688744883838639, 4.367411919598638, 0
3967, -5.582530621141364, 4.459260679763514, 0
3968, -5.716247577543149, 4.500203517644289, 0
3969, -5.743875946847981, 4.458387929519861, 0
3970, -4.5644613097593805, 5.646921089897165, 0
3971, -4.599374004229503, 5.700453582270046, 0
3972, -4.663796878966394, 5.646715576003726, 0
3973, -4.477739835162433, 5.704801140341102, 0
3974, -4.492308705380002, 5.647610658770556, 0
3975, -4.453760264748885, 5.589921365517498, 0
3976, -4.370532326708029, 5.6013274636819546, 0
3977, -4.538590811030131, 5.557658656317385, 0
3978, -4.590471518503701, 5.590599573003893, 0
3979, -4.665952499220738, 5.522758120204627, 0
3980, -1.1729614340168306, 4.205438369185855, 0
3981, -1.459144761854367, 3.9456594053623952, 0
3982, -1.4449423192926372, 3.7966442958191924, 0
3983, 0.9600185494455317, -4.055025499292759, 0
3984, 1.0778872129298274, -4.0679871340051035, 0
3985, 1.072273442171911, -4.132312108302173, 0
3986, 1.1510224329362375, -4.165370801247521, 0
3987, -5.335861307031815, -4.308852294499527, 0
3988, -5.496063192140384, -4.361690501804881, 0
3989, -5.460627867801571, -4.31713541370658, 0
3990, -5.5779006460692875, -4.395310718787449, 0
3991, -4.12368719024739, -1.2181032718543046, 0
3992, -4.07849115647331, -1.1781459797835108, 0
3993, -3.99658530110139, -1.1848311407087568, 0
3994, -4.205255764954976, -1.138141317145818, 0
3995, -4.0898726225203115, -0.9948401449123356, 0
3996, -4.293512648624983, -1.2661617821326452, 0
3997, -4.312339613670331, -1.3494340836603531, 0
3998, -3.668501940051536, -1.3003248875936124, 0
3999, -3.736756898399109, -1.2689111771405086, 0
4000, -1.4153842260546603, -3.798334703176294, 0
4001, -1.0263544777364868, -4.097447960365019, 0
4002, -1.0714064640483167, -4.070975028216844, 0
4003, -1.1522525472877783, -4.054583693600655, 0
4004, -5.496063192140384, 4.3616905018048815, 0
4005, -5.544312129675154, 4.393868384397721, 0
4006, -5.478935457258091, 4.305547686238308, 0
4007, -5.528650151123589, 4.2073105200505605, 0
4008, -5.490208091131642, 4.2495543135185, 0
4009, -5.444400990695371, 4.169256498003994, 0
4010, -5.399956962673612, 4.209834486076219, 0
4011, -5.38830216991626, 4.152441095769519, 0
4012, -5.408308316625012, 4.095972891311273, 0
4013, -5.392268519796057, 3.932619957838891, 0
4014, -5.361188761342832, 4.01813566112204, 0
4015, -5.291479619867631, 4.048165793833973, 0
4016, -5.317942889286702, 4.288534520657601, 0
4017, -4.308852294499528, 5.335861307031815, 0
4018, -4.3616905018048815, 5.496063192140384, 0
4019, -4.3171354137065805, 5.460627867801571, 0
4020, -4.393956170900933, 5.546356467259633, 0
4021, 1.3003248875936122, -3.6685019400515366, 0
4022, 1.2690461977919998, -3.729942825908232, 0
4023, 1.2751329786234085, -3.795866644158347, 0
4024, 1.3349738826409525, -3.7248234687055177, 0
4025, 1.2184049431651283, -3.8480154897994, 0
4026, 1.421729276165405, -3.794494662576189, 0
4027, 1.6218365626887417, -3.797143360469098, 0
4028, 4.308852294499529, -5.3358613070318155, 0
4029, 4.029032608889404, -1.0274166847541766, 0
4030, 3.9680462427237657, -1.074942098758187, 0
4031, 4.097629704133075, -1.1923086548317514, 0
4032, 4.288297084425375, -1.2698027077721674, 0
4033, 4.306555276009812, -1.353530925748065, 0
4034, 1.027416684754177, 4.029032608889403, 0
4035, 1.0749420987581857, 3.968046242723762, 0
4036, 1.1923086548317507, 4.097629704133075, 0
4037, -3.9278271212505365, -1.075374403855227, 0
4038, -4.03350551118607, -1.1018608888027115, 0
4039, -3.7732545159562854, -1.0925985385692336, 0
4040, -1.3610969326720763, -3.6414441933731974, 0
4041, -0.5871396814337467, -3.65702793114744, 0
4042, -0.539338555847302, -3.699906203041221, 0
4043, -0.5009587378778949, -3.6090362768381166, 0
4044, -3.6580070330918097, 0.780577014543043, 0
4045, -4.061054490152641, 1.086537891415133, 0
4046, -4.112455403667574, 1.1636011477857993, 0
4047, -4.062029425703063, 1.24167514269724, 0
4048, -4.148801969273186, 1.2103893345299366, 0
4049, -4.289570270124225, 1.268913911416221, 0
4050, -4.3070474893054795, 1.3531823084535406, 0
4051, -1.3788734698081382, 3.9096834038916706, 0
4052, -1.2547325177107338, 4.14257658931244, 0
4053, 1.0147836598936708, -3.7853997091815814, 0
4054, 1.020777313435588, -3.8543774433426305, 0
4055, 1.0519798136083245, -3.971098465232988, 0
4056, 1.2062824523307472, -3.713923414789517, 0
4057, 0.9701824143760003, 3.7434176871811493, 0
4058, 0.697803938604801, 3.5759761268828334, 0
4059, 1.1341703216213177, 3.6977616819714823, 0
4060, 1.0878715086110977, 3.7459809195642584, 0
4061, 1.1159770852483801, 3.8119093674984375, 0
4062, 1.255000443031922, 3.858013283482908, 0
4063, 1.1913053641349758, 3.817421746804197, 0
4064, 5.600971382021107, 4.3820213856558, 0
4065, 5.568127940944695, 4.432300749278167, 0
4066, 3.4100524048577556, 0.7800735489852739, 0
4067, 3.618015666593472, 0.9184686639394724, 0
4068, 3.5591787253973486, 0.7948562576660168, 0
4069, 3.587374215575892, 0.857244574113184, 0
4070, 3.649821478981647, 0.864270715067688, 0
4071, 3.5420128103377047, 0.918226830199766, 0
4072, 3.7246751449220947, 0.9446297586832028, 0
4073, 3.6752511220106205, 0.9156255023798877, 0
4074, 3.7297616498636614, 0.8793501673293618, 0
4075, 3.6621987940475154, 0.9944790676845888, 0
4076, 3.7794099796879523, 0.9160566664850635, 0
4077, 3.7840835458795476, 0.9751635157958849, 0
4078, 3.7276123959759824, 1.0130355657124561, 0
4079, 3.7269981164899573, 1.1258532921977804, 0
4080, 3.676350212977674, 1.0691669846318157, 0
4081, 3.7451323662556955, 1.0695414955094908, 0
4082, 3.8251566430158577, 1.126387754033715, 0
4083, 3.428790196641915, 0.9177007673167342, 0
4084, -1.0219476022198883, 3.6043116912377493, 0
4085, -0.5899528349318895, 3.5793009708680463, 0
4086, -0.4673574069273334, 3.4703798433056225, 0
4087, 0.9617278847987998, -3.7068785877105745, 0
4088, 0.7900463893879358, -3.420878284351585, 0
4089, 0.9149300810363769, -3.556893819560259, 0
4090, 0.6569711618813772, -3.6515310579697737, 0
4091, 0.46641862013078444, -3.4786869594143517, 0
4092, 0.4428677698348201, -3.5466735721118257, 0
4093, 0.4190853024232217, -3.500362861331763, 0
4094, 0.5157623852740048, -3.5828250785798397, 0
4095, 3.563504515278181, 0.677014463688382, 0
4096, 3.516894604701621, 0.6350210628132504, 0
4097, 3.514858876380148, 0.5730103868696872, 0
4098, 3.4788273463682176, 0.533098479038604, 0
4099, 3.567370780943618, 0.6023252437293078, 0
4100, 3.479690619974973, 0.46505927873035496, 0
4101, 3.5649708909452205, 0.5500282292713309, 0
4102, 3.5481128687166303, 0.4434705983443993, 0
4103, 3.502478265052261, 0.4180598473625469, 0
4104, -3.4464304201757243, -0.847605258932353, 0
4105, -3.421979519173661, -0.7910608509965902, 0
4106, -3.4786519177315474, -0.7494040952742814, 0
4107, -3.5973834446925115, -0.7648503311371382, 0
4108, -3.539946299023395, -0.7423023885882003, 0
4109, -3.613811302216083, -0.6385733128532796, 0
4110, -3.5898304183986642, -0.6996606388523487, 0
4111, -3.6729814933805307, -0.6970523101663073, 0
4112, -3.573557014358907, -0.9829454891830963, 0
4113, -3.423165024904701, -0.9877174736297418, 0
4114, -3.71981453155429, 1.3703951445335618, 0
4115, -3.7545618273108965, 1.2946480081318206, 0
4116, -3.8729387768155714, 1.3091371523408724, 0
4117, -3.7043461492917196, 1.2796440403260094, 0
4118, -3.8202098007077114, 1.2491181904014301, 0
4119, -3.811466652576114, 1.3205500976247324, 0
4120, -3.8585994648654536, 1.4031593961076383, 0
4121, -3.6341901953171414, 1.3542114089015096, 0
4122, -3.7162697001636964, 1.4720023773216269, 0
4123, -3.9692870794992867, 1.1839090316517973, 0
4124, 3.6173081097468773, -0.7627473234459003, 0
4125, 3.789789682717164, -0.6530297517824324, 0
4126, 3.694017669063267, -0.685004230246392, 0
4127, 3.6479884631443165, -0.5846063841438554, 0
4128, 3.6842945293977203, -0.6287115957792873, 0
4129, 3.697071836736095, -0.5393971400031602, 0
4130, 3.6124165836443125, -0.49673686573387854, 0
4131, 0.6530297517824317, 3.789789682717164, 0
4132, 0.685004230246393, 3.6940176690632707, 0
4133, 0.5846063841438525, 3.6479884631443067, 0
4134, 0.6520406067200122, 3.633409826883511, 0
4135, 0.5393971400031597, 3.6970718367360917, 0
4136, 0.6278779531015198, 3.6848937743029375, 0
4137, 0.600004261111573, 3.5559625961018573, 0
4138, 0.49673686573387715, 3.612416583644318, 0
4139, 0.6457383878371143, 3.5814391762934217, 0
4140, 0.7685204661373073, 3.680875097787398, 0
4141, 0.7797374464825785, 3.609474762543659, 0
4142, 0.8061120247715803, 3.7310317999648412, 0
4143, 0.8734630097294026, 3.7210373816269624, 0
4144, 0.8457709716686507, 3.7663562518360365, 0
4145, 0.8868606285079025, 3.6612313277626702, 0
4146, 0.8471604969507064, 3.6066632810990558, 0
4147, 4.204347361098224, 1.1387567205113467, 0
4148, 4.035340372338335, 1.0905428347074635, 0
4149, 4.119353715992102, 1.011974662265606, 0
4150, 3.8576012111869287, 0.8946630271370769, 0
4151, 3.868505338337413, -0.9302878361312922, 0
4152, 3.7547010214707885, -0.8394221905611504, 0
4153, 3.7329598214719164, -0.7882677347239083, 0
4154, 3.701959980141682, -0.8481782580197179, 0
4155, 3.7731513976611617, -0.8897481828410251, 0
4156, 3.7607594493467666, -0.9490642003890103, 0
4157, 3.8176817179214018, -1.026929569776554, 0
4158, -4.900259869844927, -2.0542479418045696, 0
4159, -4.8484167253193, -2.148057436508508, 0
4160, -4.81679559939504, -2.231933450465051, 0
4161, -4.500399788557167, -2.518655813155058, 0
4162, -4.288142249511552, -2.254475772082823, 0
4163, -4.482183778610764, -2.4236296665635417, 0
4164, -4.2683069592181635, -2.027220786183276, 0
4165, -4.1827045861087955, -2.1272456559426454, 0
4166, -4.600640111972618, -2.6579343127657324, 0
4167, -4.762443078245396, -2.589343062698805, 0
4168, -4.787740413291219, -2.950421136846473, 0
4169, -4.075713248014501, -2.0044715325918396, 0
4170, -4.189962660221223, -1.9303175480059809, 0
4171, -4.450894439272474, -1.6886095611886665, 0
4172, -4.433118770402327, -1.617978471198112, 0
4173, -4.378228901016251, -1.5436268379113056, 0
4174, -4.285741601376068, -1.5635313357457532, 0
4175, -4.339475331624182, -1.494755634207323, 0
4176, -4.339347739573331, -1.4195851740924796, 0
4177, -4.165493514771707, -1.682888977271264, 0
4178, -3.9753306156433705, -1.7367883520099423, 0
4179, -4.021544882236417, -1.7880643224839414, 0
4180, -3.7873225662186845, -1.4933376014111088, 0
4181, -3.757697387593342, -1.4311858446085934, 0
4182, -3.8573113681403397, -1.389974276246509, 0
4183, -3.9104885187417913, -1.276227958285363, 0
4184, -3.866561452094539, -1.324995258702223, 0
4185, -3.8204895295299166, -1.2762005219031527, 0
4186, -3.9586570910731482, -1.36378298876059, 0
4187, -3.9152576307997293, -1.405022651864177, 0
4188, -3.9193521636821864, -1.3283791392485242, 0
4189, -3.989918795136581, -1.289556768073027, 0
4190, -4.03387797049163, -1.4918913553102737, 0
4191, -4.056265629292739, -1.3926083274647307, 0
4192, -4.062081186068299, -1.4460853442160377, 0
4193, -4.137209147598525, -1.4108605495143074, 0
4194, -4.073878157957846, -1.8574726598635865, 0
4195, -4.166688538776426, -1.8384891429640993, 0
4196, -4.1265734243867485, -1.9024159771718936, 0
4197, -2.9252020921566224, -4.959259449402295, 0
4198, -2.9502617070989308, -4.788014780072793, 0
4199, -2.801584644778173, -4.696753102741877, 0
4200, -2.676013025076529, -4.8229754487839696, 0
4201, -2.1241333758619922, -4.952586375052643, 0
4202, -2.0859314845383, -4.861355836877428, 0
4203, -1.9210560745830447, -4.789353921087964, 0
4204, -1.8830258342521553, -4.699380383214175, 0
4205, -1.8598182830106353, -4.232882201552683, 0
4206, -1.7379491065643267, -4.298911523842965, 0
4207, -1.7842683667747747, -4.238921604939297, 0
4208, -1.904119872853457, -4.159801710748152, 0
4209, -1.9564758774089208, -4.1791782870665815, 0
4210, -1.9150745001492953, -4.472000744140389, 0
4211, -1.7986356896087787, -4.484931337092068, 0
4212, -1.858540605080096, -4.493643906294828, 0
4213, -1.8476346904877177, -4.557578774170249, 0
4214, -2.0949987969911334, -4.557785412987482, 0
4215, -2.0249461910526483, -4.377843368265373, 0
4216, -2.1541648433826532, -4.379427873593841, 0
4217, -1.7210911367925177, -4.632291579792401, 0
4218, -1.8072561149671194, -4.090017966431267, 0
4219, -1.5928942830422015, -4.369905296353264, 0
4220, -1.6819456906124803, -4.483558237232467, 0
4221, -1.740783830692875, -4.442336273629985, 0
4222, -1.7399191509016527, -4.515819264152742, 0
4223, -1.7254483055742458, -4.3708989848195525, 0
4224, -1.8260958269601288, -4.387051250559146, 0
4225, -1.8676837535492676, -4.4325650220899835, 0
4226, -1.6592953703213773, -4.353850902244385, 0
4227, -1.7726995986636513, -4.3981201871068425, 0
4228, -1.6152628936109035, -4.317077147711102, 0
4229, -1.6614427563878726, -4.205585469496682, 0
4230, -1.6247113526868255, -4.2556810095900195, 0
4231, -1.5407194110936793, -4.1555818494153645, 0
4232, -1.686882531790401, -4.2627525991969435, 0
4233, -1.5949629320563485, -4.195354664778443, 0
4234, -1.725866316342879, -4.211160535992642, 0
4235, -1.6334715077719835, -4.085959368053254, 0
4236, -1.7001378108663368, -4.133454501984164, 0
4237, -1.6362159507702474, -4.14840085749658, 0
4238, -1.528731319016544, -4.323172671295126, 0
4239, -1.4689380962961187, -4.33751404633899, 0
4240, -1.4233455732651867, -4.290386060930606, 0
4241, -1.3542573232788808, -4.281396029967256, 0
4242, -1.7908903767892643, -3.961591587582359, 0
4243, -1.665355275854446, -3.9760406883321084, 0
4244, -1.5625227117395704, -3.900387458104216, 0
4245, -1.5429037194170534, -3.77648466939273, 0
4246, -1.2815601156289353, -4.2100895637928595, 0
4247, -4.870851169842396, 3.105932891293916, 0
4248, -4.960370081869149, 3.1605534280503793, 0
4249, -5.129613571118091, 2.9847106061153013, 0
4250, -4.865068484240784, 2.7695841227264193, 0
4251, -4.697011881795827, 2.801419212465928, 0
4252, -4.76195300557607, 2.7132247385145245, 0
4253, -4.60087231946548, 2.657771320326325, 0
4254, -4.711730259470979, 2.626872811301145, 0
4255, -4.766653922975481, 2.538302352825951, 0
4256, -4.6752250935918145, 2.5689474165374477, 0
4257, -4.754902479529944, 2.592329792906057, 0
4258, -4.836925827980866, 2.5818788514777786, 0
4259, -4.600831106095408, 2.5408906515639424, 0
4260, -4.7134738617600425, 2.5313513032438704, 0
4261, -4.754332485984778, 2.425662784094363, 0
4262, -4.512583670729805, 2.5092797086553404, 0
4263, -4.487777026273015, 2.4191247647914356, 0
4264, -4.339238606388534, 2.320763229480822, 0
4265, -4.694037563623337, 1.9518349494642633, 0
4266, -4.728331411039651, 2.007848902010348, 0
4267, -4.671450163085302, 2.1463490165076244, 0
4268, -4.7362971669879235, 2.0920508625926137, 0
4269, -4.230538053094885, 2.194509582156149, 0
4270, -4.317704608327108, 2.229516913050965, 0
4271, -4.3266582247567795, 2.0961602010716134, 0
4272, -4.126624120847183, 2.06757075968317, 0
4273, -4.241217363557626, 1.9920219452422019, 0
4274, -3.9434598899335747, 1.621069433331414, 0
4275, -3.9298452697068367, 1.6788742952804854, 0
4276, -3.975883298208917, 1.7235237151940666, 0
4277, -3.873966279342621, 1.6026980582048997, 0
4278, -3.8471279105400327, 1.5507848753615112, 0
4279, -3.7737423161835078, 1.5317866175491142, 0
4280, -4.109411365133961, 1.9781850281158846, 0
4281, -4.125114670207169, 1.8423591546877316, 0
4282, -4.322827304257735, 1.5260722904720545, 0
4283, -4.4182719084930495, 1.6627593115484272, 0
4284, -4.43210081664561, 1.6016820444399134, 0
4285, -4.238242906098619, 1.651291609068017, 0
4286, -4.491931997889668, 1.6813879778575564, 0
4287, -4.394743040404129, 1.83016150482199, 0
4288, -4.523197575071195, 1.7445967694017315, 0
4289, -4.63546687060292, 1.7186543060916164, 0
4290, -4.58172537861588, 1.8081377421175375, 0
4291, -4.54984920346109, 1.8926262377202998, 0
4292, -1.989199235583507, 4.842288814007352, 0
4293, -2.086442875802152, 4.860727902597623, 0
4294, -1.9507740360217058, 4.7520132854284265, 0
4295, -2.192247606572802, 5.007242135902366, 0
4296, -2.5196938925063197, 4.499050844920501, 0
4297, -2.485433213604654, 4.60703607002863, 0
4298, -2.431055321312732, 4.569715132890324, 0
4299, -2.371323719154079, 4.5642291187557, 0
4300, -2.2905702563098855, 4.516689921407433, 0
4301, -2.657960422545906, 4.600602914623987, 0
4302, -2.5648759458780424, 4.665432768717241, 0
4303, -2.542733482252987, 4.75789083035158, 0
4304, -2.6166870304883165, 4.70674105797548, 0
4305, -2.5359452704983396, 4.707384702734417, 0
4306, -2.6386175638365272, 4.763580269900001, 0
4307, -2.718357598051483, 4.75796870949596, 0
4308, -2.769751137650176, 4.80260385604531, 0
4309, -2.7560801492796543, 4.970853129811449, 0
4310, -2.746891899680367, 4.885426493757582, 0
4311, -2.8218888053292477, 4.874711276585721, 0
4312, -1.7220665108798485, 4.631020627167266, 0
4313, -1.8152916768280676, 4.647966965344078, 0
4314, -1.6819409563585916, 4.546114525236808, 0
4315, -1.987942467149995, 4.1794643168754035, 0
4316, -1.9023864359855873, 4.195613213545147, 0
4317, -2.039026196996808, 4.2207644744374795, 0
4318, -2.0981642405343126, 4.267807335200214, 0
4319, -2.1754885399489874, 4.331989669628154, 0
4320, -2.3240542957183545, 4.335394463004734, 0
4321, -2.232089601088279, 4.383450456490091, 0
4322, -2.2902888258275325, 4.433276252374059, 0
4323, -1.6174514040317822, 4.17573191092743, 0
4324, -1.5501741876311295, 3.8349531422553245, 0
4325, -1.6216504608011475, 3.948421466351147, 0
4326, -1.6559672656513285, 4.016552019512044, 0
4327, -1.4572752022447815, 4.436547949758796, 0
4328, -1.5485073581958917, 4.449357430587196, 0
4329, -1.5221741422328345, 4.3200270734388155, 0
4330, -1.4164731318671642, 4.244096860257368, 0
4331, -1.287328950099656, 4.263968731710575, 0
4332, -1.5963683019300063, 4.522311060868832, 0
4333, 1.9414880883634613, -4.025657150644045, 0
4334, 1.8687289377311451, -4.139562860854773, 0
4335, 2.0679519798905286, -4.126152593588346, 0
4336, 1.9724939405335302, -4.222207485448688, 0
4337, 2.1036362491876157, -4.211480541853262, 0
4338, 1.3650210876606546, -4.246456706104771, 0
4339, 1.2720132879848223, -4.2020830186963325, 0
4340, 1.3298807689100076, -4.186972657669088, 0
4341, 1.3130608898657052, -4.013206586877743, 0
4342, 1.2285233104789421, -4.1588658610271, 0
4343, 1.5916282420872074, -3.941502257830519, 0
4344, 1.7265513511763015, -4.023564331587134, 0
4345, 1.8531887128406628, -4.010006771980106, 0
4346, 2.3214735368979773, -4.338408928903778, 0
4347, 2.2290124824226716, -4.318302077915447, 0
4348, 1.8271914856640705, -4.509686807581891, 0
4349, 2.4481918331722525, -4.4516876017985085, 0
4350, 2.3564753268707275, -4.428070347722152, 0
4351, 2.327078025977551, -4.506742418321452, 0
4352, 2.6305501411323555, -4.639653024854747, 0
4353, 2.950421136846473, -4.78774041329122, 0
4354, 3.891593622517754, -1.3237746175390237, 0
4355, 3.927983516180806, -1.6043445294945602, 0
4356, 3.9855064155216526, -1.676994240491753, 0
4357, 3.944874808295372, -1.523513030889064, 0
4358, 3.9725723962019304, -1.6281374743992822, 0
4359, 3.893149213759427, -1.5359587045255145, 0
4360, 4.436547949758795, -1.457275202244782, 0
4361, 4.3200270734388155, -1.522174142232835, 0
4362, 3.786502382367445, -1.4831445554770155, 0
4363, 3.7541060904011188, -1.426844942000991, 0
4364, 3.7548979232103363, -1.2891995999901291, 0
4365, 3.6311047700771937, -1.3521207739529921, 0
4366, 5.509435996256498, -4.236500412086096, 0
4367, 4.527003746246589, -1.5928578771231299, 0
4368, 4.133356929513511, -1.7384842279599158, 0
4369, 4.198441610406984, -1.625944305803117, 0
4370, 4.180886794054183, -1.6908819308032845, 0
4371, 4.238684002340044, -1.7104901298579895, 0
4372, 4.287473966726465, -1.6354166631670193, 0
4373, 4.122185813656381, -1.6401714484053562, 0
4374, 4.06065960135906, -1.7811222215483857, 0
4375, 4.078997534633794, -1.8329100287989843, 0
4376, 4.348662259076594, -1.7565138851184856, 0
4377, 4.379679721513515, -1.8156297642847705, 0
4378, 4.472481907084024, -1.8323550548731395, 0
4379, 4.953870936691312, -2.12311269181746, 0
4380, 4.861433318287596, -2.085868383482116, 0
4381, 4.787970073729157, -1.9221574249408975, 0
4382, 4.6861094621062005, -1.7856551880758762, 0
4383, 4.5718911438171865, -1.8418588879894626, 0
4384, 4.590846191524364, -1.969688528299297, 0
4385, 4.729705954910853, -2.009261337972226, 0
4386, 4.694263612841074, -2.0579565771883597, 0
4387, 4.602402518160849, -2.0608662573178242, 0
4388, 4.75066360311017, -2.70588297672561, 0
4389, 4.7205337553215285, -2.6434744094031815, 0
4390, 4.803148903344657, -2.491930276303054, 0
4391, 4.776185400251985, -2.575522094881628, 0
4392, 4.78774041329122, -2.9504211368464737, 0
4393, 1.5424092730410142, 3.885913764470965, 0
4394, 1.4698720058001005, 3.872717689008876, 0
4395, 1.4823949213122463, 4.009843132800788, 0
4396, 1.4951844530419072, 3.939540588409784, 0
4397, 1.5483436791482779, 3.9855260014822855, 0
4398, 1.3857889231402563, 3.955953825570571, 0
4399, 1.60254014419241, 3.9915976798856962, 0
4400, 1.5662987786090743, 4.070174445704473, 0
4401, 1.418208243332081, 3.9046156279234805, 0
4402, 1.443287376864817, 3.9664140202148324, 0
4403, 1.399212843505228, 4.045425321491689, 0
4404, 1.528728511798506, 4.033915132213334, 0
4405, 1.486290156393626, 4.1154818093601255, 0
4406, 1.2225636831074924, 4.219851478186952, 0
4407, 1.3503959474926817, 4.199303669705423, 0
4408, 1.4556167386915688, 4.273827840178401, 0
4409, 1.4219584418258995, 3.7427914676958056, 0
4410, 1.3658591851137887, 3.711126888728506, 0
4411, 1.2293122878770142, 3.7130373793420093, 0
4412, 1.2906527265120817, 3.589689483281012, 0
4413, 4.210892461293018, 1.349207834728648, 0
4414, 4.164252835741286, 1.3091780251704488, 0
4415, 4.068866527025341, 1.3137372616411438, 0
4416, 4.292880862055468, 1.2666028251016543, 0
4417, 3.976040688332109, 1.6653552758544459, 0
4418, 3.7091539121961103, 1.370564942411414, 0
4419, 3.887377929141339, 1.5909595494237965, 0
4420, 3.85292583981137, 1.548489265814824, 0
4421, 3.896193599693058, 1.2595726966687275, 0
4422, 3.9729690662176016, 1.4202040904621274, 0
4423, 4.074041707055955, 1.443247467507741, 0
4424, 1.4571503783398407, 4.43671933049575, 0
4425, 1.5485849315450757, 4.335584209915598, 0
4426, 1.5885084208075921, 4.532818036874074, 0
4427, 1.6561654067430605, 4.4150051717837915, 0
4428, 1.6779888543168746, 4.084878465460584, 0
4429, 1.6143020790503892, 4.137091408555905, 0
4430, 1.7197974145948758, 4.012368308486803, 0
4431, 1.7704931004406985, 4.0324269988750565, 0
4432, 1.6920837608219106, 4.3027729298515744, 0
4433, 1.753926323159071, 4.34015782170877, 0
4434, 1.7946010558561905, 4.410253192243043, 0
4435, 1.6961253580688624, 4.365930089891857, 0
4436, 1.7125862130605465, 4.420139997405354, 0
4437, 1.9755643744059754, 4.226217300468784, 0
4438, 1.919535720615029, 4.79126424672421, 0
4439, 1.9747113115639023, 4.666876365358648, 0
4440, 2.014910562358207, 4.733759805257506, 0
4441, 1.6800420814890205, 4.487593754283106, 0
4442, 1.7305978581073809, 4.525904527845313, 0
4443, 1.8256609153514325, 4.512615155644184, 0
4444, 2.2582680800069896, 4.283650474969688, 0
4445, 2.292659532555184, 4.372065244565835, 0
4446, 2.1587831573163285, 4.375547155932355, 0
4447, 2.0546363531358596, 4.899782941890107, 0
4448, 2.089539130054105, 4.793848641488423, 0
4449, 2.2208715235135967, 4.744559855702098, 0
4450, 2.1785113629993322, 4.831304328144836, 0
4451, 2.14916038564577, 4.753097205678286, 0
4452, 2.1271149941318126, 4.828991097407496, 0
4453, 2.1676131542650374, 4.602650311906773, 0
4454, 2.1768380789650927, 4.680136867902616, 0
4455, 2.1532768638017803, 4.915908416947015, 0
4456, 2.730739436118175, 4.6469112382222875, 0
4457, 2.6309128253087017, 4.765848423810025, 0
4458, 2.4527116126476622, 4.446075882106581, 0
4459, 2.42645215366238, 4.54128759770234, 0
4460, 2.359679815862023, 4.499667107009055, 0
4461, 2.8467239270547378, 4.9128320964791135, 0
4462, 2.875172020319171, 4.743182687987689, 0
4463, 4.52679271043144, 1.7346688573254538, 0
4464, 4.505897775306067, 1.8225277338994876, 0
4465, 4.485021444733689, 1.6795465358131327, 0
4466, 4.380988397107274, 1.6100876371175088, 0
4467, 4.443164483581471, 1.6145178361824462, 0
4468, 4.345929041778988, 1.7613266511361494, 0
4469, 4.328160532059338, 1.481463559118483, 0
4470, 4.190574897420531, 1.5323498818752963, 0
4471, 4.295972006515791, 1.4322094543459207, 0
4472, 4.254711992962681, 1.4943186535916366, 0
4473, 4.200838970175894, 1.4314152808673035, 0
4474, 4.3843774904690695, 1.5351639962304422, 0
4475, 4.684783529186912, 1.7866854299159334, 0
4476, 3.961591587582359, 1.790890376789264, 0
4477, 4.090017966431268, 1.807256114967114, 0
4478, 4.075242169596219, 2.00484672748397, 0
4479, 4.171264407808092, 1.910834550961022, 0
4480, 4.160380479814289, 2.040777624990844, 0
4481, 4.789107279610502, 1.9212523669542636, 0
4482, 4.806349194177639, 2.018136812664566, 0
4483, 4.390905367974991, 2.387796860818682, 0
4484, 4.440619688519773, 2.2937254135839855, 0
4485, 4.530315618172667, 2.2680221875783872, 0
4486, 4.332201582344787, 2.1748647718942262, 0
4487, 4.267807335200214, 2.0981642405343126, 0
4488, 5.007242135902366, 2.192247606572802, 0
4489, 4.898438719962986, 2.0557310908692754, 0
4490, 4.499050844920501, 2.5196938925063197, 0
4491, 4.60703607002863, 2.485433213604654, 0
4492, 4.569715132890324, 2.431055321312732, 0
4493, 4.5642291187557, 2.371323719154079, 0
4494, 4.5088512045421725, 2.332286475597655, 0
4495, 4.600602914623987, 2.657960422545906, 0
4496, 4.665432768717241, 2.5648759458780424, 0
4497, 4.75789083035158, 2.542733482252987, 0
4498, 4.70674105797548, 2.6166870304883165, 0
4499, 4.707384702734417, 2.5359452704983396, 0
4500, 4.763580269900001, 2.6386175638365272, 0
4501, 4.827174899424947, 2.711067774200837, 0
4502, 4.697207257549582, 2.8012943126248975, 0
4503, 4.787931291402897, 2.9503102209076637, 0
4504, 5.385986725800491, 4.240304316260041, 0
4505, 5.492689193849516, 4.282124707134505, 0
4506, 5.534531707599279, 4.218976443094743, 0
4507, -3.153622771823706, -0.012540153812731734, 0
4508, -3.0887382277741446, -0.012279604351274384, 0
4509, -3.106157386064128, 0.08090194847937796, 0
4510, -3.120961993806963, -0.06682435217782565, 0
4511, -3.1213501695279326, 0.029842916007577908, 0
4512, -3.2050455248265974, 0.08253659257953366, 0
4513, -3.272358894521042, -0.12094673675253734, 0
4514, -3.1888214829229615, -0.1158135220670012, 0
4515, -3.1564521081481947, -0.17135547285125327, 0
4516, -3.2376288272075127, -0.19954940991998668, 0
4517, -3.2243192104156435, -0.25887002212364413, 0
4518, -0.012540153812731089, 3.153622771823707, 0
4519, -0.012279604351274162, 3.0887382277741455, 0
4520, 0.08090194847937834, 3.1061573860641274, 0
4521, -0.06682435217782556, 3.1209619938069637, 0
4522, 0.029842916007578484, 3.1213501695279335, 0
4523, 0.08253659257953533, 3.205045524826593, 0
4524, -0.12094673675253695, 3.272358894521044, 0
4525, -0.11581352206700078, 3.1888214829229633, 0
4526, -0.1713554728512518, 3.1564521081481933, 0
4527, -0.1995494099199839, 3.237628827207511, 0
4528, -0.25887002212364263, 3.2243192104156506, 0
4529, 0.012540153812730694, -3.1536227718237066, 0
4530, 0.01227960435127378, -3.088738227774145, 0
4531, -0.08090194847937814, -3.106157386064127, 0
4532, 0.06682435217782506, -3.1209619938069633, 0
4533, -0.029842916007578546, -3.121350169527933, 0
4534, -0.08253659257953493, -3.205045524826591, 0
4535, 0.12094673675253631, -3.272358894521043, 0
4536, 0.11581352206699969, -3.188821482922963, 0
4537, 0.17135547285125113, -3.1564521081481938, 0
4538, 0.19954940991998388, -3.2376288272075113, 0
4539, 0.2588700221236419, -3.224319210415654, 0
4540, 3.153622771823707, 0.012540153812730888, 0
4541, 3.0887382277741455, 0.012279604351273975, 0
4542, 3.1061573860641274, -0.08090194847937865, 0
4543, 3.1209619938069637, 0.06682435217782545, 0
4544, 3.1213501695279335, -0.029842916007578733, 0
4545, 3.2050455248265934, -0.08253659257953566, 0
4546, 3.2723588945210444, 0.12094673675253681, 0
4547, 3.1888214829229637, 0.11581352206700075, 0
4548, 3.1564521081481938, 0.17135547285125166, 0
4549, 3.2376288272075118, 0.19954940991998432, 0
4550, 3.2243192104156506, 0.25887002212364274, 0
4551, 4.580677120090288, -5.595597572858975, 0
4552, -5.575647005964354, 4.578418789176559, 0
4553, -0.1298603979911539, -3.452185165164138, 0
4554, -0.15448878473484712, -3.50234167886745, 0
4555, -0.18301454152522173, -3.3288810218907288, 0
4556, -0.45868195602731154, -3.4823902357178587, 0
4557, -0.5112209682902835, -3.3658412946700103, 0
4558, -0.4881182808007807, -3.542943253078465, 0
4559, -0.5025823683863966, -3.432063588573289, 0
4560, -0.45359951501950424, -3.58394333357176, 0
4561, -0.4471916823944535, -3.650384532025614, 0
4562, -0.45205166494932514, -3.391797340128237, 0
4563, -0.5711722171999417, -3.407336439283064, 0
4564, -0.49974436124307875, -3.663089193101891, 0
4565, -0.37395403866932686, -3.3499916788168043, 0
4566, -0.5831733328320942, -3.3259418197897443, 0
4567, -0.6098424016311791, -3.4765215183333122, 0
4568, -0.6218096860927982, -3.291360311890233, 0
4569, -0.3742980769885226, -3.5607044749955565, 0
4570, 3.452185165164136, -0.12986039799114768, 0
4571, 3.502341678867449, -0.1544887847348455, 0
4572, 3.328881021890728, -0.18301454152522395, 0
4573, 3.4823902357178653, -0.45868195602731493, 0
4574, 3.3658412946700094, -0.5112209682902923, 0
4575, 3.5444131564969314, -0.48792653408255643, 0
4576, 3.4320635885732926, -0.502582368386403, 0
4577, 3.5668184854979037, -0.5677444066876913, 0
4578, 3.5835651923914495, -0.4525784213040707, 0
4579, 3.3917973401282366, -0.4520516649493285, 0
4580, 3.4073364392830667, -0.571172217199946, 0
4581, 3.349991678816812, -0.3739540386693282, 0
4582, 3.3259418197897457, -0.5831733328321071, 0
4583, 3.4765215183333167, -0.6098424016311873, 0
4584, 3.29136031189023, -0.6218096860928032, 0
4585, 3.560704474995558, -0.37429807698851864, 0
4586, 3.6579096832120257, -0.4331186117147417, 0
4587, -3.4521851651641384, 0.12986039799115057, 0
4588, -3.50234167886745, 0.15448878473484623, 0
4589, -3.328881021890723, 0.18301454152521524, 0
4590, -3.482390235717859, 0.4586819560273111, 0
4591, -3.365841294670011, 0.511220968290283, 0
4592, -3.56722399321257, 0.48495089430560473, 0
4593, -3.43206358857329, 0.502582368386396, 0
4594, -3.5338082712738843, 0.44274779872297776, 0
4595, -3.3917973401282384, 0.4520516649493249, 0
4596, -3.407336439283065, 0.571172217199941, 0
4597, -3.349991678816804, 0.3739540386693268, 0
4598, -3.3259418197897452, 0.5831733328320937, 0
4599, -3.4765215183333127, 0.6098424016311783, 0
4600, -3.2913603118902333, 0.6218096860927981, 0
4601, -3.560704474995557, 0.37429807698852235, 0
4602, -3.657909683212028, 0.43311861171474, 0
4603, 0.12986039799115068, 3.4521851651641384, 0
4604, 0.15448878473484623, 3.50234167886745, 0
4605, 0.18301454152521524, 3.328881021890723, 0
4606, 0.4586819560273111, 3.482390235717859, 0
4607, 0.511220968290283, 3.365841294670011, 0
4608, 0.48792653408255204, 3.544413156496932, 0
4609, 0.502582368386396, 3.43206358857329, 0
4610, 0.5442877255177808, 3.547059951313606, 0
4611, 0.4525784213040749, 3.583565192391453, 0
4612, 0.4520516649493249, 3.3917973401282384, 0
4613, 0.571172217199941, 3.407336439283065, 0
4614, 0.3739540386693268, 3.349991678816804, 0
4615, 0.5831733328320937, 3.3259418197897452, 0
4616, 0.6098424016311783, 3.4765215183333127, 0
4617, 0.6218096860927981, 3.2913603118902333, 0
4618, 0.37429807698852235, 3.560704474995557, 0
4619, 0.43311861171474, 3.657909683212028, 0
4620, 5.522127468015587, -4.5996977141684185, 0
4621, 5.492192287967077, -4.3615721886003715, 0
4622, 5.60579724814357, -4.473718309623543, 0
4623, 5.712478958134605, -4.489402029988548, 0
4624, 5.682257476724718, -4.379039193975901, 0
4625, 5.619299896519062, -4.337698720463524, 0
4626, -5.716315387354909, 4.410640977674669, 0
4627, -4.652842147904715, 5.6990678120081055, 0
4628, -4.25480541904725, 5.642212019269692, 0
4629, -4.352869241178102, 5.685711507544749, 0
4630, -4.643436219683328, 5.573617433795492, 0
4631, -4.71794922446051, 5.501635596778949, 0
4632, -4.664164746784348, 5.466958213256722, 0
4633, -1.4537342553973938, 3.888891197438598, 0
4634, -1.5084205310757008, 3.91232105556659, 0
4635, -1.5393094613887723, 4.01106167474822, 0
4636, -1.551668588678837, 3.952993594810671, 0
4637, 1.1753662173961534, -4.209413521324632, 0
4638, -3.93316253149455, -1.1629328712018483, 0
4639, -3.9473328463130772, -1.224685255041188, 0
4640, -3.858983198884368, -1.1821660451324365, 0
4641, -3.8929091304962866, -1.2247215774036255, 0
4642, -3.7262967078599187, -1.204672185383108, 0
4643, -3.737138144796979, -1.143340381645837, 0
4644, -3.6806319915226555, -1.0648970217801974, 0
4645, -3.8017682628106773, -1.151117826335676, 0
4646, -3.831745007096782, -1.1003051829873063, 0
4647, -3.7256290663715057, -1.334591115308509, 0
4648, -1.4321989387660234, -3.7509418925315363, 0
4649, -1.1462073764554903, -4.104378231318137, 0
4650, -1.1951308415212405, -3.8686469019433622, 0
4651, -1.2296242069950751, -4.071404229546622, 0
4652, -5.241215590273232, 4.044517303131464, 0
4653, 1.1828095667863454, -3.957641302629529, 0
4654, 1.3777693620870815, -3.7643264238932557, 0
4655, 1.4780411826909092, -3.792397160500906, 0
4656, 3.9084678885296142, -1.0420121865143632, 0
4657, 3.857324790825096, -1.0690816897743551, 0
4658, 3.7662661528636656, -1.1150024405821133, 0
4659, 3.7052817422576108, -1.0749723397030544, 0
4660, 3.7627427970165277, -1.0539013235908194, 0
4661, 3.958051197200913, -1.1416091122427285, 0
4662, 3.8864627767532354, -1.2026860063240281, 0
4663, 4.036059574445919, -1.0993266319530688, 0
4664, 4.067859264884163, -1.147675070811114, 0
4665, 4.1516898325240925, -1.215006139173177, 0
4666, 4.21450002195121, -1.4007887745136278, 0
4667, 1.141609112242729, 3.958051197200911, 0
4668, 1.186866372712136, 3.895066996382214, 0
4669, 1.0993266319530715, 4.036059574445916, 0
4670, 1.1476750708111134, 4.067859264884163, 0
4671, 1.2150061391731768, 4.1516898325240925, 0
4672, -4.035155415369787, -1.1522945926902886, 0
4673, -1.3565427307392173, -3.6930256015328946, 0
4674, -1.361422472491346, -3.7593924475075813, 0
4675, -1.3186670551737965, -3.8754962087623883, 0
4676, -1.2859797164954212, -3.7975347779515087, 0
4677, -1.3562534770044092, -3.8234132156917062, 0
4678, -1.4104968573221208, -3.9021625918112477, 0
4679, -1.4023061239455852, -3.8497480659886643, 0
4680, -0.6609986417276879, -3.667401985037374, 0
4681, -0.5988643179552247, -3.711104047612868, 0
4682, -4.223025031809589, 1.2198434103234217, 0
4683, -4.212992152397966, 1.3996610501707993, 0
4684, -1.402693668804015, 3.9640751726848555, 0
4685, -1.2803458598148905, 4.195818348533612, 0
4686, -1.3064249554181158, 4.148563315696281, 0
4687, -1.2120519210230654, 4.109466595832507, 0
4688, 1.053591333589543, 3.7911933117544776, 0
4689, 1.3027164938558558, 3.7967412704617756, 0
4690, 5.5610294829086175, 4.345172637744949, 0
4691, 3.533674341498568, 0.8646622165728679, 0
4692, 3.579830894443533, 0.9759686124234661, 0
4693, 3.5197653929351005, 0.9659895870564208, 0
4694, 3.7896133234125338, 0.8659340621235022, 0
4695, 3.6628844087556804, 1.1321678873916459, 0
4696, 3.626905092894187, 1.0862856373387444, 0
4697, -3.657472341416726, -0.7558055985984702, 0
4698, -3.636261350297984, -0.819013249119727, 0
4699, -3.621132986350938, -0.9042038607702781, 0
4700, -3.5600804973399303, -0.8326608778563636, 0
4701, -3.693817309668102, -0.6167959485144882, 0
4702, -3.523372246014443, -1.0146198303992524, 0
4703, -3.879890493189145, 1.2498580990477424, 0
4704, -3.9729841822356358, 1.2908224371647359, 0
4705, -3.8227903808783563, 1.190236558873058, 0
4706, -3.804673210006145, 1.4043811493782525, 0
4707, -3.9678082857165484, 1.4596832822416883, 0
4708, -3.932076891139548, 1.1277422331415947, 0
4709, -4.023758558317661, 1.1997872069165438, 0
4710, 3.6676344188793375, -0.4924876108539144, 0
4711, 0.4924876108539134, 3.66763441887934, 0
4712, -4.444321601760887, -2.4541245414352475, 0
4713, -4.4364070741477075, -2.4014628080968103, 0
4714, -4.501151652607788, -2.3644179665481744, 0
4715, -4.521700056022165, -2.2526633400751384, 0
4716, -4.527319905120606, -2.311463103845921, 0
4717, -4.4674420182170325, -2.2875175523220808, 0
4718, -4.627868553493829, -2.272184617938943, 0
4719, -4.583180523765678, -2.3061241666257875, 0
4720, -4.665183678274921, -2.3677072755460293, 0
4721, -4.547823468547763, -2.422365295614405, 0
4722, -4.61046934082925, -2.403551473201586, 0
4723, -4.6658195954880926, -2.428359390672858, 0
4724, -4.76646355038496, -2.3969747810946083, 0
4725, -4.633167800014953, -2.4841142610612983, 0
4726, -4.711428055513728, -2.397551809916288, 0
4727, -4.737985276941939, -2.3056508453676408, 0
4728, -4.585939601684613, -2.4595367511421387, 0
4729, -4.2325669574505165, -1.9830143544698142, 0
4730, -4.40394259023, -1.9998648318962438, 0
4731, -4.280370111039456, -2.0826853722962038, 0
4732, -4.341529333158892, -2.040339559975746, 0
4733, -4.709377447285967, -2.631382563580331, 0
4734, -4.693226998310233, -2.5564845721461817, 0
4735, -4.784384056875169, -2.6715503252526758, 0
4736, -4.164217911316792, -1.9736027169608035, 0
4737, -4.494323883691835, -1.6645056880416993, 0
4738, -4.494844031784767, -1.7443807408862404, 0
4739, -4.352674046497714, -1.7056830961343141, 0
4740, -4.393141787031187, -1.6620558506136909, 0
4741, -4.384910053922661, -1.3955395295316668, 0
4742, -4.105149493529451, -1.72697903324397, 0
4743, -4.111157932280652, -1.6155430552138854, 0
4744, -4.006827464818546, -1.2380581229681553, 0
4745, -4.017324903832486, -1.3447956662798284, 0
4746, -4.102055825427795, -1.315550939324489, 0
4747, -4.132510289103678, -1.2711865084689877, 0
4748, -4.181745131658076, -1.3376194415369071, 0
4749, -4.191804652070952, -1.4853259045236908, 0
4750, -4.24657915152839, -1.8671043250103798, 0
4751, -2.7100699762625506, -4.763312636531729, 0
4752, -2.7647033151080103, -4.8113433873727125, 0
4753, -2.6250980854728097, -4.754360326513464, 0
4754, -2.72683247229055, -4.866523646774836, 0
4755, -2.7275113861454683, -5.049890215300202, 0
4756, -2.7441890204764037, -4.958143925337414, 0
4757, -2.625678924751531, -4.93314032948082, 0
4758, -2.6666805399887124, -4.885292668329088, 0
4759, -2.6855086649029847, -4.942918245669291, 0
4760, -2.641908084355997, -5.021770289798927, 0
4761, -2.579658901441742, -4.852213472020655, 0
4762, -2.05423435820199, -4.900276549069439, 0
4763, -2.189572373350497, -4.791079902021232, 0
4764, -1.852477922943546, -4.738222242989436, 0
4765, -1.9871735473674312, -4.62781397976491, 0
4766, -1.8072572921357652, -4.30454866705172, 0
4767, -2.0442716831810595, -4.503937537750083, 0
4768, -2.1124687709439316, -4.453377702772216, 0
4769, -2.0269657594276005, -4.571058040080717, 0
4770, -2.097565919365506, -4.504549522662147, 0
4771, -2.183421226478669, -4.5017973014360235, 0
4772, -2.073836919430628, -4.6303122456399635, 0
4773, -1.961205983792726, -4.56728048792941, 0
4774, -1.9115708939114633, -4.624409380432886, 0
4775, -2.2086926439648082, -4.387515628293786, 0
4776, -2.208406706829537, -4.4473874034798015, 0
4777, -2.267406144695205, -4.4796251187432095, 0
4778, -2.3210379835372943, -4.5220153800541665, 0
4779, -2.3522899380437825, -4.595815949215248, 0
4780, -1.8495045092387639, -4.064047932806576, 0
4781, -1.8518840331468376, -4.1250238969936035, 0
4782, -1.7944505343594421, -4.033434479319411, 0
4783, -1.5490268731062282, -4.396975780126923, 0
4784, -1.6088594935530898, -4.430288021676027, 0
4785, -1.7896795968460786, -4.547267760246496, 0
4786, -1.521353512818551, -4.226795242718714, 0
4787, -1.4634853755665158, -4.2346522135406515, 0
4788, -1.4358846852002616, -4.130437162113507, 0
4789, -1.4350238333830723, -4.18642761215771, 0
4790, -1.4905487856896902, -4.180178254553026, 0
4791, -1.692441238367706, -4.073722281272098, 0
4792, -1.6530394531954502, -4.032051828491387, 0
4793, -1.7477065082811856, -4.096963247983468, 0
4794, -1.3661156926006133, -4.336385941185841, 0
4795, -1.7346194030821847, -3.974822524982656, 0
4796, -1.621069433331414, -3.943459889933574, 0
4797, -1.6788742952804856, -3.9298452697068362, 0
4798, -1.6026980582049, -3.8739662793426204, 0
4799, -1.5473339395804584, -3.8453438263800344, 0
4800, -1.4868092015682968, -3.791631344227057, 0
4801, -4.916594401485766, 3.133843416665241, 0
4802, -5.013309059792219, 3.013745302148599, 0
4803, -4.859392756020162, 2.6604900649308245, 0
4804, -4.615064329399486, 2.4865139869762785, 0
4805, -4.664274350846037, 2.4093445150407873, 0
4806, -4.560114222712136, 2.5810913370511313, 0
4807, -4.856755410456465, 2.471452621312101, 0
4808, -4.447987199440283, 2.451172203459372, 0
4809, -4.664053394334474, 2.0716435299221456, 0
4810, -4.751907441296289, 2.176565545044633, 0
4811, -4.378062704075944, 2.2271937989326367, 0
4812, -4.466880042582547, 2.214980814324528, 0
4813, -4.32937752791081, 2.1695289575648857, 0
4814, -4.2898555243050085, 2.051303805887038, 0
4815, -4.2787294444530435, 2.1130064905863053, 0
4816, -4.215585192117711, 2.035825564540337, 0
4817, -3.956327856145779, 1.7944186390091845, 0
4818, -3.7815924650485733, 1.5801447626013057, 0
4819, -4.169398291352897, 1.9768452572139932, 0
4820, -4.1221914900618275, 1.9181237283472672, 0
4821, -4.076088554836682, 1.8628748432505764, 0
4822, -4.3499246664011055, 1.4827551261089391, 0
4823, -4.380449622566153, 1.5529536260013668, 0
4824, -4.316303313411292, 1.6562639941540607, 0
4825, -4.409608289530486, 1.7641458760990913, 0
4826, -4.455455591488982, 1.8091511431319862, 0
4827, -4.454680440896397, 1.905135364564812, 0
4828, -4.488819488349238, 1.85741582441523, 0
4829, -2.0545756666169748, 4.899857458504338, 0
4830, -2.0869812789623787, 4.7952647595604985, 0
4831, -2.167127146112821, 4.752991986439317, 0
4832, -1.9197073420623774, 4.791048604276796, 0
4833, -2.0143639517788037, 4.736795317959509, 0
4834, -2.0383403897983916, 4.648682095672488, 0
4835, -2.668126798250595, 4.878268587543944, 0
4836, -2.79065656332802, 4.923926738386107, 0
4837, -2.8397852863512645, 4.9963274126345985, 0
4838, -1.7853561523081238, 4.686494324526934, 0
4839, -1.818266649764114, 4.58262492050167, 0
4840, -1.8963654620418529, 4.538260926388724, 0
4841, -1.6528116563408262, 4.584554218508888, 0
4842, -1.7439958839361338, 4.525626902635235, 0
4843, -1.7597525511099807, 4.381768107216964, 0
4844, -1.768544936467778, 4.455523427138203, 0
4845, -1.8752989498935528, 4.430703196267132, 0
4846, -1.693923937195842, 4.427017279387172, 0
4847, -1.8148285996169031, 4.4126042121712, 0
4848, -1.696991204250106, 4.487477350065736, 0
4849, -1.83168102613575, 4.466366683267868, 0
4850, -1.8779137498941023, 4.311898952643167, 0
4851, -1.8602422879212601, 4.370940912663368, 0
4852, -1.9646713531109337, 4.376408636640674, 0
4853, -1.911613783376893, 4.389776095920736, 0
4854, -1.959817051556197, 4.469121834236974, 0
4855, -1.8970322490575684, 4.1322885936183775, 0
4856, -1.8251861370356621, 4.170251946890166, 0
4857, -1.8105328947971464, 4.109332533878934, 0
4858, -1.6775505948084306, 4.1411524815378105, 0
4859, -1.6076029736081063, 4.089099262956607, 0
4860, -1.6827233414503682, 4.219658771828066, 0
4861, -1.60073301001261, 4.428811025182156, 0
4862, -1.546079353720053, 4.388463127997466, 0
4863, -1.4765089893286598, 4.287223557342024, 0
4864, -1.4816541587868781, 4.348209002137848, 0
4865, -1.5879577783161578, 4.259860534230243, 0
4866, -1.403004344801483, 4.291510485481764, 0
4867, -1.44966233694381, 4.126693280299322, 0
4868, -1.3575212940490187, 4.245098324126155, 0
4869, 1.9134383717827261, -4.175172115354927, 0
4870, 1.9114956983467029, -4.113705491870197, 0
4871, 1.856221616392638, -4.082439561619318, 0
4872, 1.7541487398069133, -4.206475310461131, 0
4873, 1.988389761670359, -4.174773711015771, 0
4874, 1.9325440021182194, -4.3316197649865105, 0
4875, 2.0392630348469982, -4.23148943562521, 0
4876, 1.9966772134137223, -4.293037218103058, 0
4877, 1.3203582450491427, -4.08859552005942, 0
4878, 1.649720611253161, -3.9294321195209605, 0
4879, 1.7405458019315065, -3.9771211379149976, 0
4880, 1.6821840146623646, -3.9903803990408715, 0
4881, 1.7851826372047677, -4.023892061695931, 0
4882, 2.2601103138027376, -4.281468453090302, 0
4883, 2.22582813304324, -4.381262971577408, 0
4884, 2.1480731499811276, -4.419284970934211, 0
4885, 1.8145057464457226, -4.56279519585927, 0
4886, 1.7601582604311272, -4.518771038331892, 0
4887, 1.7848255192578897, -4.448928872564457, 0
4888, 1.711104542946437, -4.47177422436424, 0
4889, 1.7622379668079928, -4.3286193020671435, 0
4890, 1.6934478425707895, -4.390620328714142, 0
4891, 1.792626196364259, -4.385189194074635, 0
4892, 1.853603349762897, -4.334945079267522, 0
4893, 1.744336050227204, -4.411626458760342, 0
4894, 2.387971451017176, -4.390698205669279, 0
4895, 2.294211163220264, -4.439807375197782, 0
4896, 2.365641454016371, -4.476323906639565, 0
4897, 2.2232895556311356, -4.560913158002996, 0
4898, 2.6588923604057704, -4.599275227556244, 0
4899, 2.6054677277295024, -4.59457223332264, 0
4900, 2.570514316033378, -4.663806908080512, 0
4901, 2.4547837317420496, -4.692045076414448, 0
4902, 2.5166337685886044, -4.69425696765043, 0
4903, 2.487804922778435, -4.634536768651249, 0
4904, 2.481790070190418, -4.802727160720999, 0
4905, 2.514518366391709, -4.753408928513092, 0
4906, 2.5855284823629727, -4.836050877068545, 0
4907, 2.5616851958734, -4.784709522574228, 0
4908, 2.6516747721647147, -4.774124902087019, 0
4909, 2.4012072821229924, -4.634743680408507, 0
4910, 2.6315811149209973, -4.706671272166629, 0
4911, 3.833929694055439, -1.367003554191407, 0
4912, 3.8980901345849146, -1.3925144349417002, 0
4913, 3.8258574030842856, -1.296161774329581, 0
4914, 4.027817057001579, -1.3455772125046521, 0
4915, 3.878164646926172, -1.2636906294861412, 0
4916, 3.969277399639968, -1.274869324382734, 0
4917, 3.9568876966207207, -1.3522806554732436, 0
4918, 3.964159120923305, -1.2081975331202846, 0
4919, 4.001093542658006, -1.4414195101608493, 0
4920, 3.926748806276621, -1.2446018149741807, 0
4921, 3.9960803659945032, -1.3883749156316572, 0
4922, 3.9424571281212275, -1.4319940325004858, 0
4923, 3.9319042814361835, -1.6817971458396672, 0
4924, 4.348209002137847, -1.4816541587868786, 0
4925, 4.287223557342024, -1.4765089893286603, 0
4926, 4.3736332406830325, -1.5357208814170382, 0
4927, 4.332168738463927, -1.5869646070580545, 0
4928, 4.263242330121286, -1.5682236499232274, 0
4929, 4.349520633327474, -1.647811378027558, 0
4930, 4.4188209482227325, -1.6482587793815753, 0
4931, 4.44244866393024, -1.7083111859971625, 0
4932, 4.410610859409878, -1.7617053276426438, 0
4933, 3.703400940743837, -1.28493749542613, 0
4934, 3.748122093896331, -1.2383404953678032, 0
4935, 3.7283989182498196, -1.1724354525718754, 0
4936, 3.688127447330427, -1.1305142754516853, 0
4937, 3.63694879735794, -1.1620620952291245, 0
4938, 5.628334052116342, -4.175902922558783, 0
4939, 5.432420958020109, -4.232107696991995, 0
4940, 4.14307954385862, -1.54068477998184, 0
4941, 4.20338732226137, -1.5534664080802771, 0
4942, 4.0504685761038655, -1.636067662110305, 0
4943, 4.089573642661463, -1.581385054483033, 0
4944, 4.067779308478135, -1.4972130817591958, 0
4945, 4.900328418595603, -2.0541921155288425, 0
4946, 4.790795615224401, -2.193827648415734, 0
4947, 4.526567826607468, -1.7912789567165046, 0
4948, 4.4696219960792165, -1.7724431525229964, 0
4949, 4.520352247528894, -1.856293352959885, 0
4950, 4.6226679513806745, -1.8696991942265855, 0
4951, 4.641073500420415, -1.9619590638307207, 0
4952, 4.512951253207813, -1.9883015850667696, 0
4953, 4.621457579550005, -2.0121299042798917, 0
4954, 4.845032228768595, -2.615238605902928, 0
4955, 4.717821668193013, -2.5105515980271083, 0
4956, 4.690265523553263, -2.5684772949055192, 0
4957, 1.2850421434628172, 4.029045937415207, 0
4958, 1.277634957206629, 4.202804871974719, 0
4959, 1.395872092922297, 4.2315128174968, 0
4960, 1.3373627419495095, 4.246366809164653, 0
4961, 1.3863885917543768, 4.126039505829394, 0
4962, 1.415660625129081, 4.3020210334866515, 0
4963, 1.2246389886580509, 3.6619864893852876, 0
4964, 1.2085046528588261, 3.7645726536824635, 0
4965, 4.078885662186624, 1.2172746964922219, 0
4966, 4.118907698738151, 1.2656986218834476, 0
4967, 4.1329659668990555, 1.213328631600509, 0
4968, 3.9298452697068367, 1.6788742952804854, 0
4969, 3.9434598899335747, 1.6210694333314137, 0
4970, 3.975883298208917, 1.7235237151940659, 0
4971, 3.932593953574554, 1.3289490769608063, 0
4972, 3.819800595978169, 1.3121571916856698, 0
4973, 1.5948113684113592, 4.369710737734917, 0
4974, 1.5356919846737096, 4.384014715492362, 0
4975, 1.4833181763544963, 4.334459695138474, 0
4976, 1.5887681888765557, 4.271626542814504, 0
4977, 1.614517836182445, 4.443164483581472, 0
4978, 1.6215345140439081, 4.081226961398084, 0
4979, 1.6484862751680618, 4.1886326655690125, 0
4980, 1.5491353239430226, 4.133162971731319, 0
4981, 1.8572034874706511, 4.392641498522465, 0
4982, 1.939262011489563, 4.4713610257573855, 0
4983, 1.8402104482910446, 4.45230711293662, 0
4984, 1.8947832769718695, 4.435597048758728, 0
4985, 1.7504393081873035, 4.38903024796083, 0
4986, 1.986128913233274, 4.177989007493616, 0
4987, 1.9849115047665713, 4.311897990829812, 0
4988, 1.938834392422223, 4.702875280481026, 0
4989, 2.3240736120795344, 4.335371900450027, 0
4990, 2.2793383809574825, 4.440473720214739, 0
4991, 2.1759331017201484, 4.488089611336672, 0
4992, 2.226263124792844, 4.394637150784413, 0
4993, 2.235290746797909, 4.480905695241706, 0
4994, 2.227923874543837, 4.556493693975554, 0
4995, 2.1798425540241935, 4.429915926597997, 0
4996, 2.1014286194930207, 4.4538644726791405, 0
4997, 2.11492350868287, 4.3390388735593195, 0
4998, 2.0526485163511317, 4.312386174046109, 0
4999, 2.1766999070354873, 4.328833470388617, 0
5000, 2.1023349259873934, 4.6497142121079795, 0
5001, 2.2849806094588754, 4.653480927522008, 0
5002, 2.339577010165169, 4.617531591704682, 0
5003, 2.282206967864276, 4.589836032455373, 0
5004, 2.2280229008348624, 4.62408025671978, 0
5005, 2.1220014062830037, 4.9552695230362405, 0
5006, 2.2113788196542363, 4.88717290106375, 0
5007, 2.2443703720559856, 4.8301617438852, 0
5008, 2.2662569538697657, 4.898203452276639, 0
5009, 2.3956652331973567, 4.980511777752663, 0
5010, 2.317263988070709, 4.960892725095739, 0
5011, 2.26986732617852, 5.013672248029651, 0
5012, 2.650512509892414, 4.711157228097114, 0
5013, 2.700239361503299, 4.759835408092187, 0
5014, 4.576251595195149, 1.8365213123703472, 0
5015, 4.623453614840666, 1.8724199134925372, 0
5016, 4.623609501353568, 1.93044689471574, 0
5017, 4.668737133092653, 2.010792787379766, 0
5018, 4.525413324216847, 1.9082632514510236, 0
5019, 4.361071355707217, 1.696005751563919, 0
5020, 4.416679694003417, 1.714858878898918, 0
5021, 4.257908514795361, 1.58772524605489, 0
5022, 4.2045253525335795, 1.4827793292712583, 0
5023, 4.131424149516086, 1.4889550197604355, 0
5024, 4.133241529274926, 1.4277999574241769, 0
5025, 4.096208331532327, 1.598968147051437, 0
5026, 4.0555662978049405, 1.5253154506136197, 0
5027, 4.1322369715949305, 1.5498581625550636, 0
5028, 4.1790486921420085, 1.6219715913744261, 0
5029, 4.018909772723275, 1.7921150049988268, 0
5030, 4.125023896993605, 1.8518840331468334, 0
5031, 4.064047932806577, 1.8495045092387599, 0
5032, 4.124078204606155, 1.9262550833911531, 0
5033, 4.173047524782893, 1.9708514715193155, 0
5034, 4.219557085624698, 2.040263482064677, 0
5035, 4.845294300168046, 1.986779302154795, 0
5036, 4.794571135647724, 2.0814144952910523, 0
5037, 4.759815075305041, 2.163926049007654, 0
5038, 4.742463883492968, 2.016698820320507, 0
5039, 5.481839062269594, 4.2219385147766895, 0
5040, 5.601408569155778, 4.083995424293923, 0
5041, 5.648398256724458, 4.221206970733925, 0
5042, -3.2352620911299064, -0.04235006670950921, 0
5043, -3.2287305437551925, -0.14864380169613667, 0
5044, -3.3254467228222326, -0.19137720087901122, 0
5045, -0.0423500667095079, 3.2352620911299086, 0
5046, -0.14864380169613425, 3.2287305437551947, 0
5047, -0.19137720087901255, 3.325446722822229, 0
5048, 0.04235006670950693, -3.235262091129908, 0
5049, 0.14864380169613414, -3.228730543755194, 0
5050, 0.19137720087901394, -3.3254467228222357, 0
5051, 3.235262091129909, 0.0423500667095075, 0
5052, 3.228730543755195, 0.14864380169613453, 0
5053, 3.32544672282223, 0.19137720087901217, 0
5054, -0.22690545851491506, -3.370654260294819, 0
5055, -0.1708005715334323, -3.4023945428513085, 0
5056, -0.2438322068146429, -3.30892482241727, 0
5057, -0.04963293085798805, -3.344491625332784, 0
5058, -0.319857248872055, -3.29471801720714, 0
5059, -0.103059123762884, -3.3884211346987696, 0
5060, -0.06095254267629861, -3.443633923814292, 0
5061, -0.11439247421016592, -3.3201850503162755, 0
5062, -0.0038709267459969936, -3.3999338804218944, 0
5063, -0.05985277950832177, -3.273298078351829, 0
5064, -0.15866039405413399, -3.24596077902052, 0
5065, 0.1175225184933043, -3.42499536692379, 0
5066, 0.03429574755158016, -3.321824037414205, 0
5067, -0.020628526767147257, -3.2223660815755326, 0
5068, -0.1116355091132221, -3.268227777702491, 0
5069, -0.2087418090945504, -3.267303584339074, 0
5070, -0.2106573439130954, -3.199807729326433, 0
5071, 0.053028945374428704, -3.430855901585452, 0
5072, -0.015733960039372545, -3.303295116735797, 0
5073, -0.04025784585261463, -3.1732284017709467, 0
5074, -0.26703097887038524, -3.1901244389791823, 0
5075, 0.08500963649861464, -3.5220374967027084, 0
5076, 0.0800204892086481, -3.3700931325251275, 0
5077, 0.08904654671494511, -3.4694224144702797, 0
5078, 0.15333018277384491, -3.479286163452361, 0
5079, 0.1434257484871184, -3.367042307346871, 0
5080, 0.08854459666533127, -3.31622654611916, 0
5081, -0.5187032521706174, -3.2945073380047334, 0
5082, -0.6599416869662729, -3.456557717173924, 0
5083, -0.6395846381026998, -3.5273471803810392, 0
5084, 3.3706542602948186, -0.22690545851491672, 0
5085, 3.402394542851307, -0.17080057153343084, 0
5086, 3.308924822417269, -0.24383220681464593, 0
5087, 3.3444916253327768, -0.04963293085798966, 0
5088, 3.294718017207137, -0.31985724887206174, 0
5089, 3.3884211346987656, -0.10305912376288306, 0
5090, 3.443633923814286, -0.060952542676289884, 0
5091, 3.3201850503162724, -0.11439247421016872, 0
5092, 3.3999338804218873, -0.003870926745953669, 0
5093, 3.2732980783518277, -0.05985277950832959, 0
5094, 3.2459607790205163, -0.1586603940541393, 0
5095, 3.4249953669238744, 0.11752251849336492, 0
5096, 3.3218240374141854, 0.034295747551556344, 0
5097, 3.222366081575536, -0.020628526767147812, 0
5098, 3.2682277777024886, -0.11163550911322893, 0
5099, 3.2673035843390745, -0.208741809094553, 0
5100, 3.1998077293264338, -0.21065734391309393, 0
5101, 3.4308559015854954, 0.053028945374466355, 0
5102, 3.3032951167357907, -0.01573396003938992, 0
5103, 3.1732284017709484, -0.04025784585261414, 0
5104, 3.19012443897918, -0.26703097887038246, 0
5105, 3.522037496702752, 0.08500963649856963, 0
5106, 3.3700931325251102, 0.08002048920872834, 0
5107, 3.469422414470333, 0.08904654671496565, 0
5108, 3.479286163452454, 0.15333018277381763, 0
5109, 3.3670423073469666, 0.1434257484872042, 0
5110, 3.316226546119131, 0.0885445966653006, 0
5111, 3.6133627278799993, -0.5474888146501503, 0
5112, 3.5792094718462018, -0.6543813855545433, 0
5113, 3.294507338004741, -0.5187032521706355, 0
5114, 3.4565577171739195, -0.659941686966275, 0
5115, 3.5163343938595673, -0.5773489345098447, 0
5116, -3.370654260294815, 0.22690545851491095, 0
5117, -3.402394542851309, 0.1708005715334301, 0
5118, -3.3089248224172643, 0.24383220681463774, 0
5119, -3.344491625332793, 0.04963293085799837, 0
5120, -3.294718017207147, 0.31985724887205036, 0
5121, -3.3884211346987745, 0.10305912376288827, 0
5122, -3.4436339238142915, 0.06095254267629509, 0
5123, -3.3201850503162906, 0.11439247421016727, 0
5124, -3.399933880421895, 0.0038709267459761465, 0
5125, -3.2732980783518375, 0.05985277950832852, 0
5126, -3.2459607790205376, 0.15866039405410698, 0
5127, -3.4249953669238384, -0.11752251849333638, 0
5128, -3.321824037414192, -0.03429574755155529, 0
5129, -3.2223660815755455, 0.020628526767147992, 0
5130, -3.2682277777025206, 0.1116355091132166, 0
5131, -3.26730358433906, 0.2087418090945446, 0
5132, -3.199807729326419, 0.21065734391311072, 0
5133, -3.4308559015854785, -0.05302894537444783, 0
5134, -3.3032951167358098, 0.015733960039395478, 0
5135, -3.173228401770952, 0.040257845852608436, 0
5136, -3.190124438979184, 0.2670309788703981, 0
5137, -3.5220374967027333, -0.08500963649858505, 0
5138, -3.370093132525114, -0.08002048920868965, 0
5139, -3.4694224144703103, -0.08904654671495535, 0
5140, -3.479286163452412, -0.15333018277382587, 0
5141, -3.367042307346925, -0.14342574848716388, 0
5142, -3.316226546119137, -0.08854459666530437, 0
5143, -3.2945073380047334, 0.5187032521706164, 0
5144, -3.4565577171739252, 0.6599416869662736, 0
5145, -3.604409799442214, 0.6174236069165518, 0
5146, -3.5671574239694386, 0.6755215072031486, 0
5147, -3.632659588056986, 0.6945028782069226, 0
5148, -3.5402496902779133, 0.6172762052224704, 0
5149, -3.7122161068156347, 0.6484461667022514, 0
5150, -3.57247314190856, 0.5549329145777543, 0
5151, -3.733431360554043, 0.702593900986975, 0
5152, -3.7692534765733887, 0.6444548070177438, 0
5153, -3.665935497420257, 0.5465739596836137, 0
5154, -3.620889471735172, 0.5695953000099008, 0
5155, -3.6643118612909285, 0.4896772690306809, 0
5156, 0.22690545851491095, 3.370654260294815, 0
5157, 0.17080057153343012, 3.402394542851309, 0
5158, 0.24383220681463774, 3.3089248224172643, 0
5159, 0.04963293085799826, 3.344491625332793, 0
5160, 0.31985724887205036, 3.294718017207147, 0
5161, 0.10305912376288824, 3.3884211346987745, 0
5162, 0.060952542676293825, 3.443633923814292, 0
5163, 0.11439247421016718, 3.32018505031629, 0
5164, 0.0038709267459789897, 3.3999338804218944, 0
5165, 0.05985277950832707, 3.273298078351835, 0
5166, 0.1586603940541075, 3.2459607790205367, 0
5167, -0.11752251849333126, 3.424995366923824, 0
5168, -0.03429574755155514, 3.321824037414194, 0
5169, 0.020628526767148575, 3.2223660815755406, 0
5170, 0.11163550911321608, 3.2682277777025193, 0
5171, 0.20874180909454468, 3.26730358433906, 0
5172, 0.21065734391311075, 3.199807729326419, 0
5173, -0.053028945374446, 3.4308559015854705, 0
5174, 0.015733960039395187, 3.3032951167358093, 0
5175, 0.04025784585261087, 3.1732284017709502, 0
5176, 0.2670309788703981, 3.190124438979184, 0
5177, -0.08500963649859944, 3.5220374967027275, 0
5178, -0.08002048920868081, 3.3700931325251124, 0
5179, -0.0890465467149566, 3.469422414470302, 0
5180, -0.15333018277383853, 3.4792861634523984, 0
5181, -0.14342574848715417, 3.3670423073469085, 0
5182, -0.08854459666530312, 3.3162265461191374, 0
5183, 0.5518660808688156, 3.6025500218888244, 0
5184, 0.5187032521706164, 3.2945073380047334, 0
5185, 0.6599416869662736, 3.4565577171739252, 0
5186, 0.6414763774377219, 3.520768858888983, 0
5187, 5.649881390430258, -4.419129830315524, 0
5188, 5.68976894929541, -4.298990522940946, 0
5189, -4.305223560792858, 5.600695207785657, 0
5190, -4.307751576194491, 5.655137615198479, 0
5191, -4.266863929931814, 5.7077201386474385, 0
5192, -4.184669196903741, 5.688986359943891, 0
5193, -4.369024757950245, 5.737684706461236, 0
5194, -4.385239330726536, 5.648446523309752, 0
5195, -4.613311109419149, 5.488226266191207, 0
5196, -1.5981485254123822, 4.002967023997351, 0
5197, -3.650843061357884, -1.1123152440296287, 0
5198, -3.618313717617375, -1.0353939193622097, 0
5199, -3.6415233158534863, -0.9702673703549888, 0
5200, -1.1531097900174583, -3.956868970031668, 0
5201, 1.1811667349882307, -3.8965160815497897, 0
5202, 1.1318184252156935, -3.9284270785524007, 0
5203, 1.2681599977513929, -3.924762694738158, 0
5204, 1.1308206727697743, -3.9892762126961863, 0
5205, 1.1930837519666488, -4.0330627227446465, 0
5206, 1.3013667078256528, -3.8619224652039597, 0
5207, 1.5461131619413433, -3.771264477931961, 0
5208, 4.224694135389424, -1.2186953686465622, 0
5209, 4.275125492729073, -1.4055955121443247, 0
5210, 4.248496323775051, -1.3567327843176211, 0
5211, 4.241273535476371, -1.4478309416499167, 0
5212, 4.178454776754196, -1.33782924443348, 0
5213, 4.161669714563649, -1.4619965458035353, 0
5214, 4.102836286309642, -1.3358777442706002, 0
5215, 1.1462358877012464, 3.8579089500418675, 0
5216, -1.3095554353527241, -3.9895444546680783, 0
5217, -1.2578361490668402, -3.855167913662326, 0
5218, -1.2670551396439163, -3.928760893406833, 0
5219, -1.2348356935454683, -3.996538992102287, 0
5220, -1.2110763259775963, -3.7507023000830917, 0
5221, -1.2156193747731958, -3.81136666956135, 0
5222, -1.0724374652144166, -3.7924563969986855, 0
5223, -1.1461207691903028, -3.786069003648285, 0
5224, -1.1154216765591385, -3.8601216631971416, 0
5225, -1.1036824105055396, -3.724700551386811, 0
5226, -1.1590966452359668, -3.7325678685348342, 0
5227, -1.4868600266034646, -3.931270427631864, 0
5228, -0.6290712314264271, -3.626602295767577, 0
5229, -0.6963093145566994, -3.62392643919104, 0
5230, -4.203172530290155, 1.2684553885756942, 0
5231, -4.178398935003853, 1.3362797685776777, 0
5232, -4.089486304850952, 1.425938932516229, 0
5233, -4.0874450209089295, 1.3349989069188961, 0
5234, -4.147318840250903, 1.3943741957476312, 0
5235, -4.133198915465596, 1.3159740208507391, 0
5236, -4.155711415006446, 1.4785133816735387, 0
5237, -4.274331560008478, 1.4053832087853573, 0
5238, -4.248015219616833, 1.3558556962504473, 0
5239, -4.239482822375023, 1.4473198145254378, 0
5240, 1.3532119428276121, 3.818890029065282, 0
5241, 1.2659050151400018, 3.7549852420479746, 0
5242, 5.535869301465334, 4.391075692278019, 0
5243, -3.578362357821203, -0.9321052948314836, 0
5244, -3.6037868205725223, -0.8571849124856121, 0
5245, -3.5078476323662193, -0.8554445193608129, 0
5246, -3.5269956595617007, -0.7926105781385375, 0
5247, -3.626847180602032, -0.5286124014943647, 0
5248, -3.7032583983896483, -0.5458314832216418, 0
5249, -3.711122841745758, -0.6641215713303478, 0
5250, -3.952743825162453, 1.5233271565956892, 0
5251, -4.047952809018899, 1.512315831157332, 0
5252, -3.904386958765609, 1.4782763093186402, 0
5253, -4.312603583517549, -1.9908839409387697, 0
5254, -4.366732831018414, -1.909335636935775, 0
5255, -4.405064804945574, -2.0699542517838023, 0
5256, -4.515141711493776, -2.0331380960568173, 0
5257, -4.3651273968234, -2.1212306007673623, 0
5258, -4.454272479750561, -2.0341126846280666, 0
5259, -4.483168681635129, -1.9375416887102053, 0
5260, -4.485711219493884, -2.0963392887498613, 0
5261, -4.383748241150043, -2.1842348893298014, 0
5262, -4.565821806230863, -2.095190919179169, 0
5263, -4.498326459141155, -2.175739705934839, 0
5264, -4.459640844865215, -2.225206433261187, 0
5265, -4.647526058609891, -2.5786451329006703, 0
5266, -4.747196206252567, -2.7080427094693715, 0
5267, -4.84266471646168, -2.6119636800554424, 0
5268, -4.818595302944574, -2.7209908277974106, 0
5269, -4.889923426413485, -2.783100172799985, 0
5270, -4.405934096653148, -1.721019549312847, 0
5271, -4.067014718630793, -1.6846603104664009, 0
5272, -4.176003034425847, -1.7606129349604487, 0
5273, -4.0620913583157625, -1.6046027307811244, 0
5274, -4.113910227822013, -1.5493825300734114, 0
5275, -4.197393880071719, -1.5859929830213852, 0
5276, -4.104136565492042, -1.3689211502730436, 0
5277, -4.205107536983604, -1.292961736579289, 0
5278, -4.145780782235243, -1.4618225893113785, 0
5279, -4.217289967281077, -1.4093944496550574, 0
5280, -4.237375537337363, -1.9158218691559545, 0
5281, -4.197009120690614, -1.8796679638671645, 0
5282, -2.576428787219033, -4.719962969801183, 0
5283, -2.64679901929184, -4.706632064012769, 0
5284, -2.588548294807734, -4.7968646944583595, 0
5285, -2.1507307089182115, -4.845358593723385, 0
5286, -2.112734895954018, -4.777132073605842, 0
5287, -2.2288844888306745, -4.860248364160845, 0
5288, -1.9480305561659514, -4.682414950589818, 0
5289, -2.025477410413411, -4.696604838334934, 0
5290, -2.0783188430345163, -4.417014101253414, 0
5291, -2.1789638267981544, -4.592574844846628, 0
5292, -2.1592283045360974, -4.431012797204769, 0
5293, -2.3360080168523383, -4.71914886319828, 0
5294, -1.366714697406406, -4.128022872790981, 0
5295, -1.3589679802225578, -4.050184533281372, 0
5296, -1.382708112709089, -4.178466201029223, 0
5297, -4.951007147481908, 3.0292985860719943, 0
5298, -4.999699225275996, 3.0917865536651554, 0
5299, -4.812100012057162, 2.6828595441998466, 0
5300, -5.0425009456391985, 2.5656420011482735, 0
5301, -4.824954229539016, 2.522735529155278, 0
5302, -4.79621933367451, 2.4694150446248155, 0
5303, -4.740332423017362, 2.4809925574881646, 0
5304, -4.6944833309396214, 2.4534699268218825, 0
5305, -4.614003342302783, 2.031545322749568, 0
5306, -4.48859987718625, 2.0774839845376927, 0
5307, -4.545620530917888, 2.0390064315333487, 0
5308, -4.497252503892432, 1.974039529145151, 0
5309, -4.570461978712324, 2.1373082676985757, 0
5310, -4.607641901672385, 2.090770599025436, 0
5311, -4.540317317159993, 2.0926362921174153, 0
5312, -4.495704757694364, 2.1490702280394234, 0
5313, -4.4359145401991595, 2.118858663132376, 0
5314, -4.524993941585301, 2.201137541771561, 0
5315, -4.412074983743687, 2.034270708241112, 0
5316, -4.380152858358028, 2.11296551403734, 0
5317, -4.720218114759153, 2.1387197301603633, 0
5318, -4.821022939516893, 2.1910786889685983, 0
5319, -4.857086300376531, 2.248970992842061, 0
5320, -4.830579649445201, 2.3517800034662, 0
5321, -4.813754236280476, 2.4107011423253883, 0
5322, -4.8263974503501625, 2.29588019798025, 0
5323, -4.746084896424513, 2.3299952113526343, 0
5324, -4.769581205035728, 2.129602126478146, 0
5325, -4.0104682916380625, 1.7864854910861723, 0
5326, -4.080822782932642, 1.7876835789566519, 0
5327, -4.184841107536478, 1.74869774388488, 0
5328, -4.111285563940497, 1.7107026409805766, 0
5329, -4.1393407732200815, 1.7855569017729889, 0
5330, -4.214228541674541, 1.8344951029421368, 0
5331, -4.32336442251139, 1.5913585183673804, 0
5332, -2.7028268478790696, 4.9333734564714415, 0
5333, -2.53703208343739, 4.999298058291648, 0
5334, -2.6558552297372175, 5.0566859973285, 0
5335, -2.613811420398564, 4.950949394101928, 0
5336, -2.695040164014341, 5.001009761933077, 0
5337, -2.6380602373918185, 5.002534585776369, 0
5338, -2.770554301526496, 5.0957839076522715, 0
5339, -2.74974827905032, 5.034890581267076, 0
5340, -2.711220560922487, 5.082055888609988, 0
5341, -2.63419030689467, 5.177063386212066, 0
5342, -2.660494452776963, 5.119659208473967, 0
5343, -2.808927522135886, 5.048671388997908, 0
5344, -2.9069901108810683, 5.167727305527104, 0
5345, -2.845999195176633, 5.118050108672798, 0
5346, -2.5640285335410047, 5.095108341319503, 0
5347, -2.732839006078628, 5.187538162472856, 0
5348, -2.6065856469234063, 5.129685460662542, 0
5349, -2.5374081665500547, 5.171350335075943, 0
5350, -2.7124693778653173, 5.136756417364588, 0
5351, -2.894366397363158, 4.95016163304208, 0
5352, -2.964367697838621, 4.956152243235488, 0
5353, -2.8411175782358113, 4.942554455847134, 0
5354, -1.6843698111264096, 4.342609505960562, 0
5355, -1.918843466211661, 4.259794690428415, 0
5356, -1.9402124923412711, 4.318708797573916, 0
5357, -2.0016472882614402, 4.326700648796971, 0
5358, -1.7787221151009354, 4.19026956340085, 0
5359, -1.8437292501163252, 4.243986676085749, 0
5360, -1.653226146744208, 4.0671195006262995, 0
5361, -1.7279202047443414, 4.198211506040677, 0
5362, -1.5386286149595496, 4.271971881955727, 0
5363, -1.630097057550201, 4.227399412539766, 0
5364, -1.6452485271955184, 4.290650265903739, 0
5365, -1.710852370690295, 4.2819629208621, 0
5366, -1.781227893866252, 4.309364058554943, 0
5367, -1.4550614623938318, 4.191612549752702, 0
5368, -1.5336884899631662, 4.157413327343346, 0
5369, -1.397629233062821, 4.163704853698585, 0
5370, -1.3886836075786286, 4.0960471276793315, 0
5371, 1.8230673341427261, -4.19293160282505, 0
5372, 1.811484175016085, -4.136803093127584, 0
5373, 1.8013784943714084, -4.264687285033893, 0
5374, 1.6905262088376296, -4.122537181609443, 0
5375, 1.751911847939325, -4.121982772481096, 0
5376, 1.7208149482608768, -4.077519160899276, 0
5377, 1.9304913989389219, -4.268870650845665, 0
5378, 1.8744350336602686, -4.28141312072856, 0
5379, 1.9980832113268463, -4.367967782628001, 0
5380, 2.0708228972473446, -4.298832942658553, 0
5381, 1.4412032610876566, -4.038850548677267, 0
5382, 1.2623875666504212, -4.100517337100499, 0
5383, 2.1644951278986517, -4.354352449236772, 0
5384, 2.0576246194706953, -4.492720865218705, 0
5385, 1.6284992238226794, -4.394754153460499, 0
5386, 1.577080014483434, -4.355596739016011, 0
5387, 1.5561067128906685, -4.224454507180699, 0
5388, 1.539969447608281, -4.294283530056975, 0
5389, 1.6031487245345029, -4.272104913381199, 0
5390, 1.491047504655073, -4.246198677704969, 0
5391, 1.6884075317277474, -4.261743072423577, 0
5392, 1.4905947665366688, -4.136642438487748, 0
5393, 1.448866685828138, -4.285274720742013, 0
5394, 1.5088778394715152, -4.191345939268662, 0
5395, 1.5827125463268983, -4.136261764319013, 0
5396, 1.4920925001143426, -4.313296721666524, 0
5397, 1.6993513585598479, -4.328008451773712, 0
5398, 1.8948871968730046, -4.376334149984693, 0
5399, 1.9400917930967878, -4.475802539521904, 0
5400, 1.9036810806742703, -4.432343743362915, 0
5401, 1.8820518070469798, -4.487447449515801, 0
5402, 1.9637385086579757, -4.419008577205098, 0
5403, 1.9228974987837577, -4.540566058780073, 0
5404, 2.001209141233946, -4.467929588054113, 0
5405, 2.008910945286196, -4.5269889029676715, 0
5406, 2.0501977265114415, -4.4330359576549165, 0
5407, 2.104287542327498, -4.618599447994674, 0
5408, 2.0686888204050957, -4.56020760397599, 0
5409, 1.916826855567652, -4.609296205240899, 0
5410, 2.1460231991907657, -4.553107865524594, 0
5411, 1.973679916919508, -4.645214829304751, 0
5412, 2.0465910198379937, -4.669237812185016, 0
5413, 2.285591321378483, -4.55376810436842, 0
5414, 2.2661987748801966, -4.494994915869985, 0
5415, 2.311139943809664, -4.6961806423046095, 0
5416, 2.2696454960459693, -4.630126728146513, 0
5417, 4.040492253598968, -1.244531652625185, 0
5418, 5.577684745083907, -4.22346755927575, 0
5419, 5.645039013981094, -4.244440568421461, 0
5420, 5.553905253728525, -4.147396585272396, 0
5421, 5.7042531399229395, -4.241499929903334, 0
5422, 5.383492465767982, -4.240349820780155, 0
5423, 5.440382835918624, -4.28080926161295, 0
5424, 4.153164725974252, -1.5947401598359368, 0
5425, 4.005057583518159, -1.5044305667421616, 0
5426, 4.043006754764527, -1.5485348955622353, 0
5427, 4.845368593298936, -2.1524459831017904, 0
5428, 4.797304055025193, -2.1056213801283774, 0
5429, 4.738838248067871, -2.0968037525510685, 0
5430, 4.73167514177284, -2.1630634947698044, 0
5431, 4.859522530167431, -2.227787285651585, 0
5432, 4.6024587992535, -2.2508056825705176, 0
5433, 4.7119870801033095, -2.273087626476662, 0
5434, 4.657486609377461, -2.192825763064143, 0
5435, 4.739013426890497, -2.2211502178902225, 0
5436, 4.786724543774427, -2.2789778259268956, 0
5437, 4.584264729340681, -1.9125356386792365, 0
5438, 4.481401234670238, -1.9420969036124665, 0
5439, 4.4593965278245635, -2.0514640488488434, 0
5440, 4.561628299743711, -2.019712969873976, 0
5441, 4.837310526653442, -2.5490941044520543, 0
5442, 5.019355329270377, -2.5613651794869607, 0
5443, 4.9353088535037815, -2.4517398511624293, 0
5444, 4.92719412711404, -2.572124068495356, 0
5445, 4.874219875458576, -2.4882471797279573, 0
5446, 4.887989454047477, -2.5382176643765066, 0
5447, 4.861003357279792, -2.396766705563358, 0
5448, 4.886690860319672, -2.4397504945969146, 0
5449, 4.765901736703321, -2.526060377450958, 0
5450, 4.743896482057521, -2.4252271731511508, 0
5451, 4.664111595240639, -2.4658949032705753, 0
5452, 4.603733937841208, -2.4348615267916784, 0
5453, 4.731296638753136, -2.595524031672432, 0
5454, 1.2257120206946344, 4.045809776371094, 0
5455, 1.230714022168841, 3.9641442330372034, 0
5456, 1.2691493692590645, 4.086170361003238, 0
5457, 1.3368209246859994, 4.074224485179922, 0
5458, 1.329083331334392, 4.131242882661665, 0
5459, 1.4333187404766325, 4.0921780947736535, 0
5460, 4.033254500790891, 1.1621065936793358, 0
5461, 3.9890845289856895, 1.2450963668996513, 0
5462, 3.979875559448366, 1.1869457759078808, 0
5463, 3.896709088028018, 1.1715030288189396, 0
5464, 4.028256738066851, 1.2126958799575414, 0
5465, 3.88838084088278, 1.363651230720087, 0
5466, 3.810212193543709, 1.3634282885400895, 0
5467, 1.5222204160107078, 4.274417957848509, 0
5468, 1.55272656458869, 4.207038945133558, 0
5469, 1.491148596115315, 4.219754648998161, 0
5470, 1.6049175778694902, 4.220264848659214, 0
5471, 1.505754997606328, 4.16682447943811, 0
5472, 1.9341704875086827, 4.314039110441952, 0
5473, 1.9582944443761165, 4.271451518871283, 0
5474, 1.9902617901426158, 4.39607456429321, 0
5475, 2.17158263745722, 4.54535612728554, 0
5476, 2.1161484425765926, 4.404484283641569, 0
5477, 2.042321655459008, 4.2440612395166655, 0
5478, 2.0951452878596806, 4.263610591304504, 0
5479, 2.126201661219335, 4.6977041666471395, 0
5480, 2.040482747399067, 4.672867754332218, 0
5481, 2.0484398254621787, 4.599931759179944, 0
5482, 2.108745147848846, 4.569787190307499, 0
5483, 2.0026594389349506, 4.623584406571236, 0
5484, 2.0370276091566764, 4.513146743026081, 0
5485, 2.235894073404732, 4.6870318281748276, 0
5486, 2.320637398193116, 4.552198966796062, 0
5487, 2.373842273803773, 4.90125799977129, 0
5488, 4.477927265040152, 2.010795964679456, 0
5489, 4.386563824414135, 1.8947799992594514, 0
5490, 4.239404405821357, 1.5416004947737982, 0
5491, 4.308123975762506, 1.5912435025899954, 0
5492, 4.033531534485065, 1.6274681548256473, 0
5493, 4.034654466189584, 1.5742575286969362, 0
5494, 4.096371844219988, 1.6824966897808247, 0
5495, 4.0281820999765685, 1.6819133618846795, 0
5496, 4.029352213904232, 1.4763004379984561, 0
5497, 3.99642867748743, 1.5249216177799907, 0
5498, 4.249979373658602, 1.6773859443233767, 0
5499, 4.30545586877866, 1.6871104836940412, 0
5500, 5.550437266060083, 4.142799205107762, 0
5501, 5.591071685501192, 4.240169168743106, 0
5502, 5.602399112262272, 4.17827825170837, 0
5503, 5.645196493043604, 4.307663415619348, 0
5504, 5.675519036439404, 4.1460374608697235, 0
5505, -3.232221130202206, -0.09183835430963574, 0
5506, -3.1824242715200066, -0.06035880583559604, 0
5507, -3.303960787408774, -0.24906176251694867, 0
5508, -3.2792583875689547, -0.17096919275657896, 0
5509, -0.09183835430963486, 3.2322211302022077, 0
5510, -0.060358805835595206, 3.1824242715200084, 0
5511, -0.24906176251695702, 3.303960787408792, 0
5512, -0.17096919275657815, 3.279258387568953, 0
5513, 0.09183835430963382, -3.2322211302022072, 0
5514, 0.060358805835594324, -3.1824242715200084, 0
5515, 0.24906176251695372, -3.303960787408789, 0
5516, 0.17096919275657924, -3.279258387568957, 0
5517, 3.232221130202208, 0.09183835430963458, 0
5518, 3.182424271520009, 0.060358805835595004, 0
5519, 3.303960787408792, 0.24906176251695658, 0
5520, 3.2792583875689534, 0.17096919275657807, 0
5521, -0.3158750616186855, -3.2373702053839577, 0
5522, -0.3917355898768514, -3.2784794089601115, 0
5523, -0.43622708204311883, -3.3275090636610614, 0
5524, -0.45456340790669136, -3.266168422481781, 0
5525, -0.1362219253027462, -3.1964353859209207, 0
5526, 3.2373702053839564, -0.31587506161868495, 0
5527, 3.278479408960114, -0.3917355898768679, 0
5528, 3.327509063661073, -0.43622708204311184, 0
5529, 3.266168422481796, -0.4545634079067164, 0
5530, 3.1964353859209194, -0.1362219253027463, 0
5531, 3.5242363171044797, -0.6404792344573014, 0
5532, 3.549870411751568, -0.6947094215994831, 0
5533, 3.6009871709944834, -0.6070621166766003, 0
5534, -3.2373702053839657, 0.3158750616186915, 0
5535, -3.278479408960112, 0.39173558987684215, 0
5536, -3.327509063661057, 0.43622708204312244, 0
5537, -3.266168422481775, 0.45456340790667743, 0
5538, -3.196435385920923, 0.13622192530274682, 0
5539, -3.6555948398208047, 0.6423805857070806, 0
5540, 0.3158750616186915, 3.2373702053839657, 0
5541, 0.39173558987684215, 3.278479408960112, 0
5542, 0.43622708204312244, 3.327509063661057, 0
5543, 0.45456340790667743, 3.266168422481775, 0
5544, 0.1362219253027482, 3.196435385920923, 0
5545, 5.718469262415555, -4.342060414639561, 0
5546, -4.315243647870764, 5.717728302968367, 0
5547, -4.179677546047815, 5.7580341047923005, 0
5548, -4.154005046285229, 5.567036335669077, 0
5549, -4.2337527225091, 5.565273182917661, 0
5550, -4.090497059053823, 5.665918613735232, 0
5551, -1.1299335945940383, -4.005526769337066, 0
5552, 1.1390896586278554, -4.0436793204719415, 0
5553, 1.243432712779228, -3.987793496993353, 0
5554, 1.2491510948454634, -4.04478751178506, 0
5555, 1.400212310733248, -3.8972266324762512, 0
5556, 1.3586524608944583, -3.857559635217466, 0
5557, 1.3365484686262403, -3.9223234104490676, 0
5558, 1.3037373467623798, -3.962320419694809, 0
5559, 1.3943551148891125, -3.9756659818996245, 0
5560, 1.5401126337687567, -3.8239426935825707, 0
5561, 1.5436317743374517, -3.8924676486355567, 0
5562, 1.4727762863748328, -3.920591122327432, 0
5563, 4.199871412782828, -1.2676041865145091, 0
5564, 4.1200092154702315, -1.4936943028915355, 0
5565, 4.0942795128861365, -1.4166514780960755, 0
5566, 4.152510891733866, -1.3944804735165657, 0
5567, -1.2846851693830428, -4.045214056779587, 0
5568, -1.2101970748017088, -3.943279540998392, 0
5569, -1.2046863975531747, -3.701678387091497, 0
5570, -1.2653892899617352, -3.747150796684722, 0
5571, -1.1584644096073333, -3.8345757543817434, 0
5572, -1.1512667279022288, -3.9018725440031736, 0
5573, -1.073946423340689, -3.9319928285495047, 0
5574, -1.039874930971973, -3.860627121068341, 0
5575, -1.0243959315041264, -3.729220440540613, 0
5576, -1.1046952298331252, -3.6668840646165326, 0
5577, -1.4591774992679727, -3.8891726794199526, 0
5578, -1.5147936973199199, -3.891579835986738, 0
5579, -1.5383111421064597, -3.9491971262701973, 0
5580, -1.499072804995966, -4.046584664879832, 0
5581, -4.171462799037292, 1.5770900165178132, 0
5582, -3.6425290383793643, -0.5862246455968291, 0
5583, -4.098003087399575, 1.4832080840804998, 0
5584, -4.105236146056712, 1.5532293827708292, 0
5585, -4.1510896156094494, 1.529798650878116, 0
5586, -4.0456070226514225, 1.5761583496385232, 0
5587, -4.114364472761661, 1.6317315381950832, 0
5588, -4.305942428836312, -1.8902501606775037, 0
5589, -4.309668818626772, -1.7929940087028642, 0
5590, -4.365516951272621, -1.7673261915599408, 0
5591, -4.390516205613196, -1.8381220766937358, 0
5592, -4.573080944039687, -2.0375399366474944, 0
5593, -4.6135458604471085, -1.9754216258620703, 0
5594, -4.67631210738872, -1.9757699944585474, 0
5595, -4.566396606329201, -1.894392915346718, 0
5596, -4.607411767796662, -1.9247589147494286, 0
5597, -4.663601279390548, -2.1602858120786195, 0
5598, -4.5262658397646165, -2.1305982901905813, 0
5599, -4.591090652927509, -2.1632194620016847, 0
5600, -4.62933839795653, -2.2109993030059325, 0
5601, -4.709741105223192, -2.2283896819135425, 0
5602, -4.578834537100814, -2.2403963696851448, 0
5603, -4.832080601437886, -2.6599065130454145, 0
5604, -4.7958407270319325, -2.6244609232371574, 0
5605, -4.8324640012687, -2.494580336434535, 0
5606, -5.0504029963688515, -2.582737240365145, 0
5607, -4.115957127904324, -1.6672632956544573, 0
5608, -4.134847673363056, -1.7951856297354631, 0
5609, -4.257162105954195, -1.7100664268404553, 0
5610, -4.22347223596361, -1.8057856977656888, 0
5611, -4.22793537140396, -1.7535680974625192, 0
5612, -4.163827075485073, -1.6286411874977058, 0
5613, -4.230416731855765, -1.6465177226213406, 0
5614, -4.2474621432184225, -1.5979464353385775, 0
5615, -4.305180765443704, -1.6454785430236973, 0
5616, -4.2372992729957595, -1.3547964614385832, 0
5617, -4.279326687488429, -1.4024186405739456, 0
5618, -4.233639584212794, -1.4571245861611088, 0
5619, -2.0771386695876135, -4.812180760185065, 0
5620, -2.069571532997473, -4.742616370429377, 0
5621, -2.206227586890225, -4.905037625395392, 0
5622, -2.260842429092561, -4.796329153143794, 0
5623, -2.232579504398202, -4.693612115908877, 0
5624, -2.320994686065269, -4.779719321538503, 0
5625, -2.2767480187247635, -4.736705842618521, 0
5626, -2.4201687445520332, -4.772155282410684, 0
5627, -2.2230034245232506, -4.7476089472017, 0
5628, -2.37358786339687, -4.81535168115521, 0
5629, -2.1689953824803108, -4.710183327515752, 0
5630, -2.46973089212107, -4.872314145378398, 0
5631, -2.1457722031289332, -4.648988238982715, 0
5632, -2.430103049358885, -4.829581420248743, 0
5633, -2.481225686911582, -4.791165225001634, 0
5634, -2.381483598822852, -4.914408909942485, 0
5635, -2.202889476840221, -4.644622920965413, 0
5636, -2.2810318483378724, -4.630755992039676, 0
5637, -2.2934584409978362, -4.684319960195728, 0
5638, -2.280772901475071, -4.890891298484632, 0
5639, -2.2055305200913446, -4.548381128219549, 0
5640, -2.3651312241235782, -4.660252399031528, 0
5641, -2.398424260701703, -4.713363861591517, 0
5642, -1.3869378931101093, -3.9769413245076004, 0
5643, -5.165282907706678, 3.2321171524503516, 0
5644, -5.088391804744724, 3.0670465488598926, 0
5645, -4.941355338603639, 2.594549213935621, 0
5646, -4.898914589697743, 2.533097674052644, 0
5647, -4.5394437585516405, 1.9436004248666554, 0
5648, -4.360215506305469, 2.0525855704568863, 0
5649, -4.468497442389868, 2.0237184106046935, 0
5650, -4.428922424146467, 1.9682331089301388, 0
5651, -4.695545786750883, 2.251251974854384, 0
5652, -4.288232130843403, 1.7560420003082504, 0
5653, -4.3472713074425124, 1.7847904521105047, 0
5654, -4.288521519244414, 1.8304447434216353, 0
5655, -4.174030650501916, 1.6794295047085064, 0
5656, -4.189692835442859, 1.627834557244633, 0
5657, -2.6016482101181224, 4.885223935826656, 0
5658, -2.9184130519557088, 5.091423614516104, 0
5659, -2.871406267159211, 5.0502361850097115, 0
5660, -2.8233803578246963, 5.20809950212524, 0
5661, -2.579724034780853, 5.225827345524512, 0
5662, -2.4600869476980614, 5.101584819573231, 0
5663, -2.4906575238207513, 5.199725735666627, 0
5664, -1.6564083937239764, 4.388519065228897, 0
5665, -1.7360088110791947, 4.335338752475423, 0
5666, -1.807874858435711, 4.35665452180103, 0
5667, -1.830021377032087, 4.293446444198457, 0
5668, -1.5545487142518912, 4.211960674913007, 0
5669, -1.582288156179835, 4.135853170993884, 0
5670, -1.5302005267760015, 4.08399559464661, 0
5671, -1.465101519128403, 4.038829404630087, 0
5672, -1.4989067343868476, 4.122274034655249, 0
5673, 1.809192102922295, -4.31341827703711, 0
5674, 2.1039668960952036, -4.261444006956839, 0
5675, 1.373249808700261, -4.045428178272007, 0
5676, 1.4126733013696684, -4.098409875676842, 0
5677, 2.111391781064362, -4.3371667372460125, 0
5678, 1.7446149966425737, -4.2738828122481225, 0
5679, 1.6859503052161253, -4.192086605819466, 0
5680, 1.6397666315836152, -4.154122773330996, 0
5681, 1.6359414937033308, -4.091396244636804, 0
5682, 1.6282398743001685, -4.215218821545509, 0
5683, 1.587830103211711, -4.185915192221777, 0
5684, 2.190407433089425, -4.5000795102425775, 0
5685, 2.124376215094329, -4.489900773227374, 0
5686, 2.1392226154400786, -4.716592316217828, 0
5687, 2.0869822102013424, -4.7591650066694156, 0
5688, 2.086566742616203, -4.705317079122643, 0
5689, 2.3443292143548047, -4.648098127980916, 0
5690, 2.3834361573173335, -4.710587764472315, 0
5691, 2.3332639592588795, -4.773758334141826, 0
5692, 2.433301644411859, -4.755922492680391, 0
5693, 2.1861615724444787, -4.635909987633918, 0
5694, 4.019143514911322, -1.2931714289395446, 0
5695, 4.087236399237589, -1.2795766647802846, 0
5696, 5.6126047260146255, -4.285669806971158, 0
5697, 5.630079408685032, -4.0599275376322, 0
5698, 4.8989877023934865, -2.267305706574448, 0
5699, 4.932991769264233, -2.347585502489195, 0
5700, 4.906047523781322, -2.2058090282001244, 0
5701, 4.6110670097068205, -2.1347261011630976, 0
5702, 4.659655852223409, -2.2499875216205236, 0
5703, 4.63209683880028, -2.3230682245440675, 0
5704, 4.384698691902199, -2.0316518178604768, 0
5705, 4.908242875056925, -2.6358531436049493, 0
5706, 5.011271551091079, -2.747468120800394, 0
5707, 4.947239979889883, -2.7032149414448123, 0
5708, 4.799875667679363, -2.352999510298781, 0
5709, 4.754803742778599, -2.475206783309839, 0
5710, 1.239270346073503, 3.910257954939764, 0
5711, 1.3208778251549183, 3.906338373118595, 0
5712, 3.9949945905531608, 1.3100327753011347, 0
5713, 3.946544117707734, 1.2773922668669575, 0
5714, 3.898147249091465, 1.089923693194488, 0
5715, 3.9315113623048803, 1.215743075627824, 0
5716, 3.8192299450067906, 1.2150858713682524, 0
5717, 3.8748171496241888, 1.3103005554416076, 0
5718, 1.9625712914334648, 4.35557626023709, 0
5719, 2.0419213435349715, 4.43251760481834, 0
5720, 1.938781379662053, 4.4067979179345445, 0
5721, 2.120358932956164, 4.510861927403311, 0
5722, 1.9771235137671133, 4.518040294564754, 0
5723, 1.9040878923826718, 4.549631899282467, 0
5724, 1.995363715786746, 4.464551341981441, 0
5725, 1.8828124783590592, 4.493970827894115, 0
5726, 2.321027371184622, 4.907806613637328, 0
5727, 2.4008636863652697, 4.781860391518595, 0
5728, 2.5368529224310614, 4.899003554245051, 0
5729, 4.523323270290076, 1.969557768359081, 0
5730, 4.452308317888284, 1.936988398025423, 0
5731, 4.276606024323107, 1.871854631606503, 0
5732, 4.1292429982364816, 1.6406679108985422, 0
5733, 4.1741691650686406, 1.7098034386658847, 0
5734, 4.094492396989084, 1.7449424823791406, 0
5735, 4.229575085815099, 1.630400535933283, 0
5736, 5.462744168286659, 4.015293617016686, 0
5737, 5.702609673935478, 4.266502104351214, 0
5738, 5.6822846853289555, 4.380052609343325, 0
5739, 5.723194744502795, 4.182561377509628, 0
5740, 5.62517317312117, 4.1308923684890875, 0
5741, 5.704703210473307, 4.085989901508801, 0
5742, -4.1910316892009325, 5.622556281334431, 0
5743, -4.131296860571553, 5.622287222049959, 0
5744, -4.057892798548658, 5.559826067655011, 0
5745, -4.258772886353558, 5.502606690327315, 0
5746, -4.174120338008146, 5.459498219171628, 0
5747, -4.209247199154035, 5.405973505837746, 0
5748, -4.199102714844496, 5.515110844397792, 0
5749, -4.157510154567129, 5.3801889712504245, 0
5750, -4.104684694880274, 5.410487795022488, 0
5751, -3.9433775143484016, 5.37013271670337, 0
5752, -4.020272639434073, 5.4053335799799465, 0
5753, -4.13201510571682, 5.700183470406916, 0
5754, 1.4346638318024794, -3.8508230977520213, 0
5755, 1.45546738040984, -3.979314385341738, 0
5756, 1.541652203969736, -4.031440023870142, 0
5757, 1.578628971285237, -4.07740850089351, 0
5758, 1.520612929236919, -4.086220073804763, 0
5759, 1.4660861058862433, -4.0873827051415175, 0
5760, 4.05261716218665, -1.4475862595086555, 0
5761, -1.0490474185575211, -3.97673120725987, 0
5762, -1.0207130602849026, -3.9260488856819533, 0
5763, -0.9805489626820382, -3.8339521975461546, 0
5764, -0.937092056251692, -3.8626461029788746, 0
5765, -0.9744390334629754, -3.769849857739188, 0
5766, -0.8982151051247229, -3.716516020406905, 0
5767, -1.0195773797829402, -3.797889840464109, 0
5768, -1.0622364723776032, -3.6953381216111225, 0
5769, -4.054066851268402, 1.66892623847185, 0
5770, -4.482030177060794, -1.8457199160204918, 0
5771, -4.475202668261312, -1.793376897205262, 0
5772, -4.707614706841511, -2.0464710066079403, 0
5773, -4.626519065540538, -2.1100022069162985, 0
5774, -4.687265346631064, -2.10401932603591, 0
5775, -4.750585808975736, -2.0940377683858333, 0
5776, -4.724134426492062, -2.152634857985592, 0
5777, -4.80575470385549, -2.0872055171137602, 0
5778, -4.685297148165318, -2.281118756207487, 0
5779, -4.762515982997127, -2.2528900584581075, 0
5780, -4.758019953271621, -2.197136741867391, 0
5781, -4.548285740381371, -2.195983430358948, 0
5782, -4.815370489967051, -2.5552006748571054, 0
5783, -4.755080183932909, -2.519833990009261, 0
5784, -4.755498675304871, -2.457915804551153, 0
5785, -4.949495900880255, -2.6184043425403285, 0
5786, -4.901322614490674, -2.5467170012092772, 0
5787, -4.320830627155267, -1.5984869090496774, 0
5788, -2.520273725023645, -4.838084986351356, 0
5789, -2.235103879106281, -4.5980156568192925, 0
5790, -2.3001414140670833, -4.57959549888964, 0
5791, -2.437227822909884, -4.680485161549484, 0
5792, -1.3403266945395302, -3.9346147541708096, 0
5793, -1.4355508097458376, -3.951156294507498, 0
5794, -1.4802211172551891, -3.990277383972208, 0
5795, -1.4287744117632262, -4.03881116486375, 0
5796, -1.4595207897660216, -4.082514094660711, 0
5797, -1.402776554983982, -4.08691750676411, 0
5798, -5.069467871341439, 3.1773186271512226, 0
5799, -5.038151034433535, 3.0582849188678645, 0
5800, -4.886468708776098, 2.6102357032860413, 0
5801, -4.976209447655171, 2.525096292827971, 0
5802, -4.741568024391072, 2.277304073118512, 0
5803, -4.698990647749501, 2.1952419152557923, 0
5804, -4.615929127126459, 2.2098259884318976, 0
5805, -4.3225940254786615, 1.7118715257355566, 0
5806, -4.254888859852203, 1.896921695163307, 0
5807, -3.095360072199173, 5.156920102847216, 0
5808, -3.0168204848240534, 5.061580255531065, 0
5809, -2.984556005886349, 5.011870331531367, 0
5810, -2.855745320153995, 5.168363590797699, 0
5811, -2.7946695649498956, 5.153022426130801, 0
5812, -2.5134197950559507, 5.120206315410221, 0
5813, -2.5059263812294414, 5.05598315783342, 0
5814, -2.383279413558364, 4.951804057668168, 0
5815, -2.4279767206131844, 5.02346711302089, 0
5816, -1.4893185073916733, 3.990505688661835, 0
5817, 2.1014925404943674, -4.442937615300395, 0
5818, 2.2866434841672856, -4.745110239549364, 0
5819, 2.214002405430307, -4.725323339063414, 0
5820, 2.308325455469819, -4.857265410613464, 0
5821, 2.398393308427965, -4.840605337720684, 0
5822, 2.2262441622692353, -4.609064585182695, 0
5823, 2.1816291764625637, -4.586977458952761, 0
5824, 2.137913197948031, -4.661835411154573, 0
5825, 5.607992317123939, -4.117595966524287, 0
5826, 5.680949077486923, -4.124845128473279, 0
5827, 5.687465009253176, -4.184198564815079, 0
5828, 5.721177027107704, -4.084075479465419, 0
5829, 5.469277977379683, -3.996793832564471, 0
5830, 4.881624975363765, -2.3496746578957874, 0
5831, 4.527551688979616, -2.1070851385423803, 0
5832, 4.552435123277886, -2.313531788563681, 0
5833, 4.698244843361532, -2.339961272235448, 0
5834, 4.304544475677212, -2.050522909252294, 0
5835, 4.254585846817824, -2.0221601903299877, 0
5836, 4.4118302162471705, -2.0800804597852296, 0
5837, 4.369713691015056, -2.1298428805668315, 0
5838, 4.401631969516088, -2.1908764665354394, 0
5839, 4.5049796362987, -2.21100819922927, 0
5840, 4.449821876954764, -2.218827311980949, 0
5841, 4.486859293630476, -2.2816403780262045, 0
5842, 4.501453574081381, -2.334996240079823, 0
5843, 4.894860315940868, -2.7816505294303564, 0
5844, 5.02789530633365, -2.6549631703348364, 0
5845, 4.9721014521317475, -2.6201605811041633, 0
5846, 4.802990253780404, -2.413220263313812, 0
5847, 1.3213041548919036, 3.9730494114530823, 0
5848, 1.349842065080031, 4.020450085203926, 0
5849, 1.3097044636915303, 3.852505051779133, 0
5850, 3.8417945517217675, 1.0684069075467468, 0
5851, 3.899206522904436, 1.0025968847156834, 0
5852, 3.899580365638494, 0.9404670416675469, 0
5853, 3.9535377142511177, 1.073502639248383, 0
5854, 3.846182261013205, 1.172339725674135, 0
5855, 1.9196535303091935, 4.620148383222001, 0
5856, 1.8534484272757978, 4.555331621304271, 0
5857, 2.3660737787426958, 4.836743403378654, 0
5858, 2.310854692666133, 4.763272431240727, 0
5859, 2.28807776066522, 4.710695603289559, 0
5860, 2.3393516365646607, 4.679228874572948, 0
5861, 2.385723913880789, 4.721185054965972, 0
5862, 2.4560445935877806, 4.855307162382565, 0
5863, 2.4763073399227875, 4.707798949687639, 0
5864, 2.445896624568833, 4.667656632007701, 0
5865, 4.402757959554276, 1.995537566920951, 0
5866, 4.4510588578033525, 1.8666280280349337, 0
5867, 4.3923588569988254, 1.8201024368591658, 0
5868, 4.422552762582708, 1.771648034091288, 0
5869, 4.453895442593931, 1.8140089647378914, 0
5870, 4.215820604205664, 1.869415189046083, 0
5871, 4.244111048148116, 1.9230186520669241, 0
5872, 4.320656686918155, 1.935732830294792, 0
5873, 4.243397502160846, 1.766845905391067, 0
5874, 4.2481206816929955, 1.8231076053806887, 0
5875, 4.313176907968016, 1.8177881990407556, 0
5876, 4.334083891709993, 1.8713314247150497, 0
5877, 4.151935161297909, 1.7672903850070056, 0
5878, 5.523152595396119, 4.067655832593918, 0
5879, 5.642644700334918, 4.423026797942876, 0
5880, 5.707058525665387, 4.325892716784866, 0
5881, 5.71611753621369, 4.418873651873163, 0
5882, -4.0192179033188316, 5.306049752032171, 0
5883, -4.073569994111343, 5.3079320278566104, 0
5884, -3.925775789010379, 5.510170969502408, 0
5885, -0.965717606731596, -3.6790471857760525, 0
5886, -4.016923431955783, 1.626288309346399, 0
5887, -4.4321482914417185, -1.8916043280263217, 0
5888, -4.427405733646275, -1.948173268243964, 0
5889, -4.74153126859859, -2.009268608855956, 0
5890, -4.894718875185503, -2.6377660907191585, 0
5891, -4.950510462186403, -2.4102127344942144, 0
5892, -4.980498432008292, -2.545541213176177, 0
5893, -5.0181417454192, 3.1479641947306707, 0
5894, -5.068015257325018, 3.1203095227488413, 0
5895, -5.15053991946059, 3.1467298212431234, 0
5896, -4.990713963106043, 2.5758472258503815, 0
5897, -5.00589165045893, 2.6903895326178446, 0
5898, -5.028120329469356, 2.629167340969294, 0
5899, -4.972120624176288, 2.643481366050147, 0
5900, -4.939347564521892, 2.702686600780565, 0
5901, -5.171887059104423, 2.7160129732909626, 0
5902, -4.919201670355683, 2.65286145889861, 0
5903, -5.132175222589428, 2.6193324942198433, 0
5904, -5.078535313689261, 2.6071897029580895, 0
5905, -5.088219236565259, 2.68895828819968, 0
5906, -5.123870815479227, 2.5314699970918793, 0
5907, -4.619596617281789, 2.157014193147845, 0
5908, -4.572256476584172, 2.1866955066430656, 0
5909, -4.622369421793863, 2.2946690537521284, 0
5910, -4.229580596164351, 1.9418162338341085, 0
5911, -4.295808970040676, 1.9495702113402216, 0
5912, -4.3636208428767125, 1.9499493101694179, 0
5913, -4.330061908971498, 1.8876891647525285, 0
5914, -4.392694329049461, 1.8941039687607606, 0
5915, -2.987089187482344, 5.140711556185414, 0
5916, -2.468544659315212, 4.948393576643105, 0
5917, -2.336761905998182, 5.03058842809828, 0
5918, -2.3870998892436743, 5.085927801299493, 0
5919, 2.17028396827309, -4.775160761500268, 0
5920, 2.2549674541619953, -4.685407504072944, 0
5921, 2.2989950446769654, -4.809001634042165, 0
5922, 2.238606863887753, -4.857055025195013, 0
5923, 2.180037288261898, -4.836471150721934, 0
5924, 2.3336471139051325, -4.933623837163542, 0
5925, 5.739599919466144, -4.181203437544522, 0
5926, 5.493739484504668, -4.082126746858954, 0
5927, 5.561189679587717, -4.066606580315752, 0
5928, 5.583819585759647, -3.941403893782174, 0
5929, 5.517086016095206, -4.0292617160258875, 0
5930, 5.575826359326685, -4.004605626422126, 0
5931, 5.525079242528169, -3.9660599833859354, 0
5932, 5.488029388605386, -3.7954937442768313, 0
5933, 5.522383489226202, -3.8773385012640706, 0
5934, 4.515643468975683, -2.0521094239565283, 0
5935, 4.4764798155048515, -2.1000985073857104, 0
5936, 4.58626860520706, -2.3683985180307023, 0
5937, 4.752031416265124, -2.3233207040305754, 0
5938, 4.274984779247776, -2.0917125275881028, 0
5939, 4.353092523774425, -2.0770673469641556, 0
5940, 4.543759154640369, -2.2553029211462574, 0
5941, 4.553975064043206, -2.16723713777148, 0
5942, 4.9527933431320115, -2.7636309942996435, 0
5943, 4.903284996689786, -2.730569081768394, 0
5944, 4.998542737881057, -2.697434493394095, 0
5945, 4.836592370576071, -2.45250770056097, 0
5946, 3.8409685828294515, 1.0018325724449784, 0
5947, 2.4412429495020205, 4.925330280995446, 0
5948, 2.4851571889119715, 4.898037009861946, 0
5949, 2.509370025848886, 4.985970033439932, 0
5950, 2.452618506112165, 4.981139473875659, 0
5951, 2.4715880318718755, 5.094063292795468, 0
5952, 2.4766012398913313, 5.035165939378135, 0
5953, 2.588781617224472, 5.074376509639493, 0
5954, 2.5276572939348223, 5.069173747037782, 0
5955, 2.550613472232437, 5.161133536676864, 0
5956, 4.344731827273636, 2.01847616034146, 0
5957, 4.374231053165009, 1.9484423436048899, 0
5958, 4.223542137840964, 1.720412973381692, 0
5959, 4.293463307765104, 1.7417944664130245, 0
5960, 5.500221271899755, 4.1185074689345775, 0
5961, 5.409681408087304, 4.108275120755939, 0
5962, 5.583510043970218, 3.9369969538532312, 0
5963, -3.996379316011109, 5.355939892907664, 0
5964, -4.001135207462791, 5.483090566123813, 0
5965, -0.9479482849515573, -3.72657407022347, 0
5966, -0.9090045106359081, -3.6564143704564747, 0
5967, -0.989125901213673, -3.63293629734878, 0
5968, -4.904638377017897, -2.470797510753893, 0
5969, -4.998399233944208, -2.596185022740464, 0
5970, -5.060627542913708, -2.729551927938339, 0
5971, -5.0045003439289495, -2.674539432681517, 0
5972, -4.9383379151749365, -2.689802767342513, 0
5973, -4.904845452940391, -2.731633125196307, 0
5974, -4.983129230898749, -2.75998943399575, 0
5975, -5.072538879562877, -2.456850259850613, 0
5976, -5.122639544523985, 3.1955135325667747, 0
5977, -5.060170800689906, 3.2912780823359826, 0
5978, -5.108819578437776, 3.2547555022391745, 0
5979, -5.182881865705407, 3.404069733461936, 0
5980, -5.167263985494021, 3.3187912909084276, 0
5981, -5.337754768009912, 3.1583717087555714, 0
5982, -5.049417982460048, 2.8255711241890307, 0
5983, -5.1396681248333005, 2.6727508847480577, 0
5984, -5.221943635325955, 2.6451055423793184, 0
5985, -5.192561575194889, 2.5693013229108788, 0
5986, -4.645482168026902, 2.2502486353448385, 0
5987, -4.594945682005329, 2.2540847751661146, 0
5988, -4.548017161139904, 2.3492661432759436, 0
5989, -4.683606747194809, 2.3145048725180986, 0
5990, -4.636863540752559, 2.3543668055357205, 0
5991, -4.59385661226671, 2.4101313199767773, 0
5992, -4.703514554789356, 2.3679531475561335, 0
5993, -4.541447657511669, 2.4220689130292135, 0
5994, -2.971635749947638, 5.089754386198479, 0
5995, -2.996890222677594, 5.3020215463764355, 0
5996, -3.045889790131072, 5.117653193993389, 0
5997, -3.1258959650522335, 5.06765362365715, 0
5998, -2.4268831852300474, 4.974378453932744, 0
5999, -2.4807551357272057, 5.00348956406521, 0
6000, -2.5390267712621113, 4.925090293747009, 0
6001, -2.529647251253659, 4.841241535992369, 0
6002, -2.487793441508305, 4.888372388470747, 0
6003, -2.413575931935428, 4.780315466509849, 0
6004, -2.4640664886854515, 4.825152808612286, 0
6005, -2.476606314534579, 4.7601849841171395, 0
6006, -2.3847342154165663, 4.8636405686088375, 0
6007, -2.4298157463855863, 4.90287608831079, 0
6008, -2.3805166791944026, 5.003297929206773, 0
6009, -2.3335971445350743, 5.084031156669054, 0
6010, 2.4775340148210736, -5.029212423706515, 0
6011, 2.359594116404723, -4.882641658035991, 0
6012, 2.4270743955737526, -4.949079103313711, 0
6013, 5.507426970550137, -4.129874952546244, 0
6014, 4.601971210472941, -2.195239954870893, 0
6015, 4.292030665991542, 1.9889360431014098, 0
6016, 5.5754897371307415, 4.0125624028577125, 0
6017, 5.659686725962905, 4.0148023573262055, 0
6018, -3.961512561111427, 5.432105169261173, 0
6019, -3.853768144302517, 5.429994838688785, 0
6020, -3.9079716925899377, 5.414133212396079, 0
6021, -3.8556139225533634, 5.335757327372694, 0
6022, -3.984374963638299, 5.5548455116988915, 0
6023, -3.8901213075223846, 5.617707878546111, 0
6024, -4.016163287560083, 5.63070656956864, 0
6025, -3.926439161207814, 5.570070093230624, 0
6026, -3.839017790189491, 5.541085034218364, 0
6027, -3.9527709890005838, 5.6278076222503435, 0
6028, -3.9136993587511606, 5.670811830730685, 0
6029, -3.9817877078570043, 5.6878491414748, 0
6030, -4.038086060220517, 5.686518658973705, 0
6031, -4.047635040550274, 5.508055049581815, 0
6032, -4.109642424934104, 5.521634937965028, 0
6033, -4.8460155591512075, -2.414299445883078, 0
6034, -4.974345250251271, -2.4759179054944944, 0
6035, -5.015196831655647, -2.4239231835872945, 0
6036, -5.031131507148764, -2.505982796388728, 0
6037, -5.0028713792725545, -2.322623610643662, 0
6038, -5.079267281960247, -2.378739110328447, 0
6039, -4.991688701229436, -2.3753838695266385, 0
6040, -4.920248227948811, -2.3326766413504014, 0
6041, -4.991808732004215, -2.2647543979261817, 0
6042, -5.047164058419844, -2.284164330587373, 0
6043, -5.0791679472549465, -2.654497351799387, 0
6044, -5.070256954365767, -2.867949541572255, 0
6045, -5.095484119205606, 3.3760063933482374, 0
6046, -5.242765488803672, 3.1747725706520895, 0
6047, -5.339727894134693, 3.3312756278112636, 0
6048, -5.048128330614941, 2.751388181025956, 0
6049, -4.98296755641849, 2.7513847161843445, 0
6050, -5.1252855416288075, 2.787149503999213, 0
6051, -5.0999917941237545, 2.7406059601883794, 0
6052, -4.960169653283174, 2.851075461413357, 0
6053, -4.961922078366773, 2.9405126400811, 0
6054, -5.260285530954415, 2.7252949701819573, 0
6055, -5.280951249156302, 2.6536927413359646, 0
6056, -5.181360147749102, 2.617239466903791, 0
6057, -5.239593885415504, 2.5946678054083074, 0
6058, -4.5710038994438325, 2.3026439791888906, 0
6059, -2.9701348398512337, 5.22269443124075, 0
6060, -2.5656694260787165, 4.804194455686397, 0
6061, -2.327747081759845, 4.79726122744272, 0
6062, -2.2984344863399984, 4.906310268500435, 0
6063, 2.372213277065634, -4.990603077045242, 0
6064, 2.3591482490252167, -5.071526450566225, 0
6065, 2.4265365683684283, -5.005371537469313, 0
6066, 5.519054666987876, 4.011356831473529, 0
6067, 5.484090656046437, 3.9159349151936524, 0
6068, 5.653371969817932, 4.068622773922849, 0
6069, 5.618513029437487, 3.9789204245399663, 0
6070, 5.654137475733747, 3.9136024743761784, 0
6071, 5.708719311503459, 3.9832381091864897, 0
6072, -4.069423701503057, 5.614338629737159, 0
6073, -4.806965538628392, -2.4489919414673884, 0
6074, -4.814181519611528, -2.3691689183138713, 0
6075, -4.898507073021339, -2.41849662675601, 0
6076, -5.108923938219629, -2.3363424718854993, 0
6077, -4.872669811648887, -2.3639731995098026, 0
6078, -4.8861975821654555, -2.281380305573232, 0
6079, -5.160444210384438, -2.5802726104084384, 0
6080, -5.10533691775973, -2.526506116064541, 0
6081, -5.201982023910502, -2.724652842738524, 0
6082, -5.043673940768506, -2.8002653272948885, 0
6083, -5.133289284357193, -2.7843616673654643, 0
6084, -4.996627199036478, -2.857805315811827, 0
6085, -5.085016545835785, -2.77278823417178, 0
6086, -5.023638273244447, -2.934036299448582, 0
6087, -4.950669278321539, -2.8143079582133383, 0
6088, -5.146700374755145, 3.366626656569548, 0
6089, -5.189597958895867, 3.183952483613674, 0
6090, -5.255803568041665, 3.2734078657762242, 0
6091, -5.1276460982191905, 2.8859257493569186, 0
6092, -4.921698117164793, 2.8181095472064315, 0
6093, -5.218682794338853, 2.6959258260789056, 0
6094, -5.208703609778629, 2.790964067934878, 0
6095, -2.9546370134762907, 5.176744879138407, 0
6096, -2.893631957745938, 5.246825816787774, 0
6097, -3.0577101014885364, 5.237332694585595, 0
6098, -3.0360444585813107, 5.179049056770809, 0
6099, -2.3756049565301827, 4.8138265027625335, 0
6100, -2.3531546518218662, 4.700117602534363, 0
6101, -2.3948012842799167, 4.636527099453337, 0
6102, -2.4253876326823454, 4.708556793241416, 0
6103, -2.448668442996994, 4.6480611426379745, 0
6104, -2.352574789320821, 4.907203647542263, 0
6105, -2.2885440821105445, 4.845187546503123, 0
6106, -2.2293615765617516, 4.868483696501733, 0
6107, 2.308936121127164, -5.0604820586699795, 0
6108, 2.3333401234600757, -5.113461832076376, 0
6109, 2.438728230927442, -5.113150390670162, 0
6110, 5.57990382934534, 3.807801278691278, 0
6111, 5.71774981822971, 3.8750343006402908, 0
6112, 5.664545997482412, 3.9616530593983006, 0
6113, -5.105885824923198, -2.6021422709601123, 0
6114, -5.160148374463058, -2.6585229977025593, 0
6115, -5.141028455143328, -2.467150916970545, 0
6116, -5.153043735930047, -2.413920704356042, 0
6117, -5.193434864507157, -2.4943318039943896, 0
6118, -4.986205298509016, -2.9981058855201868, 0
6119, -4.934077437174346, -3.012336428985082, 0
6120, -4.924196707848371, -2.9422590591477915, 0
6121, -4.88294701295055, -2.9072360728857056, 0
6122, -4.974769765261506, -2.94845462427979, 0
6123, -4.966439184269975, -2.8984861527342636, 0
6124, -5.20054984976572, 3.2746707789806915, 0
6125, -5.239018202021932, 3.3497195845774272, 0
6126, -5.102919437583501, 2.837100338571115, 0
6127, -5.165441044343901, 2.836111379959445, 0
6128, -5.241508565802949, 2.933070000721366, 0
6129, -5.235225766019136, 2.8596809207489655, 0
6130, -5.188233562922224, 2.9006673716044444, 0
6131, -5.187179719086278, 2.9623975996977667, 0
6132, -5.19154419713358, 3.059072694588692, 0
6133, -5.327218998406271, 2.888768902999296, 0
6134, -5.275215921243764, 2.8932208585501367, 0
6135, -5.168123014614251, 2.764379733614729, 0
6136, -2.9447161090390357, 5.275443213541116, 0
6137, -2.878921626220088, 5.33298801307795, 0
6138, -3.010009905884288, 5.2534209765318245, 0
6139, -2.363958410570511, 4.754837729570493, 0
6140, -2.2773331557123186, 4.732181201836158, 0
6141, -2.2467849003159115, 4.918646278973131, 0
6142, 2.387974185327024, -5.113300378289379, 0
6143, 5.601121575454375, 3.871857199104538, 0
6144, 5.541386376792655, 3.890657523388074, 0
6145, 5.643304069742104, 3.8223427392614946, 0
6146, 5.470371511713773, 3.807263840272235, 0
6147, 5.625824948421663, 3.7530689699288344, 0
6148, 5.493440167799293, 3.859553067231751, 0
6149, 5.394264759470469, 3.872073434239236, 0
6150, 5.69761871028453, 3.769066336181841, 0
6151, 5.525588753508842, 3.7155998609349945, 0
6152, 5.620809622085579, 3.676004682851203, 0
6153, 5.5690722538100115, 3.752083083374087, 0
6154, 5.525226058637298, 3.789518673706237, 0
6155, -5.223125888666896, -2.6196353396401424, 0
6156, -5.2155245024638255, -2.5621509877641313, 0
6157, -5.275199108241654, -2.6566487950961983, 0
6158, -5.2234365787603005, -2.674335161162868, 0
6159, -5.137112956744068, -2.7193920486254624, 0
6160, -5.1563120540045375, -2.5293838014983754, 0
6161, -5.315888888121416, 3.485282270391299, 0
6162, -5.285612999692291, 3.3199665823968894, 0
6163, -2.829433428855544, 5.280202140070424, 0
6164, -2.7664448388670575, 5.249184680956842, 0
6165, -2.816113049098059, 5.342281564535398, 0
6166, -2.684634629448365, 5.25379933894251, 0
6167, -2.759817317199051, 5.312518246299412, 0
6168, -2.6342741281946496, 5.231956687215038, 0
6169, -2.9109831051814434, 5.391242674520559, 0
6170, -2.9454639371183307, 5.338474092803778, 0
6171, -3.022833598838976, 5.393123466271006, 0
6172, -2.9667204290524065, 5.403358829538104, 0
6173, -2.282129846465928, 4.780531933016502, 0
6174, -2.293507695823273, 4.66474931479843, 0
6175, -2.2105052039561617, 4.6804957291621125, 0
6176, -2.2239326200550558, 4.751602223977622, 0
6177, 5.668543483079096, 3.8656194609466645, 0
6178, 5.5533110818954015, 3.5845400063834125, 0
6179, -5.259900818273573, 3.4274541837494343, 0
6180, -5.3011988152769, 3.380513990608566, 0
6181, -5.402104965622089, 3.4197794691857237, 0
6182, -5.35757217992533, 3.38493251014017, 0
6183, -5.437617948658422, 3.328516646591353, 0
6184, -2.6815414043897614, 5.200884345740415, 0
6185, -2.648076051820274, 5.291880681497039, 0
6186, -2.7113212041143835, 5.297121073176946, 0
6187, -2.137666054026469, 4.686138237716137, 0
6188, -2.1643836977868998, 4.558074741475318, 0
6189, -2.084567433287013, 4.676521142057689, 0
6190, -2.1229056287448254, 4.616240024517581, 0
6191, -2.240480952707504, 4.597449203500292, 0
6192, -2.0631058462138943, 4.529724590795968, 0
6193, -2.18303628704746, 4.615247824672893, 0
6194, -2.1086261391506893, 4.5621854291946375, 0
6195, -2.1308130364926767, 4.4829251345569805, 0
6196, -2.0544691665807866, 4.589983223434321, 0
6197, 5.603577137800474, 3.618083388466565, 0
6198, 5.559449486701734, 3.6627361627266954, 0
6199, 5.606613487695148, 3.559098794797316, 0
6200, 5.536883277627449, 3.4815636864024238, 0
6201, 5.452895732462292, 3.6317616305204625, 0
6202, 5.501605084392003, 3.6629613843324593, 0
6203, 5.436510688809724, 3.7244034217055746, 0
6204, 5.484247422952524, 3.7523573090608577, 0
6205, -5.184764058060884, 3.5363974667709663, 0
6206, -2.285400501927744, 4.569396563698676, 0
6207, -2.225866494630704, 4.532471805467925, 0
6208, -2.2471024166682048, 4.646772384407145, 0
6209, -2.0616633441285814, 4.455260175969696, 0
6210, -5.245204403078117, 3.4977003209008615, 0
6211, -5.18499985454444, 3.47021686032718, 0
6212, -5.311527825515007, 3.6678385207323605, 0
6213, -5.109165379700468, 3.5030373911267714, 0
6214, -5.29541505146498, 3.5761233891609283, 0
6215, -5.28668440845117, 3.5264279071645546, 0
6216, -2.1892226011991047, 4.4868201517992405, 0
6217, -2.1632410646419356, 4.436536943442013, 0
6218, -2.0153406401970333, 4.413161130945749, 0
6219, -2.0149892884061895, 4.493410510907262, 0
6220, -1.9673863715430455, 4.526734748707392, 0
6221, -5.1246638358863645, 3.5702544031038883, 0
6222, -5.20541566986278, 3.6433277230586434, 0
6223, -5.177238740405786, 3.5933102110218433, 0
6224, -5.146819732458879, 3.6433918638480907, 0
6225, -5.237436134085862, 3.5923439037973868, 0
6226, -5.261392843827622, 3.64293711125668, 0
6227, -5.2341656137980594, 3.7522397466988777, 0
6228, -5.2635487486800265, 3.701516608231121, 0
6229, -5.363965495794046, 3.7935586557393384, 0
6230, -5.323896836163575, 3.7364753282150005, 0
6231, -5.4734729455099504, 3.674087368616553, 0
6232, -5.391811987854761, 3.688803455973395, 0
6233, -5.059616273740628, 3.5152436200353465, 0
6234, -2.108142776595065, 4.422518950923154, 0
6235, -5.446703932872613, 3.759473815313292, 0
6236, -5.413102474664018, 3.573016152390481, 0
6237, -5.437748051786478, 3.709776785905558, 0
6238, -5.3658102367084615, 3.624171307559753, 0
6239, -5.426985673874858, 3.633289068894782, 0
6240, -5.513465793147276, 3.581633951698898, 0
6241, -3.7949660877731337, -5.40812935080852, 0
6242, -5.355237119544802, -3.5313269896108848, 0
6243, -3.4367424165249356, -5.332957694295585, 0
6244, -3.5200415383597257, 5.304106656525763, 0
6245, 3.4367424165249347, -5.332957694295586, 0
6246, 3.794966087773133, -5.408129350808522, 0
6247, 5.266757885970897, -3.431074561015865, 0
6248, 3.257152415019053, 5.188048536170264, 0
6249, 3.5200415383597274, 5.304106656525757, 0
6250, 5.1880485361702675, 3.25715241501905, 0
6251, 3.7949660877731337, 5.4081293508085215, 0
6252, -0.4073491656059467, -3.727805497439841, 0
6253, 3.7278054974398414, -0.40734916560594664, 0
6254, -3.7278054974398414, 0.40734916560594636, 0
6255, 0.40734916560594636, 3.7278054974398414, 0
6256, -3.737419004179107, -0.4223498337110905, 0
6257, -0.4223498337110908, 3.737419004179107, 0
6258, 0.4223498337110909, -3.7374190041791073, 0
6259, 3.737419004179107, 0.4223498337110908, 0
6260, -0.2607411370948069, -3.095386195531878, 0
6261, 3.095386195531878, -0.2607411370948067, 0
6262, -3.095386195531879, 0.2607411370948068, 0
6263, 0.2607411370948068, 3.095386195531879, 0
6264, -3.823263780020079, -0.0035787863657891633, 0
6265, -0.003578786365789288, 3.823263780020079, 0
6266, 0.003578786365788969, -3.8232637800200795, 0
6267, 3.823263780020079, 0.003578786365788983, 0
6268, -5.305828270259722, -4.992609230290136, 0
6269, -5.280343563176744, -5.039674321790334, 0
6270, 5.407898135592627, 4.712514885302604, 0
6271, 5.3623250984566, 4.738291307156969, 0
6272, 5.365554059092151, 4.681637011406653, 0
6273, 5.501201938010984, -5.0314883587413, 0
6274, 5.497700592097185, 5.027199203964737, 0
6275, -0.9313271643128763, -3.5049855117532513, 0
6276, -0.9072480055857538, -3.560887968440201, 0
6277, -5.694116830762381, -4.456885447786913, 0
6278, -5.743835321743715, -4.458386702840573, 0
6279, -5.675675311851026, -4.5095639419130995, 0
6280, -5.631918631407106, -4.433817753990808, 0
6281, -5.6624988978833475, -4.333777550535754, 0
6282, -5.6819122059420515, -4.394405792249485, 0
6283, -5.629757003937721, -4.377683798018589, 0
6284, -5.600030170021158, -4.32135450369692, 0
6285, -5.716771090846315, -4.3498216791964825, 0
6286, -5.708614110413732, -4.277599291479671, 0
6287, -5.577805842770202, -4.175475438995904, 0
6288, -5.57279672288658, -4.250871010402777, 0
6289, -5.674291483904797, -4.186725724485326, 0
6290, -5.709782144408255, -4.225239578019611, 0
6291, -5.503910060741423, -4.256197402004376, 0
6292, -5.457137471447159, -4.173736751420164, 0
6293, -5.464389986733646, -4.224118334075066, 0
6294, -5.403446537606057, -4.207178450827778, 0
6295, -5.5172383521343695, -4.190797923840435, 0
6296, -5.53078585243617, -4.116980808295908, 0
6297, -5.401497572557374, -4.144227894822015, 0
6298, -5.640513671854521, -4.265209485098374, 0
6299, -5.48083346707662, -4.128323201839325, 0
6300, -5.574823858012445, -3.966213943295461, 0
6301, -5.637956084838384, -4.0789791556796535, 0
6302, -5.622565360437962, -4.2109743759517855, 0
6303, -5.534257829747719, -4.0361799121417254, 0
6304, -5.591013588564137, -4.1167131441612765, 0
6305, -5.645503114863762, -4.136434050793597, 0
6306, -5.698083442128445, -4.100304202816796, 0
6307, -5.412354300369569, -3.91875765848493, 0
6308, -5.598789121752117, -4.026851927147909, 0
6309, -5.656499490998291, -3.9689889595410532, 0
6310, -5.48775110595065, -3.962472467222772, 0
6311, -5.61887145100344, -3.8731297424185285, 0
6312, -5.711785902031398, -3.982784800495781, 0
6313, -5.681389392602927, -4.035884893467183, 0
6314, -5.5303076308604915, -3.9871465940991464, 0
6315, -5.476805321378772, -4.020904610433963, 0
6316, -5.393174426192496, -4.035479756423955, 0
6317, -5.668798379913247, -3.9088464640394056, 0
6318, -5.616621368357089, -3.9290287959311168, 0
6319, -5.53447522438699, -3.8901571089929816, 0
6320, -5.410550093391884, -4.088842471863717, 0
6321, -5.299134310909916, -4.028831564064738, 0
6322, -5.426615640757096, -3.981037969608147, 0
6323, -5.34834823916216, -3.9661871536832836, 0
6324, -5.472724833041632, -3.901511468027725, 0
6325, -5.396080763666736, -3.747504868674067, 0
6326, -5.420110420105126, -3.8316210195835727, 0
6327, -5.5501305163605945, -3.7500838005222863, 0
6328, -5.344478253005381, -4.055864676265492, 0
6329, -5.267964675252687, -3.953690835191256, 0
6330, -5.564767320747763, -3.822631193837554, 0
6331, -5.492670037139712, -3.8308458518110493, 0
6332, -5.628246002774369, -3.7720738265260394, 0
6333, -5.455799468085124, -3.7759352668819215, 0
6334, -5.474600372451797, -3.659508081222902, 0
6335, -5.507846373015246, -3.7808215123640396, 0
6336, -5.487184182974539, -3.721271738570155, 0
6337, -5.256707266817484, -4.0023958056587805, 0
6338, -5.21589719282691, -3.956173419618753, 0
6339, -5.288691392385813, -3.823673419468754, 0
6340, -5.69761871028453, -3.7690663361818406, 0
6341, -5.3558006089641035, -3.8045021735095714, 0
6342, -5.341804851249001, -3.8825538284826204, 0
6343, -5.295032115440971, -3.718825207818986, 0
6344, -5.340505480938874, -3.750961362368593, 0
6345, -5.363386575127149, -3.6703431273994047, 0
6346, -5.391287580576158, -3.87296897914582, 0
6347, -5.313299384596797, -3.926856704421273, 0
6348, -5.421553699287683, -3.691204440139356, 0
6349, -5.266571566912275, -3.6062717136160574, 0
6350, -5.302581139945261, -3.657041294601397, 0
6351, -5.334252713176984, -3.596422325105304, 0
6352, -5.422035485787303, -3.588790370671883, 0
6353, -5.380600272546416, -3.6208572610031178, 0
6354, -5.47730235400261, -3.4569887378390214, 0
6355, -5.534402716907876, -3.560161901154605, 0
6356, -5.4283141642196755, -3.5139351092891102, 0
6357, -5.484098594905207, -3.5975532484030355, 0
6358, -5.4801814710039976, -3.5397496011040523, 0
6359, -5.364939954093301, -3.409873100386955, 0
6360, -5.41348738726792, -3.4516360926421683, 0
6361, -5.355267870619499, -3.4702149266066913, 0
6362, -5.2533598791945835, -3.500719686603816, 0
6363, -5.308887829551922, -3.500747627800124, 0
6364, -5.281164014221414, -3.4209234003158753, 0
6365, -5.453654007237526, -3.355845861201031, 0
6366, -5.293805091739444, -3.5559459670788027, 0
6367, -5.449090815968536, -3.410248850438163, 0
6368, -5.530428597113028, -3.389678397615967, 0
6369, -5.14347656408589, -3.4176898934435327, 0
6370, -5.293729489536508, -3.193094823109511, 0
6371, -5.51455532122387, -3.321672120734426, 0
6372, -5.421633449996013, -3.2274285079340492, 0
6373, -5.54202014427329, -3.271057535762453, 0
6374, -5.4751910670042845, -3.267553162006609, 0
6375, -5.5793869508651674, -3.3654193143141273, 0
6376, -5.555684367777418, -3.4642328271376854, 0
6377, -5.211799181906104, -3.441496155359093, 0
6378, -5.152545780522842, -3.5272723945926296, 0
6379, -5.214567752531821, -3.323606370359526, 0
6380, -5.19804069863074, -3.4953458870050738, 0
6381, -5.211871855359462, -3.5634332613268835, 0
6382, -5.232182412883992, -3.3829974416600255, 0
6383, -5.312653609197541, -3.3268229945097567, 0
6384, -5.184361609720272, -3.6549024440603466, 0
6385, -5.243016452106289, -3.681116567373408, 0
6386, -5.151802244649618, -3.595238320358918, 0
6387, -5.2159730530685735, -3.6145383146270977, 0
6388, -5.1885117259002325, -3.7243444378299495, 0
6389, -5.10983603023456, -3.5607921870219994, 0
6390, -5.090999166876173, -3.4928213795610135, 0
6391, -5.16402974035313, -3.774222884508365, 0
6392, -5.234687482230319, -3.777956526955951, 0
6393, -5.142546943485615, -3.472933372004289, 0
6394, -5.220634818093997, -3.8493114882999353, 0
6395, -5.262734305305984, -3.8931421802722315, 0
6396, -5.625365690410193, -3.4593860301399255, 0
6397, -5.513114231677478, -3.497173411904406, 0
6398, -5.318529015455942, -3.381108144525374, 0
6399, -5.629458059587305, -4.619713012100693, 0
6400, -4.096829326176881, -5.611428744155041, 0
6401, -5.25545105998143, -2.968065248959153, 0
6402, -3.0768768220497056, -5.229430197926271, 0
6403, -5.594476483217349, 4.000125680722816, 0
6404, 2.8129426711170162, -5.162968414492937, 0
6405, 3.0603275057608905, -5.271658709368588, 0
6406, 3.1951053983154036, -5.098588086168726, 0
6407, 4.0001256807228165, -5.594476483217346, 0
6408, 5.098588086168725, -3.1951053983154054, 0
6409, 5.2716587093685865, -3.0603275057608927, 0
6410, 2.8977044319222784, 5.191121970164368, 0
6411, 5.0028326947918735, 2.507328874818495, 0
6412, 5.123386878083842, 2.7346658535213355, 0
6413, 5.232150579918319, 2.977859972717072, 0
6414, 4.0968293261768824, 5.611428744155041, 0
6415, -4.457446475509228, -5.712696919258469, 0
6416, -4.576398630801422, -5.632146537315154, 0
6417, 4.457446475509228, 5.712696919258475, 0
6418, 4.576398630801425, 5.632146537315153, 0
6419, -3.5313572403557894, -0.3497202396978095, 0
6420, -0.34972023969780014, 3.531357240355815, 0
6421, -0.4081726680397576, 3.531734897049575, 0
6422, 0.3497202396978059, -3.5313572403557982, 0
6423, 3.531357240355815, 0.34972023969780014, 0
6424, -0.0022923213600479237, -3.535827899726868, 0
6425, -0.051792162564006816, -3.5889555831867437, 0
6426, 0.001564561901995866, -3.6616966422536303, 0
6427, 3.5358278997268786, -0.002292321360064427, 0
6428, 3.588955583186761, -0.05179216256400355, 0
6429, 3.6616966422536232, 0.0015645619019951928, 0
6430, -3.535827899726876, 0.002292321360058614, 0
6431, -3.5889555831867535, 0.05179216256400611, 0
6432, -3.6616966422536277, -0.0015645619019957063, 0
6433, 0.002292321360056633, 3.535827899726871, 0
6434, 0.05179216256400346, 3.5889555831867535, 0
6435, -0.0015645619019954635, 3.661696642253623, 0
6436, -3.751216073398065, 0.837897866949101, 0
6437, 4.973277496928293, -5.528898818835652, 0
6438, -0.8381763815561482, 3.856156806557047, 0
6439, -3.832394014185528, -0.820213073980993, 0
6440, 5.652350792527881, 4.506014460298353, 0
6441, -4.0284848311224595, -5.299176786230478, 0
6442, -4.965741512263968, -3.1578615766755274, 0
6443, 3.1578615766755274, -4.9657415122639685, 0
6444, 4.0284848311224595, -5.299176786230478, 0
6445, 4.965741512263966, -3.1578615766755282, 0
6446, 4.0284848311224595, 5.299176786230479, 0
6447, 5.63863401142912, -4.8450453321216935, 0
6448, -4.309968562837428, -5.5798646940754795, 0
6449, -4.209594175747051, -5.637480604629912, 0
6450, -4.2582451603714535, -5.692592043489399, 0
6451, -4.242751981125567, -5.52146533810426, 0
6452, -4.270363808531548, -5.627108630704813, 0
6453, -4.231209221195242, -5.580912328845287, 0
6454, -4.161901092870342, -5.586843067570503, 0
6455, -4.105709684827775, -5.536526004576308, 0
6456, -4.276681947358625, -5.741696192769247, 0
6457, -4.290999669822539, -5.533815339157135, 0
6458, -3.9466239039120605, -5.5556428192662395, 0
6459, -4.1680765880058095, -5.472996033850714, 0
6460, -4.02385198266889, -5.526821075790027, 0
6461, -4.162376498241541, -5.5297778473565575, 0
6462, -4.122037946298211, -5.490177788759674, 0
6463, -4.060340654422886, -5.569124909972533, 0
6464, -4.0097532617671, -5.649646820286088, 0
6465, -3.9374971017536633, -5.413310003001595, 0
6466, -3.963542528424427, -5.483098919964409, 0
6467, -3.8566611939182858, -5.496416971986157, 0
6468, -4.014000725280788, -5.4245132012751185, 0
6469, -3.9069501812094174, -5.464464775493728, 0
6470, -3.852195355136828, -5.4338377041750086, 0
6471, -3.869580516265947, -5.318583559730959, 0
6472, -3.844784634129629, -5.373781578369824, 0
6473, -3.758417107990953, -5.3018154532663715, 0
6474, -3.9026300478783327, -5.366598341278615, 0
6475, -3.8116559733829187, -5.325731250678726, 0
6476, -3.9479507716373923, -5.300021466762752, 0
6477, -3.818947446158458, -5.238284414656773, 0
6478, -4.027928247421209, -5.474800343383705, 0
6479, -4.073555234960262, -5.402699971883052, 0
6480, -4.141809060932703, -5.40962023540556, 0
6481, -4.024977154191377, -5.362276545086614, 0
6482, -4.204282705217915, -5.420858109774078, 0
6483, -3.894620275799244, -5.249579931513886, 0
6484, -3.9518356080380617, -5.230294287880797, 0
6485, -3.729108993331254, -5.213290417831216, 0
6486, -3.862534738947912, -5.198804433111118, 0
6487, -3.7838667512432544, -5.190423786566165, 0
6488, -3.7673646010992443, -5.249739135271985, 0
6489, 4.309968562837429, 5.579864694075489, 0
6490, 4.209594175747054, 5.637480604629946, 0
6491, 4.258245160371478, 5.6925920434894035, 0
6492, 4.2427519811255525, 5.521465338104269, 0
6493, 4.270363808531553, 5.627108630704832, 0
6494, 4.2312092211952335, 5.580912328845306, 0
6495, 4.161901092870348, 5.586843067570552, 0
6496, 4.105709684827817, 5.536526004576303, 0
6497, 4.276681947358624, 5.741696192769258, 0
6498, 4.290999669822531, 5.533815339157143, 0
6499, 3.946623903912432, 5.555642819266198, 0
6500, 4.168076588005821, 5.472996033850669, 0
6501, 4.023851982669095, 5.526821075789998, 0
6502, 4.162376498241628, 5.529777847356564, 0
6503, 4.122037946298228, 5.490177788759656, 0
6504, 4.060340654422989, 5.569124909972519, 0
6505, 4.009753261766994, 5.649646820286033, 0
6506, 3.9374971017538183, 5.413310003001419, 0
6507, 3.9635425284246404, 5.483098919964272, 0
6508, 3.8566611939183844, 5.4964169719862666, 0
6509, 4.0140007252809236, 5.424513201274941, 0
6510, 3.9069501812095084, 5.464464775493634, 0
6511, 3.8521953551367933, 5.433837704175116, 0
6512, 3.869580516265879, 5.318583559731609, 0
6513, 3.8447846341295695, 5.3737815783701945, 0
6514, 3.758417107991902, 5.301815453267126, 0
6515, 3.902630047878025, 5.366598341279112, 0
6516, 3.8116559733833615, 5.325731250679367, 0
6517, 3.947950771637361, 5.300021466763392, 0
6518, 3.81894744615945, 5.23828441465717, 0
6519, 4.027928247421156, 5.4748003433836185, 0
6520, 4.073555234960421, 5.402699971883093, 0
6521, 4.141809060932868, 5.40962023540546, 0
6522, 4.024977154191723, 5.362276545086554, 0
6523, 4.204282705217974, 5.420858109774155, 0
6524, 3.894620275799109, 5.249579931514176, 0
6525, 3.9518356080380093, 5.230294287880972, 0
6526, 3.7291089933318142, 5.21329041783168, 0
6527, 3.8625347389480105, 5.198804433110812, 0
6528, 3.7838667512438864, 5.19042378656685, 0
6529, 3.767364601100047, 5.249739135272501, 0
6530, -0.6348634484444082, 3.517268202248782, 0
6531, -4.280830578352737, -5.347639630536547, 0
6532, -4.315020718510497, -5.393139514737504, 0
6533, -4.2372677821192335, -5.378719515230655, 0
6534, -3.178652832628929, -4.924253789272317, 0
6535, -3.2435468367754017, -4.996876392693591, 0
6536, -3.2653683631895913, -4.951058091743826, 0
6537, -3.324320727422169, -5.039509626137482, 0
6538, -3.172817310333878, -5.122187573156641, 0
6539, -3.2955035623383155, -4.996272641468196, 0
6540, -3.188276570212231, -5.048296697934692, 0
6541, -3.2578321760562137, -5.067645703989182, 0
6542, -3.351860815502003, -5.197217596456485, 0
6543, -3.3198406679155394, -5.12155057425213, 0
6544, -3.0860282045007508, -5.065467167455379, 0
6545, -3.1097104306525924, -5.011861472302743, 0
6546, -3.4092018920973226, -5.085287579774183, 0
6547, -3.2466550638710703, -5.197129178067543, 0
6548, -3.140508179757036, -5.076865328501968, 0
6549, -3.004410902758025, -5.044069379735773, 0
6550, -3.3559841769858516, -5.0823814879263285, 0
6551, -3.379701738853955, -5.140827581351675, 0
6552, -3.506870318399617, -5.172768833163817, 0
6553, -3.4472311469344747, -5.141091399826434, 0
6554, -3.471916948423025, -5.083408468611331, 0
6555, -3.4368707070747146, -5.232577136575724, 0
6556, -3.4132999430709052, -5.183578319781816, 0
6557, -3.2557244401800878, -5.132687908082807, 0
6558, -3.2992766915934717, -5.174861190814647, 0
6559, -3.0166724971724537, -4.996417677992931, 0
6560, -3.021794293441058, -5.144118937049487, 0
6561, -3.035950147834613, -5.090124446843088, 0
6562, -2.935709871685525, -5.107540974504584, 0
6563, -2.9540219593050705, -5.0584453401935505, 0
6564, -2.294422400300669, -5.014720927684932, 0
6565, -5.071898385876649, 2.3608392125071624, 0
6566, -5.113111393538737, 2.333571979608524, 0
6567, -5.06077192988777, 2.310253989127363, 0
6568, -4.971477367139441, 2.4123389712519976, 0
6569, -5.114913730000381, 2.4376317050030347, 0
6570, -5.01145478076876, 2.366635252793345, 0
6571, -5.041706039657139, 2.433432417948933, 0
6572, -4.993068235738203, 2.4679108246917902, 0
6573, -4.9247247938754235, 2.462483545245879, 0
6574, -5.051984900586492, 2.49947779789257, 0
6575, -4.886496471853153, 2.3996103961020436, 0
6576, -4.937348089235501, 2.339060624135158, 0
6577, -4.880924461801255, 2.3199070562438346, 0
6578, -5.158447774205797, 2.410560223497764, 0
6579, -5.159698278691501, 2.480703548069282, 0
6580, -5.100904526216605, 2.4863155498951595, 0
6581, -4.959342214634565, 2.2923354639716607, 0
6582, -5.196783020663778, 2.5173416478025192, 0
6583, -3.2435468367754012, 4.996876392693589, 0
6584, -3.2653683631895913, 4.951058091743825, 0
6585, -3.207479254707671, 4.956513315344304, 0
6586, -3.189847830666741, 5.040786518851163, 0
6587, -3.333175330556613, 5.1612758805765955, 0
6588, -3.272867165395384, 5.087523222299699, 0
6589, -3.2404914694327998, 5.04793001573436, 0
6590, -3.3140705514655466, 5.024130365221139, 0
6591, -3.3455128794134654, 5.089653789230094, 0
6592, -3.4589471532215406, 5.146067534759, 0
6593, -3.370871020446191, 5.037179600360607, 0
6594, -3.415526930669234, 5.091123812504489, 0
6595, -3.395781319560398, 5.151356772045951, 0
6596, -3.4792816660652353, 5.085369185481645, 0
6597, -3.427122096711711, 5.036069586172865, 0
6598, -3.3851687323612, 5.286907034949503, 0
6599, -3.4335432361695335, 5.222503827141128, 0
6600, -3.347972795607782, 4.9872044199678385, 0
6601, -3.3652495514149137, 5.221576230241458, 0
6602, -3.2132370464867774, 5.263752416013805, 0
6603, -3.298909931136177, 5.277505050087694, 0
6604, -3.4535729454551767, 5.287917651837697, 0
6605, -3.416998371820311, 5.447994207929462, 0
6606, -3.4182384178333414, 5.364060946262652, 0
6607, -3.526253581548367, 5.210876798333322, 0
6608, -3.483206788247944, 5.243070310659986, 0
6609, -3.2666366081619955, 5.204825127661945, 0
6610, -3.2339478556358725, 5.408461733526456, 0
6611, -3.3341669425417013, 5.354431521048123, 0
6612, -3.5123334904301906, 5.407426915979645, 0
6613, -3.313511392071718, 5.22751590875112, 0
6614, -3.2759873737009184, 5.146505376405274, 0
6615, -3.186268586012884, 5.162029718224053, 0
6616, -3.207043473799324, 5.1019685863432205, 0
6617, -3.2460792006498966, 5.332888769362314, 0
6618, -3.3789528462488327, 5.335235400929609, 0
6619, -3.3395067345318568, 5.30544143410034, 0
6620, -3.370923430647135, 5.405337696791041, 0
6621, -3.3026413115880375, 5.415917392001746, 0
6622, -3.284252685474481, 5.367663998798374, 0
6623, -3.2603135937408463, 5.485723212136954, 0
6624, -3.455678596243078, 5.406589885769449, 0
6625, -3.4780257829461374, 5.3491720071931255, 0
6626, -3.2125733246383956, 5.209492126850487, 0
6627, -3.137681937673212, 5.237542416051725, 0
6628, -3.1815808515501445, 5.469461586380376, 0
6629, -3.27099753848638, 5.542211538385748, 0
6630, -3.3505795907650993, 5.505301891526759, 0
6631, -3.3431520807862727, 5.451738111885052, 0
6632, -3.097775652938645, 5.207071441825425, 0
6633, -3.0974584453899703, 5.328030304965411, 0
6634, -3.1001733230752206, 5.435522082584948, 0
6635, -3.1674121639234802, 5.537385461786201, 0
6636, -3.215366701929383, 5.504611204475838, 0
6637, -3.3698114551917433, 5.5642116152772605, 0
6638, -3.457426049611371, 5.532096952262247, 0
6639, -3.4830905528916905, 5.468973923332172, 0
6640, -3.572280120600001, 5.5420153756537, 0
6641, -3.5589626276754847, 5.467302527506893, 0
6642, -3.5163872689956563, 5.519290511247476, 0
6643, -3.4983029142276743, 5.5781624141911195, 0
6644, -3.097600374252836, 5.273909417960201, 0
6645, -3.158255637685377, 5.301129112446, 0
6646, -3.156940194030977, 5.380308170870203, 0
6647, -3.0478474859059537, 5.43923276999982, 0
6648, -3.0810575563569413, 5.485270341158424, 0
6649, -3.1321881410419024, 5.473333201086581, 0
6650, -3.0790725425065584, 5.3822748436167895, 0
6651, -3.407621535779256, 5.504269637603689, 0
6652, -3.7054333621950497, 5.479737599926601, 0
6653, -3.6295652226523445, 5.364225154572799, 0
6654, -3.185983159980836, 5.420262994276104, 0
6655, -3.206102304480819, 5.365231654535856, 0
6656, -3.6305367288122805, 5.493087852391682, 0
6657, -3.57783503053351, 5.404510909766078, 0
6658, -3.6381430070176672, 5.428595497012772, 0
6659, -3.5705867470132655, 5.341847754737836, 0
6660, -3.724905661232601, 5.384277090182674, 0
6661, -3.6410660232079115, 5.245002009296124, 0
6662, -3.5809162882846715, 5.275296614365968, 0
6663, -3.6332871752104796, 5.304417908748631, 0
6664, -3.729284725655262, 5.286768938547293, 0
6665, -3.6556893222272246, 5.58218233247051, 0
6666, -3.692191899054047, 5.427320308016176, 0
6667, -3.623036108751376, 5.543303081335166, 0
6668, 2.971422415452692, -4.972146431327804, 0
6669, 2.781976340299637, -4.857582130482387, 0
6670, 4.161941150773228, -5.424811948195439, 0
6671, 4.216536491873368, -5.405432034178303, 0
6672, 5.4068326628358445, -4.116747348712313, 0
6673, 5.362672700219033, -4.14293719640646, 0
6674, 5.419399332461762, -4.173401978273295, 0
6675, 5.363589729791256, -4.018005347573105, 0
6676, 5.363156438223703, -4.077034977868568, 0
6677, 5.4268010103004025, -4.050911830191318, 0
6678, 5.016749315748426, -2.292995348868477, 0
6679, 4.972146431327801, -2.9714224154526927, 0
6680, 3.162396297766896, 4.956692744219134, 0
6681, 3.184982253369989, 4.911623804100126, 0
6682, 3.241769057061588, 5.000609167587694, 0
6683, 3.0792157405630576, 5.1258433775985335, 0
6684, 3.2140051068168654, 4.957102841403272, 0
6685, 3.100851829305131, 5.0314555015472004, 0
6686, 3.112945235836164, 4.9786977702263, 0
6687, 4.995667173654103, 3.0172499499139573, 0
6688, 4.960520693914799, 3.16047794997241, 0
6689, 4.280830578352737, 5.347639630536548, 0
6690, 4.315020718510497, 5.393139514737507, 0
6691, 4.237267782119232, 5.378719515230673, 0
6692, 5.293846899461567, 4.029959115064026, 0
6693, 4.317704215488573, -5.475459206343941, 0
6694, 4.496393194733035, -5.670391874909971, 0
6695, 4.088870061985564, -5.679919106186653, 0
6696, 4.080936689887201, -5.748186663851211, 0
6697, 4.137218745013692, -5.701446450028112, 0
6698, 4.113113505955569, -5.5915121282980484, 0
6699, 4.014170088136844, -5.668697534096248, 0
6700, 4.124201568310208, -5.642080330974597, 0
6701, 4.059045507272359, -5.624212880318522, 0
6702, 3.935301554031345, -5.645182061857613, 0
6703, 3.982364116034573, -5.714631792724503, 0
6704, 3.8854331446810835, -5.514638484278853, 0
6705, 3.8814521456719215, -5.681644907405011, 0
6706, 3.8638635870064983, -5.597674981989159, 0
6707, 3.9314643998399412, -5.57348676086307, 0
6708, 3.99135386910702, -5.50037394512984, 0
6709, 3.976419776326916, -5.5492261367786115, 0
6710, 3.762820589878982, -5.527108354050044, 0
6711, 3.8264417087936233, -5.5436345736232555, 0
6712, 3.827808298837676, -5.47190889299799, 0
6713, 3.773433597899131, -5.61697584617643, 0
6714, 3.924202710391162, -5.402133063138417, 0
6715, 3.8870346735969536, -5.452257633169762, 0
6716, 3.9353232764397887, -5.484708349980297, 0
6717, 3.859004381282928, -5.392630215434457, 0
6718, 3.907037287313267, -5.2914918904989445, 0
6719, 3.8985890311021016, -5.349454746056095, 0
6720, 3.9720475326896683, -5.346303360794771, 0
6721, 3.8086746698030955, -5.306752357324554, 0
6722, 4.002414530035119, -5.4207430364432145, 0
6723, 3.9684387481668733, -5.284624543307092, 0
6724, 3.9321121765482623, -5.237757153325339, 0
6725, 3.8490241526796627, -5.231702653243263, 0
6726, 3.8170925915039975, -5.359506020664992, 0
6727, 3.72533888706906, -5.347098736323913, 0
6728, 3.9565571625864995, -5.439812286420835, 0
6729, 4.028202512608376, -5.4649085760368274, 0
6730, 3.867321405894119, -5.183975534692411, 0
6731, 3.757709675263526, -5.212210534135445, 0
6732, 3.8554355742133724, -5.28352120491569, 0
6733, 3.79693862947722, -5.252071094634026, 0
6734, 3.7314917332471986, -5.277247000770394, 0
6735, 3.642828093541955, -5.203701501603571, 0
6736, 3.698909487688645, -5.2263094139950255, 0
6737, 3.691855005699465, -5.162946860817689, 0
6738, 3.6354906960491684, -5.302764682586105, 0
6739, 3.6884475703921047, -5.308652335336067, 0
6740, 3.653845434098785, -5.378777647353885, 0
6741, 3.8082249417013, -5.199198254231371, 0
6742, 3.7176040117400673, -5.426155767763382, 0
6743, 3.543314872884943, -5.365244770213592, 0
6744, 3.600969614941601, -5.516524949755514, 0
6745, 3.766052779636852, -5.465058132263369, 0
6746, 3.601117503552218, -5.351287254575072, 0
6747, 3.590478605443491, -5.433896646475794, 0
6748, 3.4544934463280983, -5.476791596260056, 0
6749, 3.6563241634126475, -5.467516633904562, 0
6750, 3.7117946184618154, -5.493341123263883, 0
6751, 3.6903180733544914, -5.581231048635489, 0
6752, 3.660645574454584, -5.528163082060698, 0
6753, 3.5313316609014915, -5.483386468803603, 0
6754, 3.5317070605847234, -5.423745962972923, 0
6755, 3.479748377414338, -5.38303410805849, 0
6756, 3.486373963218748, -5.5562714922445, 0
6757, 3.4150129593311953, -5.538761593616071, 0
6758, 3.3060447369992185, -5.425777674034183, 0
6759, 3.367591418914151, -5.571882087711669, 0
6760, 3.348430219596307, -5.493938250498072, 0
6761, 3.464291736565714, -5.606945426409985, 0
6762, 3.558924400832532, -5.58037394504497, 0
6763, 3.6246059639345733, -5.583143866618744, 0
6764, 3.3909347378282373, -5.420247982049169, 0
6765, 3.427954079995824, -5.384010287894749, 0
6766, 3.3534209219917748, -5.344897219969737, 0
6767, 3.26921220335373, -5.495940833170756, 0
6768, 3.533673347393979, -5.535139041098683, 0
6769, 3.560645416617734, -5.651197498007157, 0
6770, 3.349969027873571, -5.4457224054833775, 0
6771, 3.3996893689730805, -5.474401078926226, 0
6772, 3.3700965501812536, -5.164565634108144, 0
6773, 3.1765777051319604, -5.402562547892604, 0
6774, 3.2685564041781676, -5.549998870826222, 0
6775, 3.3833022956009873, -5.25672360376508, 0
6776, 3.1933985998159353, -5.478513097330586, 0
6777, 3.3907047143187996, -5.308382321838253, 0
6778, 3.2387168618480473, -5.428638435858302, 0
6779, 3.24760395690754, -5.3203832553766635, 0
6780, 3.225498466349857, -5.373060907000908, 0
6781, 3.1558320535650695, -5.312849337598628, 0
6782, 3.129215420853484, -5.452889902376225, 0
6783, 3.0823967182332064, -5.481597828844302, 0
6784, 3.0515219595538285, -5.378713904889076, 0
6785, 3.1139641466792534, -5.391087538519433, 0
6786, 3.074206175239107, -5.427981141071274, 0
6787, 3.1674121639234794, -5.537385461786201, 0
6788, -0.7893424332064187, -3.665387665048923, 0
6789, -0.8459350391187107, -3.6863602835132316, 0
6790, -0.7378666638345237, -3.6557848170899843, 0
6791, -0.8034183472445283, -3.6133681828377497, 0
6792, -0.861189327214911, -3.779348929454028, 0
6793, 1.0848615517437379, -3.7287628805175035, 0
6794, 1.1491290183797591, -3.750447708129468, 0
6795, 1.1682353827730416, -3.8020547571675665, 0
6796, 1.0426329413358888, -3.7015966477608124, 0
6797, 1.1065135403748254, -3.6781880652637775, 0
6798, 1.0826424030586257, -3.861831644104274, 0
6799, -0.5079642110986742, 3.572275477778441, 0
6800, -3.9287673815572153, -1.4897582437791106, 0
6801, -2.856428569379276, -4.8602037934309275, 0
6802, -2.937907935356221, -4.889186112790988, 0
6803, -2.542413414399307, -4.661345778905064, 0
6804, -4.79645834592139, 2.785098961554015, 0
6805, -4.630727039813598, 1.9495014373741613, 0
6806, -2.0987961181819776, 4.3307461692006815, 0
6807, 2.8620293999620543, -4.856678204422941, 0
6808, 2.9337790448618137, -4.898370670643117, 0
6809, 4.814445415605655, -2.714499327406803, 0
6810, 4.830150612596412, -2.777416864047868, 0
6811, 4.898370670643117, -2.9337790448618173, 0
6812, 4.8566782044229395, -2.8620293999620543, 0
6813, 2.7131087028430554, 4.962535711955924, 0
6814, 2.7793567930036542, 4.936179775203006, 0
6815, 2.7251838883315047, 4.896449483816538, 0
6816, 2.6312313548885586, 4.913428899805233, 0
6817, 2.681398505746972, 4.922595373200638, 0
6818, 2.7802603660986804, 4.812958174694889, 0
6819, 2.8608353650963783, 4.843489377805283, 0
6820, 4.343037303761103, 2.113562215299842, 0
6821, 4.888520673282812, 2.254578715857442, 0
6822, 4.853459799840733, 2.2104535497169917, 0
6823, 4.9173893992256845, 2.21438302833641, 0
6824, 4.979038907805361, 2.3658649690573594, 0
6825, 4.821918522833334, 2.398072556669011, 0
6826, 4.95076945614802, 2.2964027543726053, 0
6827, 4.8355174856145915, 2.3171809715883405, 0
6828, 5.017179451988829, 2.2719838660680773, 0
6829, 4.8943008790625875, 2.31321173876766, 0
6830, 4.720162726303719, 2.339377162731024, 0
6831, 4.781975061713228, 2.349768647182939, 0
6832, 4.76059366575215, 2.2879160925021753, 0
6833, 4.67033200602832, 2.2586140903243583, 0
6834, 4.86126906110045, 2.8616705346158486, 0
6835, 4.957014554857516, 2.847559143916821, 0
6836, 4.899197531458305, 2.9175198252238634, 0
6837, 4.9064303206238336, 2.836217453695204, 0
6838, 4.955332220605864, 2.9443782368040607, 0
6839, 5.423343667572275, 4.191184322458527, 0
6840, -5.689854475902621, 4.279136893437394, 0
6841, -5.715309199313456, 4.323601338806985, 0
6842, -5.742081795455605, 4.276663687280448, 0
6843, -5.678493652780328, 4.18626151475714, 0
6844, -5.6200790824479725, 4.322404323223744, 0
6845, -5.709019784847151, 4.229659993490301, 0
6846, -5.6387389080938375, 4.368819735121098, 0
6847, -5.617791265278275, 4.2408193673659, 0
6848, -5.576256188178559, 4.351839320213046, 0
6849, -5.598104879500274, 4.1578674188108575, 0
6850, -5.58061714239728, 4.282686365092924, 0
6851, -5.580022447046929, 4.205970779703855, 0
6852, -5.630559478783592, 4.193977191606488, 0
6853, -5.666876144450524, 4.0911582038806715, 0
6854, -5.525544423279111, 4.129443291572629, 0
6855, -5.6490611449594015, 4.141595659532913, 0
6856, -5.47500771060117, 4.129040201474753, 0
6857, -5.587070382095465, 4.07920863630766, 0
6858, -5.63319371873128, 4.043639808828651, 0
6859, -5.666703642418111, 3.974842303901474, 0
6860, -5.526416726820488, 4.033640167392217, 0
6861, -5.686591486772589, 4.0270890530425945, 0
6862, -5.7347585683303475, 3.9793889414180272, 0
6863, -5.64736790381793, 3.887545070211708, 0
6864, -5.5104234479676055, 3.9152980805628768, 0
6865, -5.450071733782137, 3.995441195337924, 0
6866, -5.614206206798826, 3.9406801422820803, 0
6867, -5.5743265082056555, 3.8788754740929448, 0
6868, -5.555875744242421, 3.954317382943057, 0
6869, -5.502717880763269, 3.82750883865916, 0
6870, -5.677702058650797, 3.9266162465351817, 0
6871, -5.399746133022405, 3.9837432684332885, 0
6872, -5.452935657980918, 3.9348024067853125, 0
6873, -5.42536833222344, 3.856815882227468, 0
6874, -5.5052099742186416, 3.9806327112914777, 0
6875, -5.595784465844475, 3.7733646064169, 0
6876, -5.616855857991655, 3.8325873457385145, 0
6877, -5.560262282307693, 3.8193633241445935, 0
6878, -5.522452637300858, 3.7534498579204154, 0
6879, -5.476134496931695, 3.8740749479223124, 0
6880, -5.4525233785987295, 3.811758551547542, 0
6881, -5.349651743109368, 3.868882816971018, 0
6882, -5.583618170176303, 3.673192593950004, 0
6883, -5.284852893430922, 3.817547083045717, 0
6884, -5.289899187070905, 3.9485739178985217, 0
6885, -5.56934487423325, 3.725750972532236, 0
6886, -5.6274890383814915, 3.713323910976971, 0
6887, -5.675281837965269, 3.6638721852983736, 0
6888, -5.282955720211959, 3.766695802240896, 0
6889, -5.217508507843331, 3.817491644485969, 0
6890, -5.191086199755567, 3.865026131864835, 0
6891, -5.243236829652794, 3.903554501423741, 0
6892, -5.221808659289982, 3.954392308388578, 0
6893, -5.298606875636033, 3.8928561142861753, 0
6894, -5.25943927171012, 3.9934411553343323, 0
6895, -1.391382221204778, 3.773668479982995, 0
6896, -5.552318225148187, -4.461555245542236, 0
6897, 1.0393139638450706, 3.9123723250701667, 0
6898, -3.5367214526772175, -0.6266564572275386, 0
6899, -3.5769030775633173, -0.5731474135838348, 0
6900, -3.53469490519138, -0.4755401721989568, 0
6901, -3.5250338295301455, -0.4128422186931116, 0
6902, -3.5719754024672, -0.5173486484948085, 0
6903, -3.5087654848268133, -0.551047781757716, 0
6904, -3.613924921798042, -0.45227685280139673, 0
6905, -3.4780204896044813, -0.4521797755761422, 0
6906, -3.545869663919159, -0.6758212347815196, 0
6907, -3.6654739143848687, -0.4828120490506596, 0
6908, -3.4817426470463113, -0.5052366862856683, 0
6909, -4.87929339570025, -2.2137171005052463, 0
6910, -3.998707731681162, -1.4078372484837554, 0
6911, -1.8863707319682703, -4.362963421470986, 0
6912, -4.289575699058288, 1.4797833612224693, 0
6913, -4.612800757454522, 1.8769007646327232, 0
6914, -2.3442578435445562, 4.492431488776016, 0
6915, 4.021929393464306, -1.722067688806015, 0
6916, 4.240052423691966, -1.6579885209991245, 0
6917, 4.061302933737431, 1.378898002112939, 0
6918, 4.026348988415517, 1.4192531999570923, 0
6919, 4.809907631606559, 2.777423888532303, 0
6920, 4.76723918406689, 2.7198915286605088, 0
6921, -3.033153383156677, 0.08636338372245884, 0
6922, -3.0937350943783857, 0.1409483835192032, 0
6923, 0.08636338372245878, 3.033153383156677, 0
6924, 0.14094838351920352, 3.0937350943783857, 0
6925, -0.08636338372245907, -3.0331533831566766, 0
6926, -0.14094838351920339, -3.0937350943783852, 0
6927, 3.033153383156677, -0.08636338372245914, 0
6928, 3.0937350943783857, -0.14094838351920388, 0
6929, -0.3603830979451388, -3.401541995763543, 0
6930, 3.4015419957635498, -0.36038309794514123, 0
6931, -3.401541995763543, 0.36038309794513856, 0
6932, 0.36038309794513856, 3.401541995763543, 0
6933, 5.710762886056903, -4.430552649617942, 0
6934, 3.8340735323251045, -1.1482766344071842, 0
6935, 3.815751495716058, -1.0998866700499166, 0
6936, -3.9404807759672855, 1.238425789949385, 0
6937, -3.9351818454933545, 1.3667343937660712, 0
6938, -3.9227096213655233, 1.4233129564196922, 0
6939, -3.9256406196824045, 1.3146147841908913, 0
6940, -3.8845558834697056, 1.3590134393073294, 0
6941, -4.012804428853631, 1.3580202740972427, 0
6942, -3.978630329649442, 1.403683957343038, 0
6943, -4.028525437083507, 1.442371701536453, 0
6944, -4.060790387221732, 1.3810901323840545, 0
6945, -4.04823122221953, -1.2928737750975055, 0
6946, -2.791237431371377, -5.208067965872708, 0
6947, -2.8186741004540607, -4.948903971407732, 0
6948, -2.788891364234137, -5.013658888933209, 0
6949, -2.8571794115001903, -5.005840170588912, 0
6950, -2.804781064533498, -5.110685831332187, 0
6951, -2.8840831944063865, -5.066235729504555, 0
6952, -2.777968469310907, -5.0652622525596955, 0
6953, -2.831136999456512, -5.053631067593551, 0
6954, -2.696350421901745, -5.000393415692438, 0
6955, -2.6433772869050616, -5.161655409848498, 0
6956, -2.480533086684563, -5.045923392466272, 0
6957, -4.439278952062025, 2.2719167862052787, 0
6958, -4.496103914798086, 2.289154817832864, 0
6959, -2.153230468525619, 4.823756504300821, 0
6960, -1.969005181728722, 4.653934391528746, 0
6961, -1.9470612354662111, 4.7005892689192805, 0
6962, -1.8838197615573828, 4.607100307974139, 0
6963, -1.9338975480443523, 4.616902919194349, 0
6964, -1.9034089098706177, 4.481039446409603, 0
6965, -1.5813124691143787, 4.318640664393438, 0
6966, 2.6446853606892806, -4.832949254550801, 0
6967, 2.705223607227837, -4.808515631824747, 0
6968, 2.702516105254211, -4.751544186518322, 0
6969, 2.3651935308626864, 5.065317059622663, 0
6970, 2.423624662623352, 5.060318727392327, 0
6971, 2.4149339101248204, 5.123630492933521, 0
6972, 2.328716128521834, 5.018848042967045, 0
6973, 4.691505652013267, 1.9577498407507332, 0
6974, 0.06241335182609518, -3.577013046181297, 0
6975, 0.14024378885366703, -3.558640597044594, 0
6976, 0.1785522870312191, -3.5904887514184964, 0
6977, 3.577013046181336, 0.06241335182610171, 0
6978, 3.558640597044585, 0.14024378885366012, 0
6979, 3.5904887514184893, 0.17855228703121354, 0
6980, 3.63683575178904, -0.6623579693992041, 0
6981, -3.5770130461813197, -0.06241335182609559, 0
6982, -3.5586405970445862, -0.14024378885366134, 0
6983, -3.5904887514184907, -0.17855228703121723, 0
6984, -3.70361649290932, 0.5909042179820654, 0
6985, -3.6144521615826526, 0.5143421721463552, 0
6986, -0.06241335182610476, 3.5770130461813143, 0
6987, -0.1402437888536665, 3.5586405970445916, 0
6988, -0.17855228703121695, 3.590488751418495, 0
6989, -3.740145209389782, -0.9449619715866946, 0
6990, -3.6816221250641936, -0.9217125119987452, 0
6991, -0.5715274303484223, -3.5703227157595823, 0
6992, -0.5520974480465576, -3.6185794915863463, 0
6993, -0.5777036600203322, -3.51811966395063, 0
6994, -4.035583430012822, 1.2990000854916253, 0
6995, -4.361311191189721, -1.964475733731342, 0
6996, -4.824793322404165, -2.7898726869843506, 0
6997, -4.8632600216949955, -2.8439016966418214, 0
6998, -4.1690761265497125, -1.5370765371084196, 0
6999, -4.2312186746920695, -1.5335026980653244, 0
7000, -2.0042879003161227, -4.7438263713198205, 0
7001, -2.1492304167204486, -4.545616655274481, 0
7002, -4.172173340324892, 1.86677628565631, 0
7003, -4.249203712165658, 1.57644441742986, 0
7004, -4.2742278368496045, 1.5340295657204133, 0
7005, -2.586386988074469, 5.037099868193209, 0
7006, -2.6117703533318513, 5.080058268466363, 0
7007, 1.4316454049018994, -4.16754530465759, 0
7008, 2.0315277394688005, -4.6094303971703905, 0
7009, 4.451861633105312, -1.8892643646299496, 0
7010, 5.08299196287908, -2.4574821357179544, 0
7011, 4.967158458148848, -2.5143523370673853, 0
7012, 5.030354608341827, -2.496670339753585, 0
7013, 5.010679031965482, -2.4152970392405937, 0
7014, 4.987693691758552, -2.463920125226955, 0
7015, 5.079965553345986, -2.3795986436334955, 0
7016, 4.956384911360176, -2.3991680316973687, 0
7017, 4.999511598027986, -2.3534412678554917, 0
7018, 5.108739538524442, -2.336464473887304, 0
7019, 4.573333883102776, 2.111927662020421, 0
7020, 4.546987681595374, 2.0412137346166577, 0
7021, 4.60918750810711, 2.0313065242342097, 0
7022, 4.6524383839004635, 2.098823877290994, 0
7023, 4.683854150062816, 2.0591160499965846, 0
7024, 4.703115269132167, 2.136341935112018, 0
7025, 4.7059276681021895, 2.2026269428581853, 0
7026, 4.75133237329626, 2.23368847503024, 0
7027, 4.619366398171609, 2.186901908934501, 0
7028, 4.617981244574948, 2.136133770209494, 0
7029, 4.599752019773625, 2.2548084165229243, 0
7030, 4.536960759248361, 2.18587854078324, 0
7031, 4.49874444758198, 2.2241275794432904, 0
7032, 4.463199943612376, 2.1503971627210845, 0
7033, 4.424716835179686, 2.1836037515360185, 0
7034, 4.4178643406588884, 2.114122239789928, 0
7035, 4.44051719351766, 2.058169962285879, 0
7036, 4.506218215795737, 2.0966683195427995, 0
7037, -1.5703028045882637, -4.052514099673698, 0
7038, -1.579769471052367, -4.111010818947519, 0
7039, -1.5223895888858352, -4.1001305259844925, 0
7040, -4.3349630493792, -1.8426626271300597, 0
7041, -4.5443660870293705, -1.970218726317828, 0
7042, -4.574774019976968, -1.8356036510695404, 0
7043, -4.306257808812076, -1.7370672791613588, 0
7044, -2.5370764333580333, -4.929976847162264, 0
7045, -5.07370248146193, 3.008205410514453, 0
7046, -4.2391806821897715, 1.71514726391385, 0
7047, -4.234603449042955, 1.7795846680134366, 0
7048, -2.4187380827972547, 5.145296839404524, 0
7049, 5.671557400889077, -3.988731446784499, 0
7050, 5.683255680431045, -4.0432270615869825, 0
7051, 5.7347585683303475, -3.979388941418028, 0
7052, 5.653791908544746, -3.916676057500391, 0
7053, 5.697149291073551, -3.8786961568210225, 0
7054, 5.619651365212463, -3.833963562773216, 0
7055, 5.604518702370926, -3.8886119455585737, 0
7056, 5.625868332199841, -4.009793877907889, 0
7057, 5.191903771094063, -2.799016837423808, 0
7058, 3.8425926444137404, 1.2634858670917606, 0
7059, 3.763764765389015, 1.2639492707581583, 0
7060, 3.750897706789152, 1.1934326318341288, 0
7061, 3.7759661360921117, 1.1465513810271417, 0
7062, 3.7003701570656933, 1.2390845485079307, 0
7063, 3.694028891070857, 1.1812781251710032, 0
7064, 1.5912335457930258, -4.000136999921982, 0
7065, 1.5263862359892462, -3.964103064799095, 0
7066, -4.511976760365602, -1.8912665507857331, 0
7067, 2.387131402483, -4.7864264485135, 0
7068, 5.158542433212686, -2.616604841112509, 0
7069, 2.2604995790939024, 4.779707747406526, 0
7070, 2.538117170543197, 4.800097399089088, 0
7071, 2.5587395592427913, 4.708775260936834, 0
7072, 2.517849454617031, 4.680761745439346, 0
7073, 2.5170607619924974, 4.747352889867154, 0
7074, 2.4593795014232707, 4.766011737938491, 0
7075, 2.4863353706127613, 4.8117284427220435, 0
7076, -4.041192659245341, 5.253234967925255, 0
7077, -3.9413761034125936, 5.265009138793115, 0
7078, -3.9563400749329545, 5.215344067741795, 0
7079, -3.851792752989127, 5.24376994377413, 0
7080, -3.9023620731377062, 5.230020407211583, 0
7081, -4.882267569364756, 2.7139946513663817, 0
7082, -2.2693952887525777, 5.016856844543217, 0
7083, -2.3141269422840103, 4.969519883981766, 0
7084, 5.310976036668163, -3.723859352729136, 0
7085, 2.7090718993974683, 5.1790717920567575, 0
7086, 2.5804240894792225, 5.224550173909291, 0
7087, 2.6307391928062134, 5.162183327465361, 0
7088, 2.659396843778119, 5.243249185236899, 0
7089, 2.5911280198185302, 5.127183210227496, 0
7090, 2.6893958395294386, 5.080226953585217, 0
7091, 2.7611845637086017, 5.270722039593456, 0
7092, 2.6471642223056673, 5.293654996947154, 0
7093, 2.6778214474189865, 5.133911730922647, 0
7094, 2.716018877147572, 5.2357625642886925, 0
7095, 2.496281819132339, 5.190096171372143, 0
7096, 2.4633652569719953, 5.147368993701589, 0
7097, 5.366735042179808, 4.140527952581741, 0
7098, 5.459294992439672, 4.074956939987849, 0
7099, -4.99463866854262, 3.2378497102999027, 0
7100, -4.953161250103033, 3.209993866918482, 0
7101, -4.951544362451168, 3.2651367708156984, 0
7102, -5.002469302290409, 3.2951482466182678, 0
7103, -5.052874726457129, 3.2333238864224727, 0
7104, -5.44212083684391, 3.199661761128305, 0
7105, -5.3555773376785645, 3.0274398695409346, 0
7106, -4.49748401720877, 2.3665929526588774, 0
7107, -3.102464428290351, 5.008878902758998, 0
7108, -3.0500147956437003, 5.019583854630999, 0
7109, 2.5371043121808685, -4.935747488116778, 0
7110, 2.4668310673876213, -4.88053860581027, 0
7111, 2.4134833236724273, -4.895395043596134, 0
7112, 2.4811479590180068, -4.9346436746803235, 0
7113, 2.5234776008482944, -4.851085088780339, 0
7114, -3.869191026837126, 5.488567021341272, 0
7115, -3.801077037688891, 5.621742713212058, 0
7116, -5.109790283895343, 3.320320676616144, 0
7117, -5.047373859809966, 3.4209456368048925, 0
7118, -5.109088982280303, 3.4387933831887203, 0
7119, -4.995775724478629, 2.806765924318906, 0
7120, -4.931283912055245, 2.896377204141599, 0
7121, -5.020882092548867, 2.894621624400816, 0
7122, -5.03842060518858, 2.955539156335427, 0
7123, -5.0760119381178495, 2.911732906405654, 0
7124, -5.320344806287943, 2.7372015116218757, 0
7125, -5.319622074117982, 2.813173872287705, 0
7126, -5.262651044621097, 2.809619069844833, 0
7127, -5.361317484473002, 2.847162932992379, 0
7128, 5.527973102631101, 3.953972358611256, 0
7129, -5.286951395354583, -2.753272890783273, 0
7130, -5.3374153415461105, 3.244838800066373, 0
7131, -5.387456850550886, 3.286749326150736, 0
7132, -5.448542358192007, 3.264392284286127, 0
7133, -5.392874626326361, 3.229450210398958, 0
7134, -5.509141349824917, 3.307708839561227, 0
7135, -5.495059429182205, 3.227093827097967, 0
7136, -5.491331493184659, 3.1694913585572366, 0
7137, -5.4330586817015885, 3.1000962573498025, 0
7138, -5.2962809557929065, 3.201443115219674, 0
7139, -5.543463744446485, 3.3758164341967514, 0
7140, -5.548094736276561, 3.2691533028224935, 0
7141, -5.535221384631544, 3.479709971285527, 0
7142, -5.559765847407289, 3.4293834772136385, 0
7143, 2.513684745581449, -5.160299976494427, 0
7144, 2.4152083468258763, -5.061231927446209, 0
7145, -5.138224777730129, 3.0405087149278294, 0
7146, -5.208863384841446, 3.1205933296820705, 0
7147, -5.2783028817684645, 3.06784668492995, 0
7148, -5.245002076982801, 3.0045270694954422, 0
7149, -5.300316807860869, 3.015852684621344, 0
7150, -5.306331923350468, 2.950736681500602, 0
7151, -5.378997533315361, 2.9407255805046004, 0
7152, -5.4139187718004855, 2.901450850559953, 0
7153, -5.347201001965685, 2.9786576882938043, 0
7154, -5.418320260928789, 2.9978659061892654, 0
7155, -5.405447658429172, 3.0518993184001593, 0
7156, -5.3539180601980725, 3.0938929394630774, 0
7157, 5.410781784452407, 3.952157461257746, 0
7158, 5.433448521230208, 3.9057372330936904, 0
7159, 5.46180114834625, 3.9631185970907334, 0
7160, 5.380529419638549, 4.030006938821688, 0
7161, 5.312186736615087, 3.9307470134507567, 0
7162, 5.361654433547795, 4.08160027654333, 0
7163, 5.366229391819997, 3.9196009220347565, 0
7164, 5.35006681449843, 3.977823428031935, 0
7165, 5.515308776560567, 3.383965221723943, 0
7166, 5.5955481378550935, 3.4673270758909083, 0
7167, 5.5545730661400174, 3.4264694994109384, 0
7168, 5.270534685588529, 3.635624473348929, 0
7169, 5.473182268802826, 3.544524426510301, 0
7170, 5.391127551826261, 3.791297997022724, 0
7171, 5.436057111291803, 3.7729375797989593, 0
7172, 5.424469335401453, 3.8304516887307605, 0
7173, 5.305795783159291, 3.835060807394662, 0
7174, 5.3390288014137575, 3.7071108807341644, 0
7175, 5.358631244562371, 3.8330087502457206, 0
7176, 5.383903010748975, 3.7375547901188866, 0
7177, 5.327494899557658, 3.7724059728415877, 0
7178, 5.2309490791273845, 3.7740543847816377, 0
7179, 5.279523288881994, 3.790876988160011, 0
7180, -5.17463117909814, 3.77058940812598, 0
7181, -5.187419888559438, 3.7063287725208642, 0
7182, -5.39236314434481, 3.745028705765571, 0
7183, -5.353384606194744, 3.5414608456845773, 0
7184, -5.415699153343069, 3.495816816747031, 0
7185, -5.368488189909685, 3.4650234571984675, 0
7186, -5.466817133695262, 3.53617956113727, 0
7187, -5.469951294526629, 3.446883575480421, 0
7188, -5.454315470734556, 3.3875551032277587, 0
7189, -5.495665674463599, 3.357201896471841, 0
7190, -3.4981298146474673, -5.479888020722406, 0
7191, -3.3077197953570323, -5.4250658240945056, 0
7192, 5.148748402377902, -3.479026042528694, 0
7193, 5.4449034341749005, -3.507446950983174, 0
7194, 5.4036995152558545, -3.314417599764969, 0
7195, 3.3864485112285823, 5.12780609325083, 0
7196, 3.3216295429348284, 5.380693079757166, 0
7197, 3.1364782741552975, 5.333284780503511, 0
7198, 3.500506517366764, 5.470963823524358, 0
7199, 3.5661297603742073, 5.184233913434414, 0
7200, 5.073765571573968, 3.3088304155285764, 0
7201, 5.369354993714573, 3.2242949251449797, 0
7202, -3.8232637800200795, -0.06844715261151323, 0
7203, -3.7566768493430955, -0.04021770197656732, 0
7204, -3.7204378591249845, 0.0067556018496956905, 0
7205, -3.8082014564023545, 0.06109221188045836, 0
7206, -3.7735949769565993, 0.018942564123847955, 0
7207, -0.0684471526115134, 3.8232637800200795, 0
7208, -0.04021770197656584, 3.7566768493430938, 0
7209, 0.006755601849693099, 3.720437859124979, 0
7210, 0.06109221188045828, 3.8082014564023545, 0
7211, 0.018942564123847132, 3.773594976956596, 0
7212, 0.06844715261151313, -3.8232637800200795, 0
7213, 0.04021770197656736, -3.7566768493430955, 0
7214, -0.0067556018496955535, -3.7204378591249863, 0
7215, -0.06109221188045852, -3.808201456402355, 0
7216, -0.01894256412384828, -3.7735949769566006, 0
7217, 3.823263780020079, 0.06844715261151321, 0
7218, 3.7566768493430933, 0.04021770197656627, 0
7219, 3.7204378591249796, -0.006755601849693775, 0
7220, 3.808201456402355, -0.06109221188045871, 0
7221, 3.7735949769565966, -0.01894256412384784, 0
7222, -5.650784417821635, -3.825127402560984, 0
7223, -5.06381081115615, -3.413895881371979, 0
7224, -5.108337306969827, -3.317237397246869, 0
7225, -5.1056071436793395, -3.3745647093523226, 0
7226, -5.037048716271585, -3.342571007104383, 0
7227, -5.15977417978135, -3.3484157003749493, 0
7228, -4.987209292616768, -3.347970592228172, 0
7229, -5.039189554575298, -3.2356257219385185, 0
7230, -5.004428609218216, -3.287740034734073, 0
7231, -4.974666601358962, -3.2302382117549606, 0
7232, -5.060618292464781, -3.287569142119508, 0
7233, -5.130526687673587, -3.2283373179481107, 0
7234, -5.403777011165282, -3.1107736611272685, 0
7235, -5.484034896483206, -3.185472742472059, 0
7236, -5.426320834668027, -3.167016934508736, 0
7237, -5.362462776047263, -3.1924497699260868, 0
7238, -5.462234074016983, -3.1199822144499443, 0
7239, -5.358156061428169, -3.267271554234325, 0
7240, -5.384541630642984, -3.334592036882138, 0
7241, -5.41913790379733, -3.2865656809366666, 0
7242, -5.289416537220284, -3.261908236131376, 0
7243, -5.264189816846107, -3.30755484833184, 0
7244, -5.214712525816144, -3.2226842185280207, 0
7245, -5.40714661971861, -3.380670395047667, 0
7246, -5.175814536749605, -3.2730895989410835, 0
7247, -5.163889292945457, -3.0954991180203524, 0
7248, -5.168712015486381, -3.167319001073148, 0
7249, -5.070397495966391, -3.13784897984982, 0
7250, -5.2423344635919955, -3.126303370832655, 0
7251, -5.125072127407504, -3.1341775651069983, 0
7252, -5.09329139859654, -3.069842057816896, 0
7253, -5.0215326238830285, -3.0835421001363312, 0
7254, -5.159184428047618, -2.9947567211550448, 0
7255, -5.016101977891557, -3.1375660891990638, 0
7256, -5.019508051203085, -3.034357329672415, 0
7257, -5.111790536334928, -3.019620729715256, 0
7258, -5.0104591547507455, -3.190642394419044, 0
7259, -5.243301294876364, -3.178728987528125, 0
7260, -5.228787018842185, -3.045517714563561, 0
7261, -5.322950107278854, -3.1174404148091575, 0
7262, -5.176261586203478, -3.0444402464007925, 0
7263, -5.2114250785605245, -2.996224677612795, 0
7264, -5.187689628369518, -2.9106193640298055, 0
7265, -5.365731541398241, -3.1428161634123253, 0
7266, -5.277907921574062, -3.0788090829502863, 0
7267, -5.356639559240264, -3.032586086963525, 0
7268, -5.3608278085763335, -3.083363908177848, 0
7269, -5.5792516966362875, -3.5197863667924154, 0
7270, -5.618307408162159, -3.568674060789416, 0
7271, -5.577648667796451, -3.6569097012997025, 0
7272, -5.537019773461745, -3.6955609861016767, 0
7273, -5.52555479492038, -3.635614346661977, 0
7274, -5.621511928051289, -3.7063354138597817, 0
7275, -5.630892853457651, -3.653833969383815, 0
7276, -5.572632373902531, -3.601112668776883, 0
7277, -5.135732267935137, -3.6845962790677245, 0
7278, -4.087817753289772, -5.688974340667037, 0
7279, -4.080936689887201, -5.748186663851209, 0
7280, -4.037283192879305, -5.692142488914227, 0
7281, -4.060287822177568, -5.6464786720388975, 0
7282, -4.145827047665206, -5.656419184458186, 0
7283, -4.1921258403104495, -5.705304759308137, 0
7284, -5.350054163972963, -2.9282973442752716, 0
7285, -3.02807275869079, -5.353962408926224, 0
7286, 2.7643101778074257, -5.264017914818438, 0
7287, 5.068437428676209, -3.3112397664966577, 0
7288, 5.375981547573629, -3.019443477727835, 0
7289, 2.941764417118576, 5.318017603264425, 0
7290, 5.095125821627921, 2.4499367413328867, 0
7291, 4.9647113779318754, 2.6520547652136446, 0
7292, 5.223280316662504, 2.6833301197284922, 0
7293, 5.283311853715274, 2.8562072550039725, 0
7294, 5.355086758388998, 3.0276321271306643, 0
7295, 4.087817753289773, 5.688974340667037, 0
7296, 4.080936689887201, 5.74818666385121, 0
7297, 4.037283192879261, 5.69214248891418, 0
7298, 4.060287822177505, 5.6464786720388895, 0
7299, 4.145827047665203, 5.656419184458186, 0
7300, 4.192125840310467, 5.705304759308122, 0
7301, -4.042793668256239, -5.247446939918222, 0
7302, -4.917567576601751, -3.1820035771135227, 0
7303, 3.1820035771135227, -4.917567576601752, 0
7304, 3.098349651064145, -5.039021284659333, 0
7305, 3.2416982060305943, -5.000757932334898, 0
7306, 4.042793668256239, -5.247446939918222, 0
7307, 4.9175675766017495, -3.182003577113524, 0
7308, 5.000757932334899, -3.2416982060305957, 0
7309, 5.039021284659331, -3.0983496510641464, 0
7310, 4.042793668256239, 5.247446939918223, 0
7311, -4.000484155285871, -5.587671997808217, 0
7312, -3.96423619379374, -5.358650772747651, 0
7313, -3.675650783953867, -5.160356117326741, 0
7314, -3.600329994794466, -5.289883184122325, 0
7315, -3.589962967598176, -5.148918732863636, 0
7316, -3.654787135599661, -5.234887062373027, 0
7317, -3.534807323777139, -5.113429542667068, 0
7318, -3.5997421806355816, -5.096809993774331, 0
7319, -3.5658428970748552, -5.221556048310473, 0
7320, -3.7053661058239036, -5.270265068973412, 0
7321, -3.672587276599855, -5.385758671090719, 0
7322, -3.704337574267471, -5.332371520724218, 0
7323, -3.7566690073718254, -5.361855841292927, 0
7324, -3.6436401812023558, -5.332408501826216, 0
7325, -3.571057946887129, -5.406318901015177, 0
7326, -3.618672643639102, -5.380483797055732, 0
7327, -3.637022521933776, -5.471098097110429, 0
7328, -3.628443563394018, -5.1873269540078235, 0
7329, -3.5131625931305974, -5.291012632906367, 0
7330, -3.5574011565909456, -5.340988202657977, 0
7331, -3.493648506622136, -5.388407879530684, 0
7332, -3.458931157460684, -5.282795691593961, 0
7333, -3.507516296217466, -5.2320237775649465, 0
7334, -3.488534712108362, -5.336730738996525, 0
7335, -3.5241624686309008, -5.432762934751896, 0
7336, -3.568363453957012, -5.487933239564136, 0
7337, -3.624233864727651, -5.567366218300784, 0
7338, -3.5247826621189473, -5.557799927767347, 0
7339, -3.6118187508185438, -5.516733433210394, 0
7340, -3.403988553842932, -5.4234967485098595, 0
7341, -3.469022211044914, -5.589183134664389, 0
7342, -3.407485256091255, -5.517730647806146, 0
7343, -3.5701158775360358, -5.6082463379415, 0
7344, -3.440871370521619, -5.385645533404678, 0
7345, 4.000484155286092, 5.58767199780822, 0
7346, 3.964236193794284, 5.3586507727479065, 0
7347, 3.6391258458605447, 5.292195329996839, 0
7348, 3.675650783953661, 5.160356117327307, 0
7349, 3.662038430574948, 5.227563998853155, 0
7350, 3.7061263608357877, 5.270013370221051, 0
7351, 3.5981018396235362, 5.241274766984407, 0
7352, 3.623616505046637, 5.184799511796287, 0
7353, 3.579586338051247, 5.298177446239822, 0
7354, 3.62211042268338, 5.422129186136042, 0
7355, 3.5571817341642253, 5.375134018841209, 0
7356, 3.532991259104232, 5.24028923172701, 0
7357, 3.410177964274393, 5.248590751532361, 0
7358, 3.472865598471775, 5.166921460494102, 0
7359, 3.4727230609437725, 5.261282293667769, 0
7360, 3.4272673045553033, 5.3590626010025755, 0
7361, 3.4319448566220663, 5.30178127686796, 0
7362, 3.350263557671177, 5.304158264993351, 0
7363, 3.6206100605764133, 5.355851655778646, 0
7364, 3.696042608957496, 5.345484347341715, 0
7365, 3.5590449891311042, 5.440910175146263, 0
7366, 3.6238357525211558, 5.543198204475372, 0
7367, 3.558900217981909, 5.512665607954603, 0
7368, 3.612583415897018, 5.4828117563938665, 0
7369, 3.712775998244186, 5.467452590165787, 0
7370, 3.6670892232566996, 5.503896808483725, 0
7371, 3.762359638859927, 5.576469823736073, 0
7372, 3.690031802905326, 5.572598628306742, 0
7373, 3.5635142904584525, 5.587170057122048, 0
7374, 3.7287960456668325, 5.52595081868533, 0
7375, 3.794470893395792, 5.518726972092302, 0
7376, 3.7234897014673494, 5.625092388721027, 0
7377, 3.7940064875799764, 5.641617023574468, 0
7378, 3.669528461886221, 5.649886413978837, 0
7379, 3.6281599425981406, 5.604475031015877, 0
7380, 3.804494212767577, 5.46347193167443, 0
7381, 3.769066336181841, 5.69761871028453, 0
7382, 3.8516882871693108, 5.580389101874707, 0
7383, 3.4926506927786, 5.363653307298078, 0
7384, 3.509459788298302, 5.416365579397666, 0
7385, 3.3715551748019257, 5.355747947757903, 0
7386, 3.393232502835062, 5.461256435672385, 0
7387, 3.241801634952892, 5.307203180470021, 0
7388, 3.331486101986734, 5.223827471472931, 0
7389, 3.754500159280688, 5.362601455807195, 0
7390, 3.7389726832514887, 5.417149860265543, 0
7391, 3.560645416617735, 5.651197498007157, 0
7392, 3.4822141884085704, 5.556066771142654, 0
7393, 3.8920213051379284, 5.540644345287785, 0
7394, 3.2966514349426492, 5.327724168023714, 0
7395, 3.2880828837112857, 5.267063226631482, 0
7396, 3.3196498684303593, 5.1533115739650235, 0
7397, 3.2461166171155846, 5.094603307447521, 0
7398, 3.27082595435596, 5.13905943011825, 0
7399, 3.3851250134679494, 5.1907893917526575, 0
7400, 3.6798693691552997, 5.403863708994946, 0
7401, 3.4593860301399255, 5.625365690410193, 0
7402, 3.4435104524192375, 5.503230270263572, 0
7403, 3.425187328009263, 5.5572461650430816, 0
7404, -3.4271812221057414, -5.032835197698861, 0
7405, -3.3661730218895123, -5.282677142818389, 0
7406, -3.385812915844223, -5.235459751134012, 0
7407, -3.3654465962265574, -5.358359488487146, 0
7408, -3.2992135736840735, -5.249962843073793, 0
7409, -3.3555914503572444, -5.408162154171142, 0
7410, -3.352818759008734, -5.476548568852194, 0
7411, -3.350010845947344, -5.537150014910574, 0
7412, -3.277296497958632, -5.503415087437687, 0
7413, -3.2755228260901004, -5.338871801360092, 0
7414, -3.2627694037927997, -5.568459672299715, 0
7415, -3.192971519115604, -5.461883669603191, 0
7416, -3.315326131268888, -5.301867013545943, 0
7417, -3.3151623056272976, -5.373175294738657, 0
7418, -3.2519561078269597, -5.448493954971836, 0
7419, -3.2056677552426747, -5.381198543348815, 0
7420, -3.2253453696669423, -5.50252413379412, 0
7421, -3.260570371799159, -5.393001581819292, 0
7422, -3.1107326011333933, -5.407601462583171, 0
7423, -3.193206410725527, -5.2818256667295955, 0
7424, -3.164212126908183, -5.416016751976906, 0
7425, -3.1293623685798577, -5.463348476863645, 0
7426, -3.072769585583338, -5.45127449334251, 0
7427, -3.0108222841924404, -5.420806784579437, 0
7428, -3.0585670030770395, -5.397480130053067, 0
7429, -3.242562628273343, -5.253759526767494, 0
7430, -3.221626519169278, -5.328729552914803, 0
7431, -3.0984722254002817, -5.141185441279013, 0
7432, -3.1534609303600067, -5.20140717825289, 0
7433, -3.061520284910682, -5.1789073108587615, 0
7434, -2.9807646652939424, -5.231048419572097, 0
7435, -3.1987372040299804, -5.170495349309574, 0
7436, -3.1321947320950656, -5.261948648342579, 0
7437, -3.1412618733130393, -5.337692346880769, 0
7438, -3.07280677193688, -5.299664389021311, 0
7439, -3.0074027564821217, -5.291356891968145, 0
7440, -2.9277250126696392, -5.35237849515355, 0
7441, -2.9781742959586337, -5.335722027038967, 0
7442, -3.0885766520448694, -5.351904493724017, 0
7443, -2.958372911072015, -5.399830169837233, 0
7444, -2.2642752200510503, -5.05757164713823, 0
7445, -2.3202566382099676, -4.949206176526973, 0
7446, -2.394136421419068, -5.007936058020632, 0
7447, -2.369005022831636, -4.963716517163208, 0
7448, -3.5821422040222894, 5.1425864933389285, 0
7449, -3.5202200760079747, 5.132839234764338, 0
7450, -3.600709534992754, 5.094293962231629, 0
7451, -3.5901377398202357, 5.206144730795541, 0
7452, -3.6596296876981413, 5.167868335704681, 0
7453, -3.706880425595504, 5.2200407952593295, 0
7454, -3.779174895610587, 5.232892822047087, 0
7455, -3.7130290397524157, 5.166989329725594, 0
7456, -3.797026039412364, 5.299460891997181, 0
7457, -3.8208873023985466, 5.202256673831723, 0
7458, -3.754975248409535, 5.336775100008635, 0
7459, -3.793781433724161, 5.394608372551534, 0
7460, -3.786510550301656, 5.475471493617746, 0
7461, -3.7499377616090634, 5.552974526783489, 0
7462, -3.797661558749449, 5.570883739425893, 0
7463, -3.7473812155768824, 5.504387466699188, 0
7464, -3.6933968764675424, 5.537192510451481, 0
7465, -3.732024859913106, 5.619694293216589, 0
7466, -3.1428471178822486, 5.123308234002397, 0
7467, -3.041054452155555, 5.338689709607303, 0
7468, -3.04815534552484, 5.287818725565902, 0
7469, -3.6883066709228673, 5.333781032426748, 0
7470, -3.5947956130520224, 5.60194623945598, 0
7471, -3.6710520894026986, 5.643045665267666, 0
7472, 3.0264300956428114, -5.001128631460823, 0
7473, 3.0114250247460963, -4.934925465506203, 0
7474, 2.881505975996019, -5.05869041699076, 0
7475, 2.794501664138457, -4.805571947056194, 0
7476, 2.7538962190435905, -4.989380090361725, 0
7477, 4.156688660185665, -5.3719159953462645, 0
7478, 4.103128989720741, -5.410098595959264, 0
7479, 4.048489775255928, -5.374905979537223, 0
7480, 4.14958800080011, -5.503592969957807, 0
7481, 4.127838174669066, -5.459823498084522, 0
7482, 4.08994383874571, -5.530374310359613, 0
7483, 4.0498560083900195, -5.569180794528139, 0
7484, 4.149971195847566, -5.555277500613891, 0
7485, 4.22244546829336, -5.494587598404923, 0
7486, 4.274427540507669, -5.506699694653657, 0
7487, 5.388008830472097, -3.885609480796079, 0
7488, 5.283953646315036, -4.032695658048176, 0
7489, 5.237119833345215, -4.045650218131227, 0
7490, 5.307895013642568, -3.93928314767672, 0
7491, 5.3175324253539, -3.9915274977767847, 0
7492, 5.058908310611525, -2.2633348242962867, 0
7493, 4.958353184439492, -2.2949478813861197, 0
7494, 4.934925465506201, -3.011425024746097, 0
7495, 5.00112863146082, -3.0264300956428123, 0
7496, 5.062537877322682, -2.871819170829247, 0
7497, 5.001067205301994, -2.8244184098591902, 0
7498, 4.944975559719456, -2.81940129473657, 0
7499, 4.992992136003292, -2.898449241731895, 0
7500, 4.94914387042897, -2.9253874389929617, 0
7501, 5.031874608782677, -2.9490205147024695, 0
7502, 3.3243576574136022, 5.0394279575577805, 0
7503, 3.336403934861299, 5.0969650486734785, 0
7504, 3.395563304969043, 5.056992641613661, 0
7505, 3.431596325835457, 5.022541103686055, 0
7506, 3.4510382960852755, 5.100126470427416, 0
7507, 3.5223754922807857, 5.113778727281789, 0
7508, 3.49353066272165, 5.071296331892685, 0
7509, 3.5908426849890245, 5.119957056269976, 0
7510, 3.1741705284092787, 5.029098239958759, 0
7511, 3.222197086330353, 5.048612055087529, 0
7512, 3.139430443483726, 5.0899724032060405, 0
7513, 3.157219692163161, 5.188309373695415, 0
7514, 3.2062856626599716, 5.145836870887281, 0
7515, 3.129913307176727, 5.142471592936952, 0
7516, 2.9732053779338457, 5.051869413501746, 0
7517, 2.9196910927667927, 4.994372820175263, 0
7518, 2.984732331483787, 4.987488639863463, 0
7519, 3.0351207240342575, 5.029732649105554, 0
7520, 3.0381236587334306, 4.974977281320677, 0
7521, 3.0668659119136756, 5.073338777042838, 0
7522, 2.875613005126689, 5.089050183079638, 0
7523, 2.9168643315035663, 5.05065599108436, 0
7524, 2.858267600310057, 5.029056371804114, 0
7525, 2.7825607821302762, 5.0834490761370486, 0
7526, 2.73827922907065, 5.12546794104711, 0
7527, 2.816028773765994, 5.163061772230283, 0
7528, 2.7729223255348154, 5.208901999939339, 0
7529, 2.770376244136996, 5.010044659356658, 0
7530, 2.843040198519124, 5.254239613539958, 0
7531, 2.827575009716291, 5.111366835972002, 0
7532, 2.809629774269744, 5.0412423672829805, 0
7533, 2.7369651601208935, 5.053304104038039, 0
7534, 2.847892854777798, 5.203212028338361, 0
7535, 2.9107818602372184, 5.257678245533276, 0
7536, 3.00504358482562, 5.204594154097548, 0
7537, 2.9491501629352954, 5.215576472654227, 0
7538, 2.956827686142555, 5.133083739042143, 0
7539, 3.017033825897341, 5.112764720202586, 0
7540, 2.814263491715835, 5.32282612214085, 0
7541, 2.8777255908424766, 5.312775719768553, 0
7542, 2.904815601046039, 5.37561798814748, 0
7543, 2.852646361929529, 5.361045702218863, 0
7544, 2.902324915439056, 5.136695437032081, 0
7545, 4.942117049309604, 3.026608751017633, 0
7546, 5.11324303967669, 2.9935575122464404, 0
7547, 4.914182835862001, 3.183699814120076, 0
7548, 4.999245881758911, 3.0940543911322513, 0
7549, 5.063956169504959, 3.0525536152404142, 0
7550, 5.080770813799725, 3.1860839825193374, 0
7551, 5.024860456798263, 3.1534880313971883, 0
7552, 5.083020590371757, 3.1179768170683015, 0
7553, 5.009778583668724, 3.243605510243249, 0
7554, 5.178397818363898, 3.1552181436812115, 0
7555, 5.124138360921424, 3.1534257969382975, 0
7556, 5.153807693994861, 3.0774408897857426, 0
7557, 5.137732910941399, 3.216601777669653, 0
7558, 5.129044887171747, 3.278873339322875, 0
7559, 5.217059816148056, 3.426960380052759, 0
7560, 5.076230850494354, 3.2473979970320843, 0
7561, 5.186795373119876, 3.344748750906942, 0
7562, 5.114504654250639, 3.044697312173929, 0
7563, 5.262677731850529, 3.0857962882669394, 0
7564, 5.289882105281466, 3.3024163894218344, 0
7565, 5.109655319783429, 3.4198226188356777, 0
7566, 5.206560444963129, 3.1035383785915562, 0
7567, 5.206146624513256, 3.0380096346602192, 0
7568, 5.17299697815046, 2.987982492481969, 0
7569, 5.131350489096731, 2.8646224382814105, 0
7570, 5.13756534791592, 2.931234272354458, 0
7571, 5.075377130951957, 2.9428722981337723, 0
7572, 5.209023307259505, 2.8909714328679277, 0
7573, 5.229290929558227, 3.3015495652353373, 0
7574, 5.258646156558035, 3.3677143806614014, 0
7575, 5.386169759801859, 3.388596564474084, 0
7576, 5.32545419604413, 3.3595526658755395, 0
7577, 5.362525130033821, 3.29683148915426, 0
7578, 5.31386278856165, 3.4617683754533095, 0
7579, 5.464010389959452, 3.2697972669799595, 0
7580, 5.273399323711408, 3.422288298577703, 0
7581, 5.337350983798868, 3.4126668744740036, 0
7582, 5.396526021072513, 3.471142504105455, 0
7583, 5.408268873928155, 3.264548783528172, 0
7584, 5.42999689129726, 3.3324119994016956, 0
7585, 5.492284258364274, 3.3257019151916563, 0
7586, 5.451015888874319, 3.393994104202146, 0
7587, 5.527563769726983, 3.2727571419132198, 0
7588, 5.491195631283671, 3.4404793154508617, 0
7589, 5.164947446884033, 3.399468011489617, 0
7590, 5.1175432193099155, 3.355973392245854, 0
7591, 5.0526587092092825, 3.3803694410975793, 0
7592, 5.055809911097153, 3.4367140938198704, 0
7593, 5.105681829869354, 3.5014241838157973, 0
7594, 5.162901682025155, 3.4664820386471016, 0
7595, 5.006003848671082, 3.3394718183226995, 0
7596, 5.186867308322128, 3.570048722115551, 0
7597, 5.157676677447867, 3.522247318541275, 0
7598, 5.121057985412987, 3.5774226080167044, 0
7599, 5.050091129909851, 2.995674585260113, 0
7600, 5.198170522150052, 2.795305479243363, 0
7601, 5.268645846820975, 2.9216237815487864, 0
7602, 5.352156941639974, 2.9059942057620054, 0
7603, 5.3016199854702935, 2.982982966282194, 0
7604, 5.298800501596471, 3.040696713650961, 0
7605, 5.345786866626104, 3.1153468791161965, 0
7606, 5.360640525644883, 2.966644111983824, 0
7607, 5.421436400328951, 3.002927261942506, 0
7608, 5.427139798039727, 3.088428091392584, 0
7609, 5.3443930594316384, 3.5617041992278304, 0
7610, 5.057705415128067, 3.5160200703564906, 0
7611, 5.025450214703435, 3.292230049688503, 0
7612, 5.181077478902828, 2.845693164269853, 0
7613, 5.348427510804131, 2.8386584831735395, 0
7614, 5.407745642277615, 2.904045822776602, 0
7615, 5.274046256714358, 3.185467885402164, 0
7616, 5.260375034312245, 3.2468654963764694, 0
7617, 5.312953820697355, 3.2263521868947183, 0
7618, 5.339274289879625, 3.173778912938323, 0
7619, 5.414426139355959, 3.1632424040719003, 0
7620, 5.37734911984522, 3.0743428606221936, 0
7621, 5.481682987834337, 3.082365665465205, 0
7622, 5.350810668960134, 3.505112235504726, 0
7623, 5.407058385649962, 3.5401506718335205, 0
7624, 5.39397024935106, 3.603972081232879, 0
7625, 5.333505292991692, 3.6246839498816046, 0
7626, 5.292755342498737, 3.132849785821228, 0
7627, 5.24395677501573, 4.043759072268043, 0
7628, 3.773515490328783, -5.6756088077726465, 0
7629, 3.827898830357809, -5.647318157307287, 0
7630, 3.582741747506929, -5.141027116149594, 0
7631, 3.6389799631752737, -5.143616298377969, 0
7632, 3.601124288774546, -5.093215212144126, 0
7633, 3.49303037636632, -5.114283477580945, 0
7634, 3.5363739644972623, -5.245619995573147, 0
7635, 3.5591875220957494, -5.304310050926027, 0
7636, 3.492752571607399, -5.296355160928291, 0
7637, 3.4577310439944418, -5.222124018684483, 0
7638, 3.544885239345387, -5.104176599283239, 0
7639, 3.5810053511702016, -5.202831591279618, 0
7640, 3.515873294171648, -5.179565243118816, 0
7641, 3.6112427361304724, -5.251165365021423, 0
7642, 3.4052371399087042, -5.206555316327218, 0
7643, 3.44784070825632, -5.159189107891748, 0
7644, 3.403173987864479, -5.07808729999392, 0
7645, 3.4066948810888387, -5.12899914685989, 0
7646, 3.742196924651903, -5.57510435418939, 0
7647, 3.7184399226134324, -5.630345279355463, 0
7648, 3.66013803238614, -5.631119676825341, 0
7649, 3.293254458457114, -5.363970034138966, 0
7650, 3.3122885093458794, -5.281807661314251, 0
7651, 3.3294789175518833, -5.21741106544604, 0
7652, 3.2803293642703797, -5.137601813460377, 0
7653, 3.1476048006287036, -5.200611350951384, 0
7654, 3.2368635589407293, -5.227180526357727, 0
7655, 3.262279754899356, -5.271471851371339, 0
7656, 3.092576045507514, -5.328200965383226, 0
7657, 2.93776444761, -5.327533053836705, 0
7658, 3.0003634648997233, -5.424667579429579, 0
7659, 2.9905295860742385, -5.362266642931682, 0
7660, 3.0337346654216892, -5.323361120957983, 0
7661, 2.9345289779389447, -5.389893756715745, 0
7662, 2.6347215869736695, 5.000421282732654, 0
7663, 2.6910162333609415, 5.016861493417514, 0
7664, 2.640375081459571, 5.055179407867751, 0
7665, 2.569943821986984, 5.011428478218865, 0
7666, 2.636432251272021, 5.105325891770677, 0
7667, 4.826073989292967, 2.148070343040756, 0
7668, 5.06719003860455, 2.363954335836395, 0
7669, 5.022331053157008, 2.328764900874696, 0
7670, 5.1098729816960375, 2.3357145684402, 0
7671, 5.113024699235695, 2.3965919884293894, 0
7672, 5.024425097657643, 2.425378101487631, 0
7673, 5.046774048496119, 2.4750865781753015, 0
7674, 5.131382826951689, 2.5786968062684448, 0
7675, 5.099858082095818, 2.5180889653166374, 0
7676, 5.153798008446895, 2.4801031507485987, 0
7677, 4.752481277535525, 2.453839224664537, 0
7678, 4.74262001077995, 2.3948299405493345, 0
7679, 4.654255666445256, 2.3983419940304302, 0
7680, 4.647645157294285, 2.4511043718520416, 0
7681, 4.700592517727915, 2.4321819343925033, 0
7682, 4.872678594073693, 2.5070391941059764, 0
7683, 4.937093596090482, 2.444916386270224, 0
7684, 4.976262080503526, 2.415045529247542, 0
7685, 4.663427045376694, 2.318628726867686, 0
7686, -5.722884342038314, 4.083877072416785, 0
7687, -5.413950907122628, 4.039376327032993, 0
7688, -5.588561114485341, 3.596750549730405, 0
7689, -5.651197498007157, 3.560645416617735, 0
7690, -5.561209497819903, 3.538540960045205, 0
7691, -5.528296047928981, 3.642925739388049, 0
7692, -5.344689630821252, 3.9637335775344646, 0
7693, -2.752776946471661, -5.287981877681673, 0
7694, -2.871698943024996, -5.169625453972488, 0
7695, -2.6664348834797456, -5.091462962217972, 0
7696, -2.7325659530929194, -5.122967693431049, 0
7697, -2.566428504581729, -5.097495085428517, 0
7698, -2.775374770330983, -5.156228959166045, 0
7699, -2.71123665524755, -5.204201608588485, 0
7700, -2.6176280691170435, -5.11431368833675, 0
7701, -2.6940242990288503, -5.156265085720501, 0
7702, -2.7497306754117345, -5.237303815876262, 0
7703, -2.643839362617608, -5.236307914128911, 0
7704, -2.577955296199624, -5.229054211533631, 0
7705, -2.5732120252452897, -5.163185268390377, 0
7706, -2.4917031241508325, -5.138406971895382, 0
7707, -2.649081544338511, -5.289924108605395, 0
7708, -2.520534377114285, -5.190017812916714, 0
7709, -2.424230812191417, -5.136463901162585, 0
7710, -2.372937085179558, -5.080686991123272, 0
7711, -2.4591769566580806, -5.095419096474444, 0
7712, -2.5131599851930106, -5.088899101735918, 0
7713, -2.334201540361528, -5.112159845127728, 0
7714, -2.345774961035137, -5.033307886583071, 0
7715, -2.421632894226881, -5.05541259044848, 0
7716, 2.3365434039191175, 5.10862023987694, 0
7717, -3.738669520449587, -0.8880898690402398, 0
7718, -3.7966418440635956, -0.9151551352605762, 0
7719, -3.804394161262094, -0.9982950705473951, 0
7720, -3.8501812324222673, -0.9654754681331066, 0
7721, -3.8252967852898068, -1.0473623770809908, 0
7722, -3.7346380356031394, -1.01696235875942, 0
7723, -3.6799788970915244, -1.0097706635629646, 0
7724, 5.155415784929084, -2.51653743287672, 0
7725, 5.087629093101263, -2.5396904827375097, 0
7726, 5.070434010275814, -2.6038933016104475, 0
7727, 5.134893475449607, -2.5672612119118297, 0
7728, 5.138683054516902, -2.422850840032036, 0
7729, -2.58235344138185, -4.9042295361947135, 0
7730, -2.5793832465858673, -4.987418450292446, 0
7731, -2.54041316573019, -5.034335725307131, 0
7732, -2.499497292435692, -4.983411171586314, 0
7733, -2.5937895362393872, -5.049287538402999, 0
7734, -2.44829171330354, -5.002009715597775, 0
7735, -2.453380469431925, -4.936231131992921, 0
7736, 5.657233985033824, -3.7772298374842803, 0
7737, 5.562621440478815, -3.693622613470089, 0
7738, 5.581344068954729, -3.767772369062379, 0
7739, 5.622384879328988, -3.717971080424101, 0
7740, 5.653147087182489, -3.668802218075042, 0
7741, 5.5232133102515695, -3.743011654440544, 0
7742, 5.443253649788749, -3.6387942074259585, 0
7743, 5.496144897215004, -3.680996791754376, 0
7744, 5.549670794159901, -3.5804927973679, 0
7745, 5.597638841432181, -3.6290651099484665, 0
7746, 5.4117278042048875, -3.7325494229231486, 0
7747, 5.538544785635619, -3.639072635074428, 0
7748, 5.617176518290772, -3.56895011696371, 0
7749, 5.466950010203215, -3.7433274861383503, 0
7750, 5.444553915304065, -3.691409431336918, 0
7751, 5.5576467462140275, -3.8256674104360995, 0
7752, 5.2793034360835245, -2.7569536544375604, 0
7753, 5.117139513659931, -2.7187471232931846, 0
7754, 5.089530516114538, -2.6630510221209596, 0
7755, 5.058750510936113, -2.712999963689419, 0
7756, 5.0798164952882505, -2.791952364819717, 0
7757, 5.132726645700086, -2.8452015575499408, 0
7758, 5.137147120188911, -2.7750648366665582, 0
7759, 5.12866970478151, -2.940353912439178, 0
7760, 5.110297585515879, -2.8919079300663, 0
7761, 5.221964955294125, -2.581841122567251, 0
7762, 5.202515027335206, -2.5351009547930414, 0
7763, 5.232053199494072, -2.6754815109919927, 0
7764, 5.185533060259141, -2.7261622576233897, 0
7765, 5.2075394204632115, -2.630758858843598, 0
7766, 5.156457192125256, -2.6752219836069626, 0
7767, 5.226599829939511, -2.759277037356798, 0
7768, 2.6054495765178234, 4.839693964031252, 0
7769, 2.6594011990615, 4.816984578572762, 0
7770, 2.5868941554071605, 4.887556787025281, 0
7771, 2.5746128166862077, 4.948971804303536, 0
7772, 2.5763062284064544, 4.76073171631382, 0
7773, -3.9131330289344644, 5.318127689819624, 0
7774, 5.217785200000533, -3.7557990462208406, 0
7775, 2.7355688658894923, 5.323737147996924, 0
7776, -5.033742341597609, 3.3531021101825016, 0
7777, -3.071491118405034, 5.069608617501894, 0
7778, -3.8472597194384166, 5.656371699633132, 0
7779, -3.773789645445836, 5.674252566293891, 0
7780, -5.334351367401779, -2.7304605184703514, 0
7781, -5.32332059985008, -2.838198228929881, 0
7782, -5.219235566891479, -2.813870998856694, 0
7783, -5.483738313722961, 3.0816162019269173, 0
7784, -5.400116096559458, 3.153289750232384, 0
7785, 2.5040745090714926, -5.092421725254223, 0
7786, 2.655662633577039, -5.105579239976328, 0
7787, 2.574856320097056, -5.025525066635562, 0
7788, 2.578347432888664, -5.116525564474299, 0
7789, 2.5268884142103634, -5.045665962029407, 0
7790, 2.6296915927683604, -5.20065909136693, 0
7791, 2.611150326897283, -5.069699910309886, 0
7792, 2.681583763544779, -5.027870286543719, 0
7793, 2.6221677129758367, -5.147517027451134, 0
7794, 2.74914920053076, -5.093585567203975, 0
7795, 2.686086603032652, -4.949157208107132, 0
7796, 2.6189396169888512, -4.907600611686258, 0
7797, 2.699512392800387, -5.07702837414541, 0
7798, 2.7494834156997334, -4.919549648521386, 0
7799, 2.809522873018589, -4.950810218337847, 0
7800, 2.818319967849149, -5.0228958290601184, 0
7801, 2.767345335337093, -5.042203619077978, 0
7802, 2.8202754667478533, -5.093110407611927, 0
7803, 2.878113803199046, -4.991011911456925, 0
7804, 2.9329782024835582, -5.022186269317989, 0
7805, 2.9189805847348356, -4.952954090860247, 0
7806, 2.629127861251522, -4.985384174771059, 0
7807, 2.5770748746568453, -4.971765889543322, 0
7808, 2.5666000479015216, -4.888465532587716, 0
7809, 2.822445253281393, -4.8963082886875835, 0
7810, 2.462336390500712, -5.158775306979035, 0
7811, 2.487648918015683, -5.2048768810869195, 0
7812, -5.2837789889353735, 3.129035163250426, 0
7813, 5.262271843597663, 3.972821158533038, 0
7814, 5.24796232306246, 3.9051995040524976, 0
7815, 5.235250722776206, 3.8401724494444434, 0
7816, 5.188663374773923, 3.865808203191283, 0
7817, 5.57119478479265, 3.3677903424390014, 0
7818, 5.181888757449994, 3.667828281308255, 0
7819, 5.158882134388961, 3.6176403507614734, 0
7820, 5.527571441598253, 3.535847726030578, 0
7821, 5.497458500375226, 3.5961470955906085, 0
7822, 5.171091113842914, 3.7718027098113778, 0
7823, 5.202914819857875, 3.7225596941688495, 0
7824, 5.271404932116865, 3.718651366241777, 0
7825, 5.235578138079089, 3.6775088776567113, 0
7826, 5.0855331718182235, -3.504712655733157, 0
7827, 5.153991080590833, -3.5777574111519965, 0
7828, 5.132390642349339, -3.52939952518168, 0
7829, 5.495121064407591, -3.3898080760884475, 0
7830, 5.493121325792095, -3.2863860945902537, 0
7831, 3.202494310087476, 5.433753547401122, 0
7832, 3.246555756413726, 5.378059572224526, 0
7833, 3.18409439314184, 5.373920470232407, 0
7834, 3.110057457379951, 5.429434086774374, 0
7835, -3.7404704493668026, 0.0616892426868481, 0
7836, 0.06168924268684877, 3.740470449366802, 0
7837, -0.06168924268684813, -3.740470449366805, 0
7838, 3.740470449366802, -0.06168924268684925, 0
7839, -5.081939161202461, -3.195401573050491, 0
7840, -5.102518885881458, -2.9399100263714946, 0
7841, -5.130903540867007, -2.883972165400953, 0
7842, -5.111750805895376, -2.833679624383514, 0
7843, -5.179422552100151, -2.854406642807392, 0
7844, -5.152042557557328, -2.945439732299212, 0
7845, -5.294966190484972, -3.017701131023074, 0
7846, -5.309925607272299, -2.9652449972377863, 0
7847, -5.27912190114788, -2.8977677279541725, 0
7848, -5.235960384353127, -2.922368249526083, 0
7849, -5.267347909191025, -2.842850022297867, 0
7850, -5.226549083944911, -2.8726996370396836, 0
7851, -5.421142890255325, -3.0017447874700007, 0
7852, -5.436673734666906, -3.0601159425274647, 0
7853, -5.370805221980768, -2.97933929362428, 0
7854, -5.403566087709721, -2.905802764363761, 0
7855, 2.737539371031092, -5.31964279571521, 0
7856, 2.8390771327373874, -5.321368032333838, 0
7857, 2.886441482791138, -5.356134541397544, 0
7858, 5.009468011905752, -3.3379053466264272, 0
7859, 5.08129903404097, -3.4063952389658785, 0
7860, 5.066819007727281, -3.45626871783576, 0
7861, 5.43386313906273, -2.996759733211727, 0
7862, 5.357055755680834, -2.9253541149315616, 0
7863, 5.425921838038405, -3.102698669032361, 0
7864, 3.0148883492232357, 5.387604764679442, 0
7865, 2.9610062785219946, 5.371011583738769, 0
7866, 4.885905307367863, 2.65816697082309, 0
7867, 4.836188469394009, 2.6620230130514715, 0
7868, 4.888572281598837, 2.581790867275072, 0
7869, 4.931079102321991, 2.729514597700903, 0
7870, 4.937699789212625, 2.5322798921977157, 0
7871, 4.994266799011056, 2.582456178011917, 0
7872, 5.062697159412953, 2.5759205678399275, 0
7873, 5.093901176218344, 2.6549647472247173, 0
7874, 5.049786104265992, 2.5267692247926288, 0
7875, 4.922679490329572, 2.621216471348279, 0
7876, 4.875959599747647, 2.738131996821782, 0
7877, 5.027414577416264, 2.7253111732163418, 0
7878, 5.164475877684074, 2.642304379622713, 0
7879, 5.2078830107432, 2.579308561002923, 0
7880, 5.1683818384867095, 2.6993624328763812, 0
7881, 5.029643160743712, 2.638553672976344, 0
7882, 4.9782232003131845, 2.703952774944145, 0
7883, 5.077713800796713, 2.7062580453397462, 0
7884, 5.169979784998818, 2.535626927248993, 0
7885, 5.254868047989127, 2.5638059858968916, 0
7886, 5.242949427213665, 2.6272683548559166, 0
7887, 5.278920689353789, 2.6713700778853178, 0
7888, 3.106651459531549, -4.984958063272416, 0
7889, 3.167782840365516, -5.0346040442817985, 0
7890, 3.2641321981794915, -4.953653647131714, 0
7891, 4.953653647131714, -3.2641321981794933, 0
7892, 5.063794983037533, -3.2480534788081457, 0
7893, 5.159155352354448, -3.272810817041965, 0
7894, 5.031254802124517, -3.179729394886004, 0
7895, 4.984958063272414, -3.10665145953155, 0
7896, 5.154840568867312, -3.0762828413693692, 0
7897, -3.722838553138879, -5.456781049707184, 0
7898, -3.6754408161331984, -5.437028293367517, 0
7899, -3.723028802862118, -5.403357820375277, 0
7900, -3.7894229285039236, -5.477702874313795, 0
7901, -3.79304552875445, -5.594835079940453, 0
7902, -3.8095032030501796, -5.535703964362614, 0
7903, -3.875045223936126, -5.566430625097989, 0
7904, -3.7231193809464034, -5.543517027303049, 0
7905, -3.922706295073829, -5.639807406228573, 0
7906, -3.7241367008891966, -5.615430649947147, 0
7907, -3.670505260534061, -5.645500805279189, 0
7908, -3.67962284655577, -5.580096354362242, 0
7909, -3.685991493353376, -5.500268794014075, 0
7910, -3.9620974072439377, -5.6812852227204305, 0
7911, -3.880652997701794, -5.686140679125115, 0
7912, -3.831722734360005, -5.645406769750162, 0
7913, -3.774859033710273, -5.668962317705004, 0
7914, -3.8757103381887426, -5.618165857133787, 0
7915, -3.440497820750332, -5.469323837786303, 0
7916, -3.465739513384433, -5.529785340127741, 0
7917, 3.9177279596529133, 5.639264293155964, 0
7918, 3.856138620048063, 5.654712402280758, 0
7919, 3.8750343006402908, 5.71774981822971, 0
7920, 3.4447130392289056, 5.4216371773209, 0
7921, 3.3920861668234346, 5.406510846964396, 0
7922, 3.357912184772378, 5.52632823166584, 0
7923, 3.3600940258649477, 5.59778641517438, 0
7924, 3.2808025358492583, 5.5109331389196194, 0
7925, 3.2709379855548746, 5.4426254652296695, 0
7926, 3.329517712596662, 5.468794341871614, 0
7927, 3.2627694037927997, 5.568459672299716, 0
7928, 3.2220921187753215, 5.492185628584337, 0
7929, 3.174189986413874, 5.517363918156622, 0
7930, 3.346120552090847, 5.42290403654395, 0
7931, 3.1547528045582793, 5.464187850826518, 0
7932, -2.9606589322184647, -5.168411288273571, 0
7933, 5.453752153612946, -3.858013910579166, 0
7934, 5.420788503364409, -3.7992848153201875, 0
7935, 5.444991091240687, -3.929252469759142, 0
7936, 5.357409968449977, -3.773906968049639, 0
7937, 5.381680964329968, -3.9528922323296545, 0
7938, 5.28357848761096, -3.795843058862459, 0
7939, 5.371706270993982, -3.8300330131344036, 0
7940, 5.414354743299001, -3.9970402393750515, 0
7941, 5.496585600551025, -3.922524051432812, 0
7942, 5.220550410961917, -3.825327730230288, 0
7943, 5.187442027126552, -3.866202445855062, 0
7944, 5.248497014665132, -3.901377256918588, 0
7945, 5.225068694266574, -3.9534100673585657, 0
7946, 5.311507064470348, -3.8681322538241125, 0
7947, 3.2941804852208976, 4.996366407500859, 0
7948, 3.2073270442442805, 5.2421956454403915, 0
7949, 3.1832828512720175, 5.296591681493801, 0
7950, 3.1137200979583857, 5.256057376268723, 0
7951, 3.084934753339238, 5.194006457561813, 0
7952, 3.0554663932192825, 5.31519119535991, 0
7953, 2.9988805142894894, 5.327269325221076, 0
7954, 2.987931458421728, 5.265226857635984, 0
7955, 3.0500520379919855, 5.2500278059600545, 0
7956, 3.085530596069564, 5.370989629352622, 0
7957, 4.958089137894518, 3.2620197414354815, 0
7958, 5.045537038613873, 2.8422516743222097, 0
7959, 5.454173932706208, 3.487651622304207, 0
7960, 5.242888712648741, 3.5071400059809563, 0
7961, 5.297255025101141, 3.527698813891874, 0
7962, 5.132952732528154, 2.799301960903974, 0
7963, 5.07096954262392, 2.775449289939897, 0
7964, 5.2845151370945604, 2.7645599196807864, 0
7965, 5.330933374304999, 2.789135221860372, 0
7966, 5.21586390953419, 3.2030949889897955, 0
7967, 5.485329283953522, 3.1850345580508233, 0
7968, 5.437175839299922, 3.2154654051049674, 0
7969, 5.462072525021266, 3.1344613286190994, 0
7970, 5.395692891244873, 3.6710926198216964, 0
7971, 3.4580542475965608, -5.071479557346503, 0
7972, 3.3259157888903386, -5.0359822382451735, 0
7973, 3.3775704010090957, -5.033134373185108, 0
7974, 3.3470111742196904, -4.989330991080626, 0
7975, 3.339446797788277, -5.103087029728424, 0
7976, 3.2599754872000712, -5.0694729853999485, 0
7977, 3.0718611591833938, -5.135397284918084, 0
7978, 3.122476487002256, -5.25887383280946, 0
7979, 3.183880090697416, -5.258222101595421, 0
7980, 3.2800605368238207, -5.192806069664167, 0
7981, 3.2174284109734965, -5.162415414322736, 0
7982, 4.822968596835662, 2.5495966203664584, 0
7983, 4.810621703011182, 2.4848635413801476, 0
7984, 4.871448270225911, 2.4413061835659016, 0
7985, 4.883606204622725, 2.377389487152803, 0
7986, 4.928948177827702, 2.351965377959994, 0
7987, -2.7301176691877536, -5.335063746026356, 0
7988, -2.8525434393386653, -5.286784922044139, 0
7989, -2.859731173815045, -5.1157553590965295, 0
7990, 5.543361232567383, -3.4812255540348183, 0
7991, 5.57560755100863, -3.5290100778274893, 0
7992, 5.366781206185651, -3.6652578150742556, 0
7993, 5.362327906435526, -3.71688890793989, 0
7994, 5.377422145468107, -3.5722833429715175, 0
7995, 5.2608872951229895, -3.620288874275375, 0
7996, 5.394392079533854, -3.621321718352457, 0
7997, 5.305387000163744, -3.66266512723144, 0
7998, 5.321273542088456, -3.6014296113373634, 0
7999, 5.238918745434377, -3.6879111641919153, 0
8000, 5.310036410965862, -3.5111252713079706, 0
8001, 5.192894278886097, -3.635579508178578, 0
8002, 5.176241064371327, -3.7056329427788834, 0
8003, 5.138685700817462, -3.6300532504743535, 0
8004, 5.329230268976574, -2.732925169795687, 0
8005, 5.3233038630696745, -2.838205762610486, 0
8006, 5.28432700370651, -2.651957924320901, 0
8007, 5.164804201548793, -3.7739574501148665, 0
8008, 2.699205774215227, 5.2856583467663345, 0
8009, -5.328701416953277, -2.785643688877893, 0
8010, -5.184799104296372, -2.774253153907263, 0
8011, 2.5635020176860728, -5.204009525304717, 0
8012, 2.6617888752603296, -5.265197102928219, 0
8013, 2.712304384210299, -5.199823136505141, 0
8014, 2.712910213595761, -5.252495324431434, 0
8015, 2.7713293418840768, -5.205168529204276, 0
8016, 2.847465179863681, -5.238628302386883, 0
8017, 2.746377856242589, -5.152132380539506, 0
8018, 2.8137285413303346, -5.277003175150901, 0
8019, 2.8908961250747907, -5.284826325280659, 0
8020, 2.972796436657525, -5.242016254825781, 0
8021, 2.9122107146845146, -5.163379850746509, 0
8022, 2.907998735177023, -5.225234279766952, 0
8023, 2.874351943305983, -5.117636117067122, 0
8024, 2.944427068493137, -5.098178364024714, 0
8025, 2.9938339252860664, -5.163150386193716, 0
8026, 2.8624817945968366, -5.186070435235552, 0
8027, 2.9531102030185767, -5.194526135681408, 0
8028, 3.0306584206813043, -5.215212140610288, 0
8029, 3.0893995484457077, -5.210057818384161, 0
8030, 3.0202999934206205, -5.113996678007518, 0
8031, 5.130950976967372, 3.6863332542380105, 0
8032, 5.558220762899134, -3.3715453652900944, 0
8033, 5.531277005654258, -3.324680290167881, 0
8034, 5.539455750306792, -3.4248497543096557, 0
8035, 5.480954494745699, -3.4532985343751275, 0
8036, 5.407048655473802, -3.4034822737820227, 0
8037, 5.546190317681706, -3.2697502905078966, 0
8038, 5.460431140997514, -3.3387485068376686, 0
8039, 3.0833675850749462, 5.478935327398546, 0
8040, 2.816696266442034, -5.371089232925361, 0
8041, 5.178707967753271, -3.383569584968821, 0
8042, 5.408136005882095, -2.9038817272875543, 0
8043, 5.302424639994389, -2.985291113693607, 0
8044, 5.322887899460566, -3.037506744323534, 0
8045, 5.334679255776083, -3.132887881150857, 0
8046, 5.351736925292226, -2.9753720960536882, 0
8047, 5.276228337854208, -2.9065478562544387, 0
8048, 5.208374915963543, -2.9905548799153423, 0
8049, 5.400640272398642, -2.95596024004801, 0
8050, 5.323048992604943, -2.8884145735354627, 0
8051, 5.251486954878327, -2.8391210805819065, 0
8052, 5.19651399763354, -2.897545349038976, 0
8053, 5.253712048834009, -2.9577676947573095, 0
8054, 5.256654990575753, -3.010350360284333, 0
8055, 5.180218254140047, -2.9468844817945143, 0
8056, 5.183145061282757, -2.8487987782137405, 0
8057, 5.4788152427530195, -3.083411373295506, 0
8058, 5.419783323408919, -3.209080070538441, 0
8059, 2.993880915046333, 5.44120895345869, 0
8060, 4.981554305161443, 2.78029613958039, 0
8061, 4.928426403928215, 2.782627420556291, 0
8062, 5.130055616995798, -3.010570925686299, 0
8063, 5.091744854901112, -3.061933969276356, 0
8064, 5.098672772531595, -3.1283395067441626, 0
8065, 5.2064880625994014, -3.1734602710497306, 0
8066, 5.148024948059213, -3.1617851049116625, 0
8067, 5.167617106011547, -3.2158917489729255, 0
8068, 5.256366970948987, -3.2581740696125214, 0
8069, 3.9598528085159193, 5.678915006427578, 0
8070, 5.079734616599597, 2.8868450337020612, 0
8071, 5.003003749874053, 2.873725678533275, 0
8072, 5.252036742383006, 2.8099650616213463, 0
8073, 5.2282826093382555, 2.743254892729638, 0
8074, 5.329607190098485, 2.7327437674742434, 0
8075, 3.138678039690519, -5.1343857389488985, 0
8076, 3.1357758231358575, -5.079403645698954, 0
8077, -2.802363266344882, -5.262634511408428, 0
8078, -2.850731039908956, -5.226342905016708, 0
8079, -2.916124627470961, -5.218283750555557, 0
8080, -2.933239615961498, -5.2843522926164574, 0
8081, -2.8624896950537178, -5.351267119719592, 0
8082, -2.815141273223536, -5.374543796690459, 0
8083, 5.599690700012963, -3.4662238238529985, 0
8084, 5.504569225567464, -3.5335253708360446, 0
8085, 5.451689364293132, -3.5732161747743176, 0
8086, 5.490979076839931, -3.611601843252749, 0
8087, 5.3773439343692475, -3.5046667055076646, 0
8088, 5.413011419125743, -3.4601851871968097, 0
8089, 5.341189780566698, -3.439072832608131, 0
8090, 5.3134221448138215, -3.347147734194327, 0
8091, 5.307851642737015, -3.398986812005527, 0
8092, 5.2276251314679385, -3.50395563033548, 0
8093, 5.27119178735852, -3.4804018030299213, 0
8094, 5.203225658745635, -3.4439080763275784, 0
8095, 5.2645879938655815, -3.5563089611960415, 0
8096, 5.207429033467076, -3.557439673657274, 0
8097, 5.37239441897482, -2.8161087666609363, 0
8098, 2.9845018540464374, -5.296745216769476, 0
8099, 5.1365115684472915, -3.4227557200474417, 0
8100, 5.131886462304127, -3.3347299135494346, 0
8101, 5.368060842690314, -3.0808005170661192, 0
8102, 5.210990906378698, -3.0517676988943747, 0
8103, 5.204053791412159, -3.11244060591079, 0
8104, 5.2665738665006305, -3.140504866565603, 0
8105, 5.259677242647364, -3.1991839238986177, 0
8106, 5.337935853232357, -3.2331634103797597, 0
8107, 5.309740978508826, -3.286727908073402, 0
8108, 5.389829514469711, -3.258403143671496, 0
8109, 5.367353266126951, -3.1820173899497943, 0
8110, 5.486256584429833, -3.219458638170118, 0
8111, 5.516721306661539, -3.1744075274149353, 0
8112, 5.2159515186094, -3.319889628259309, 0
8113, 5.252460793923748, -3.3704071248777674, 0
8114, 5.369265175494666, -3.3603077568475834, 0
8115, 5.456114483055254, -3.1578086777769894, 0
8116, -3.779611479456637, -0.5139098969319531, 0
8117, -3.8171567012894525, -0.5545020153627873, 0
8118, -0.5139098969319525, 3.7796114794566376, 0
8119, -0.5545020153627864, 3.817156701289453, 0
8120, 0.5139098969319522, -3.7796114794566376, 0
8121, 0.5545020153627862, -3.817156701289453, 0
8122, 3.7796114794566376, 0.5139098969319525, 0
8123, 3.817156701289453, 0.5545020153627864, 0
8124, -3.4372119011610334, -0.29720927909066086, 0
8125, -3.4562991049507517, -0.22469951776629749, 0
8126, -3.3912741989831283, -0.20646256520890338, 0
8127, -3.4293209948703076, -0.17002518672210187, 0
8128, -3.3874435314237745, -0.3200474197083967, 0
8129, -3.4796559929024626, -0.3236393338437693, 0
8130, -3.5031165084317197, -0.24246635650663484, 0
8131, -0.2972092790906852, 3.437211901161051, 0
8132, -0.22469951776631986, 3.4562991049507654, 0
8133, -0.20646256520889567, 3.3912741989831385, 0
8134, -0.17002518672208597, 3.429320994870295, 0
8135, -0.3200474197083966, 3.387443531423779, 0
8136, -0.3236393338437687, 3.47965599290249, 0
8137, -0.2424663565066386, 3.5031165084317357, 0
8138, 0.2972092790906666, -3.4372119011610427, 0
8139, 0.22469951776632552, -3.456299104950782, 0
8140, 0.20646256520884274, -3.3912741989831647, 0
8141, 0.17002518672202588, -3.42932099487027, 0
8142, 0.320047419708404, -3.387443531423783, 0
8143, 0.32363933384376853, -3.479655992902473, 0
8144, 0.24246635650663712, -3.503116508431748, 0
8145, 3.437211901161051, 0.2972092790906852, 0
8146, 3.456299104950734, 0.22469951776629138, 0
8147, 3.3912741989831034, 0.2064625652089591, 0
8148, 3.429320994870337, 0.17002518672216518, 0
8149, 3.387443531423779, 0.3200474197083966, 0
8150, 3.47965599290249, 0.3236393338437687, 0
8151, 3.5031165084317064, 0.24246635650663564, 0
8152, 4.227748165558501, -5.696456357895777, 0
8153, 4.222219385849577, -5.643434904044866, 0
8154, -1.7626872956768174, -4.159015426996812, 0
8155, -3.941380802064149, 0.11047300701320108, 0
8156, -3.8743929841826406, 0.042419118468645926, 0
8157, 0.11047300701320108, 3.941380802064149, 0
8158, 0.042419118468645815, 3.8743929841826406, 0
8159, -0.11047300701320138, -3.941380802064149, 0
8160, -0.04241911846864611, -3.8743929841826406, 0
8161, 3.941380802064149, -0.1104730070132017, 0
8162, 3.8743929841826406, -0.04241911846864577, 0
8163, -5.661324345444259, 3.776402998566082, 0
8164, 5.25156977983226, 3.5736585700527987, 0
8165, -3.8971499153658367, -0.034291879064979956, 0
8166, -3.896987686843551, 0.08717453191354345, 0
8167, -3.955552760357215, 0.029526885869306504, 0
8168, -3.971505449299597, -0.11047300701320081, 0
8169, -3.985773917284747, 0.07653163899185184, 0
8170, -4.207739493387736, 0.11047300701320106, 0
8171, -4.01699381096632, 0.023241626580634396, 0
8172, -4.026071501321369, -0.0506332320083708, 0
8173, -3.9220915595397576, -0.08432534107766917, 0
8174, -0.03429187906498018, 3.8971499153658367, 0
8175, 0.08717453191354338, 3.896987686843551, 0
8176, 0.029526885869306352, 3.955552760357215, 0
8177, -0.11047300701320109, 3.971505449299597, 0
8178, 0.07653163899185175, 3.985773917284747, 0
8179, 0.11047300701320106, 4.207739493387736, 0
8180, 0.02324162658063407, 4.01699381096632, 0
8181, -0.05063323200837065, 4.02607150132137, 0
8182, -0.08432534107766942, 3.922091559539758, 0
8183, 0.034291879064979706, -3.897149915365837, 0
8184, -0.08717453191354368, -3.896987686843551, 0
8185, -0.029526885869306657, -3.955552760357215, 0
8186, 0.11047300701320056, -3.9715054492995976, 0
8187, -0.07653163899185206, -3.985773917284747, 0
8188, -0.11047300701320142, -4.207739493387736, 0
8189, -0.023241626580634382, -4.01699381096632, 0
8190, 0.05063323200837019, -4.02607150132137, 0
8191, 0.08432534107766892, -3.9220915595397585, 0
8192, 3.897149915365836, 0.03429187906498016, 0
8193, 3.896987686843551, -0.08717453191354355, 0
8194, 3.955552760357216, -0.029526885869306074, 0
8195, 3.971505449299597, 0.11047300701320101, 0
8196, 3.985773917284747, -0.07653163899185218, 0
8197, 4.207739493387736, -0.11047300701320176, 0
8198, 4.016993810966321, -0.023241626580635326, 0
8199, 4.026071501321369, 0.050633232008370346, 0
8200, 3.9220915595397576, 0.08432534107766923, 0
8201, -4.11895326294654, 0.11047300701320106, 0
8202, -4.267988787858633, -0.11047300701320081, 0
8203, -4.0858623414682285, 0.021773807534217194, 0
8204, -4.052280938405592, 0.06252311662147189, 0
8205, -4.169161008338955, -0.11047300701320081, 0
8206, -4.194193240775762, 0.001003976361095199, 0
8207, -4.094537898293118, -0.046280083811503114, 0
8208, -4.136629807145367, -0.006334249706820373, 0
8209, -4.15785397289346, 0.05661875363431542, 0
8210, -4.171765639184149, -0.052508884544287274, 0
8211, -4.239247782759456, -0.049334896755431186, 0
8212, -4.119747118579116, -0.0924452902496477, 0
8213, -4.218574898098794, -0.11047300701320081, 0
8214, -4.296525723828932, 0.11047300701320106, 0
8215, -4.2508400780684985, 0.00637239925809574, 0
8216, -4.21778104131415, 0.05365775868546456, 0
8217, -4.3668165673783115, -0.11047300701320081, 0
8218, -4.373516089584506, 0.029739412443070712, 0
8219, -4.328475498535903, 0.010041490616528828, 0
8220, -4.740456876034911, 0.11047300701320104, 0
8221, -4.3775018109391555, -0.04071729567749994, 0
8222, -4.34091883904953, 0.07573068329075139, 0
8223, -4.287006214875206, 0.05257562679741377, 0
8224, -4.307198399425987, -0.054715958232617795, 0
8225, -4.562884415152519, 0.11047300701320105, 0
8226, -4.416230457138151, -0.08234602841875625, 0
8227, -4.422824376607306, -0.002812317769464591, 0
8228, -3.963438860589388, -0.034634082693946716, 0
8229, 0.11047300701320106, 4.11895326294654, 0
8230, -0.11047300701320106, 4.267988787858633, 0
8231, 0.021773807534217888, 4.08586234146823, 0
8232, 0.0625231166214717, 4.052280938405593, 0
8233, -0.11047300701320106, 4.169161008338955, 0
8234, 0.00100397636109531, 4.194193240775764, 0
8235, -0.046280083811503184, 4.09453789829312, 0
8236, -0.006334249706820151, 4.136629807145368, 0
8237, 0.05661875363431615, 4.157853972893462, 0
8238, -0.05250888454428737, 4.171765639184151, 0
8239, -0.04933489675543098, 4.239247782759457, 0
8240, -0.09244529024964854, 4.119747118579116, 0
8241, -0.11047300701320106, 4.218574898098794, 0
8242, 0.11047300701320106, 4.296525723828932, 0
8243, 0.006372399258096781, 4.250840078068501, 0
8244, 0.05365775868546481, 4.217781041314152, 0
8245, -0.11047300701320106, 4.3668165673783115, 0
8246, 0.02973941244306912, 4.373516089584512, 0
8247, 0.010041490616527649, 4.328475498535908, 0
8248, 0.11047300701320104, 4.740456876034911, 0
8249, -0.040717295677501195, 4.37750181093916, 0
8250, 0.07573068329074834, 4.34091883904953, 0
8251, 0.05257562679741534, 4.2870062148752055, 0
8252, -0.05471595823261839, 4.307198399425988, 0
8253, 0.11047300701320105, 4.562884415152519, 0
8254, -0.08234602841875956, 4.416230457138151, 0
8255, -0.002812317769466652, 4.422824376607309, 0
8256, -0.034634082693946924, 3.9634388605893887, 0
8257, -0.11047300701320141, -4.11895326294654, 0
8258, 0.11047300701320052, -4.267988787858634, 0
8259, -0.021773807534218384, -4.08586234146823, 0
8260, -0.06252311662147203, -4.052280938405593, 0
8261, 0.11047300701320054, -4.169161008338955, 0
8262, -0.0010039763610958062, -4.194193240775764, 0
8263, 0.04628008381150267, -4.09453789829312, 0
8264, 0.006334249706819638, -4.136629807145368, 0
8265, -0.05661875363431658, -4.157853972893462, 0
8266, 0.05250888454428686, -4.171765639184151, 0
8267, 0.049334896755430555, -4.239247782759458, 0
8268, 0.09244529024964802, -4.119747118579116, 0
8269, 0.11047300701320054, -4.218574898098795, 0
8270, -0.11047300701320144, -4.296525723828932, 0
8271, -0.006372399258097114, -4.250840078068501, 0
8272, -0.05365775868546521, -4.217781041314152, 0
8273, 0.11047300701320051, -4.366816567378313, 0
8274, -0.029739412443070823, -4.37351608958451, 0
8275, -0.010041490616528884, -4.328475498535906, 0
8276, -0.11047300701320151, -4.740456876034911, 0
8277, 0.04071729567749981, -4.377501810939158, 0
8278, -0.0757306832907502, -4.34091883904953, 0
8279, -0.05257562679741543, -4.287006214875206, 0
8280, 0.054715958232617906, -4.307198399425989, 0
8281, -0.11047300701320148, -4.562884415152519, 0
8282, 0.08234602841875648, -4.416230457138152, 0
8283, 0.002812317769465132, -4.422824376607307, 0
8284, 0.034634082693946425, -3.963438860589389, 0
8285, 4.11895326294654, -0.11047300701320173, 0
8286, 4.267988787858633, 0.11047300701320092, 0
8287, 4.08586234146823, -0.02177380753421732, 0
8288, 4.052280938405594, -0.06252311662147275, 0
8289, 4.169161008338955, 0.11047300701320095, 0
8290, 4.194193240775767, -0.0010039763610928086, 0
8291, 4.094537898293118, 0.04628008381150325, 0
8292, 4.136629807145369, 0.006334249706821372, 0
8293, 4.157853972893465, -0.05661875363431641, 0
8294, 4.1717656391841516, 0.052508884544288065, 0
8295, 4.239247782759456, 0.049334896755433955, 0
8296, 4.119747118579116, 0.09244529024964784, 0
8297, 4.218574898098794, 0.11047300701320094, 0
8298, 4.296525723828932, -0.11047300701320178, 0
8299, 4.250840078068507, -0.00637239925809624, 0
8300, 4.217781041314154, -0.053657758685464185, 0
8301, 4.3668165673783115, 0.1104730070132009, 0
8302, 4.373516089584526, -0.029739412443062458, 0
8303, 4.328475498535917, -0.010041490616518337, 0
8304, 4.740456876034911, -0.1104730070132019, 0
8305, 4.37750181093917, 0.04071729567750535, 0
8306, 4.34091883904953, -0.07573068329073913, 0
8307, 4.287006214875203, -0.05257562679741894, 0
8308, 4.3071983994259835, 0.05471595823261957, 0
8309, 4.562884415152519, -0.11047300701320184, 0
8310, 4.416230457138151, 0.0823460284187674, 0
8311, 4.4228243766073145, 0.0028123177694753324, 0
8312, 3.963438860589388, 0.034634082693947035, 0
8313, -4.6632999059373486, -0.11047300701320081, 0
8314, -4.474098184711323, 0.07701954114202256, 0
8315, -4.4186384369465905, 0.06437518914861651, 0
8316, -4.5349608341710494, 0.050035769825369655, 0
8317, -4.5644721264176695, -0.11047300701320081, 0
8318, -4.487190396524158, 0.006004941263776591, 0
8319, -4.467067129350585, -0.0505044283538911, 0
8320, -4.860955464976706, -0.11047300701320081, 0
8321, -4.538229431314211, -0.04400799500937142, 0
8322, -4.651670645593715, 0.11047300701320105, 0
8323, -4.51505823665783, -0.09157005713386615, 0
8324, -4.613886016177509, -0.05254941743944612, 0
8325, -4.582026785907672, 0.004592915767883711, 0
8326, -4.675252212774008, 0.01911738293734755, 0
8327, -4.679492751943664, -0.04662011219393386, 0
8328, -4.918029336917304, 0.11047300701320102, 0
8329, -4.762127685457028, -0.11047300701320081, 0
8330, -4.731976676919043, -0.010229003068916817, 0
8331, -4.712713795697188, -0.08902450862147376, 0
8332, -4.727560483890138, 0.05073016984516817, 0
8333, -4.766825662267025, -0.05440361294397467, 0
8334, -4.828235170920777, -0.0583564543172389, 0
8335, -4.829243106476108, 0.11047300701320102, 0
8336, -4.607277530373117, 0.06382851973040665, 0
8337, -5.058611024016063, -0.11047300701320081, 0
8338, -4.8012288986644585, 0.0010778669706647953, 0
8339, -4.890055771958577, 0.020147397647028865, 0
8340, -5.051208682579097, 0.004335796752619733, 0
8341, -4.873636221696706, 0.07472695058193603, 0
8342, -4.789047971875526, 0.0624817397927294, 0
8343, -5.006815567358499, 0.11047300701320101, 0
8344, -0.11047300701320105, 4.6632999059373486, 0
8345, 0.07701954114202272, 4.474098184711323, 0
8346, 0.06437518914861869, 4.4186384369465905, 0
8347, 0.05003576982536771, 4.5349608341710494, 0
8348, -0.11047300701320106, 4.5644721264176695, 0
8349, 0.006004941263770311, 4.487190396524162, 0
8350, -0.05050442835389312, 4.467067129350582, 0
8351, -0.11047300701320104, 4.860955464976706, 0
8352, -0.044007995009381, 4.538229431314204, 0
8353, 0.11047300701320105, 4.651670645593715, 0
8354, -0.09157005713387556, 4.51505823665783, 0
8355, -0.05254941743943949, 4.613886016177509, 0
8356, 0.004592915767873955, 4.582026785907655, 0
8357, 0.019117382937360858, 4.675252212773963, 0
8358, -0.04662011219392666, 4.679492751943674, 0
8359, 0.11047300701320102, 4.918029336917304, 0
8360, -0.11047300701320104, 4.762127685457028, 0
8361, -0.01022900306885971, 4.73197667691906, 0
8362, -0.08902450862147414, 4.712713795697188, 0
8363, 0.05073016984520174, 4.727560483890062, 0
8364, -0.05440361294393365, 4.766825662267098, 0
8365, -0.058356454317127986, 4.828235170920889, 0
8366, 0.11047300701320102, 4.829243106476108, 0
8367, 0.06382851973039717, 4.607277530373117, 0
8368, -0.11047300701320104, 5.058611024016063, 0
8369, 0.0010778669706328695, 4.801228898664476, 0
8370, 0.020147397647181868, 4.890055771958948, 0
8371, 0.004335796752619636, 5.051208682579097, 0
8372, 0.07472695058196113, 4.873636221696706, 0
8373, 0.06248173979271873, 4.7890479718754895, 0
8374, 0.11047300701320101, 5.006815567358499, 0
8375, 0.11047300701320048, -4.6632999059373486, 0
8376, -0.07701954114202311, -4.474098184711323, 0
8377, -0.06437518914861867, -4.4186384369465905, 0
8378, -0.05003576982536947, -4.5349608341710494, 0
8379, 0.1104730070132005, -4.5644721264176695, 0
8380, -0.006004941263775026, -4.48719039652416, 0
8381, 0.05050442835389143, -4.467067129350585, 0
8382, 0.11047300701320045, -4.860955464976707, 0
8383, 0.044007995009373836, -4.53822943131421, 0
8384, -0.1104730070132015, -4.651670645593715, 0
8385, 0.09157005713386794, -4.515058236657831, 0
8386, 0.05254941743944512, -4.613886016177509, 0
8387, -0.004592915767881858, -4.582026785907669, 0
8388, -0.019117382937350227, -4.675252212774, 0
8389, 0.04662011219393221, -4.679492751943666, 0
8390, -0.11047300701320155, -4.918029336917304, 0
8391, 0.11047300701320047, -4.762127685457028, 0
8392, 0.0102290030689062, -4.7319766769190466, 0
8393, 0.08902450862147347, -4.712713795697188, 0
8394, -0.05073016984517458, -4.727560483890124, 0
8395, 0.05440361294396696, -4.766825662267039, 0
8396, 0.05835645431721818, -4.828235170920799, 0
8397, -0.11047300701320154, -4.829243106476108, 0
8398, -0.06382851973040496, -4.607277530373117, 0
8399, 0.11047300701320042, -5.058611024016064, 0
8400, -0.001077866970659161, -4.801228898664462, 0
8401, -0.020147397647057814, -4.890055771958647, 0
8402, -0.004335796752620191, -5.051208682579097, 0
8403, -0.07472695058194113, -4.873636221696706, 0
8404, -0.062481739792727774, -4.789047971875519, 0
8405, -0.11047300701320156, -5.006815567358499, 0
8406, 4.6632999059373486, 0.11047300701320079, 0
8407, 4.474098184711323, -0.07701954114201925, 0
8408, 4.418638436946592, -0.06437518914862403, 0
8409, 4.534960834171052, -0.05003576982536504, 0
8410, 4.5644721264176695, 0.11047300701320081, 0
8411, 4.487190396524168, -0.006004941263762283, 0
8412, 4.467067129350576, 0.05050442835389468, 0
8413, 4.860955464976706, 0.11047300701320073, 0
8414, 4.538229431314189, 0.04400799500939659, 0
8415, 4.651670645593715, -0.11047300701320187, 0
8416, 4.51505823665783, 0.09157005713389191, 0
8417, 4.613886016177509, 0.05254941743942408, 0
8418, 4.5820267859076225, -0.004592915767855123, 0
8419, 4.675252212773874, -0.019117382937388808, 0
8420, 4.679492751943694, 0.04662011219391121, 0
8421, 4.918029336917304, -0.11047300701320194, 0
8422, 4.762127685457028, 0.11047300701320076, 0
8423, 4.731976676919093, 0.010229003068743532, 0
8424, 4.712713795697188, 0.08902450862147396, 0
8425, 4.727560483889908, -0.05073016984527045, 0
8426, 4.766825662267244, 0.05440361294384986, 0
8427, 4.828235170921114, 0.058356454316904234, 0
8428, 4.829243106476108, -0.11047300701320192, 0
8429, 4.607277530373117, -0.06382851973037913, 0
8430, 5.058611024016063, 0.11047300701320067, 0
8431, 4.801228898664511, -0.0010778669705690802, 0
8432, 4.890055771959694, -0.02014739764749142, 0
8433, 5.051208682579097, -0.0043357967526202745, 0
8434, 4.873636221696706, -0.07472695058201292, 0
8435, 4.7890479718754175, -0.062481739792698006, 0
8436, 5.006815567358499, -0.11047300701320195, 0
8437, -4.9624224521379015, 0.04723012656806573, 0
8438, -5.020340142156841, 0.05377724481690984, 0
8439, -4.894205978145255, -0.053267709115108336, 0
8440, -4.959783244496384, -0.11047300701320081, 0
8441, -4.941441913357532, -0.006934037145331581, 0
8442, -4.997917647915379, -0.01680840904143735, 0
8443, -5.0434382131782645, -0.053808243504873524, 0
8444, -5.157438803535742, -0.11047300701320081, 0
8445, -5.123885900356245, -0.0349681610191762, 0
8446, -5.108024913775902, -0.08722403460311565, 0
8447, -5.2731742586820864, 0.110473007013201, 0
8448, -5.8058916413292625, 0.11047300701320097, 0
8449, -5.071375157815033, 0.06433153200145778, 0
8450, -5.206852693295581, -0.11047300701320081, 0
8451, -6.0468888192128505, -0.1104730070132008, 0
8452, -5.184388028240891, 0.11047300701320101, 0
8453, -5.450746719564479, 0.11047300701320098, 0
8454, -5.231559638175501, 1.1176085273678638e-05, 0
8455, -5.228781143461489, 0.06412764337117977, 0
8456, -5.162577999696979, 0.029140285442555796, 0
8457, -5.1063969902340185, 0.019317484156343323, 0
8458, -5.139994913020293, 0.07878675194015161, 0
8459, 0.04723012656840836, 4.9624224521379015, 0
8460, 0.05377724481692306, 5.020340142156873, 0
8461, -0.053267709115055656, 4.894205978145582, 0
8462, -0.11047300701320104, 4.959783244496384, 0
8463, -0.006934037144984698, 4.941441913357865, 0
8464, -0.0168084090409073, 4.997917647915465, 0
8465, -0.05380824350489224, 5.043438213177977, 0
8466, -0.11047300701320104, 5.157438803535742, 0
8467, -0.03496816101952949, 5.123885900355863, 0
8468, -0.08722403460344044, 5.108024913775902, 0
8469, 0.110473007013201, 5.2731742586820864, 0
8470, 0.11047300701320097, 5.8058916413292625, 0
8471, 0.06433153200129356, 5.07137515781518, 0
8472, -0.11047300701320104, 5.206852693295581, 0
8473, -0.11047300701320098, 6.0468888192128505, 0
8474, 0.11047300701320101, 5.184388028240891, 0
8475, 0.11047300701320098, 5.450746719564479, 0
8476, 1.1176085981626227e-05, 5.231559638175501, 0
8477, 0.06412764337159069, 5.228781143461489, 0
8478, 0.029140285443071047, 5.162577999696272, 0
8479, 0.01931748415586531, 5.106396990233591, 0
8480, 0.0787867519406624, 5.139994913020293, 0
8481, -0.047230126568130276, -4.9624224521379015, 0
8482, -0.05377724481691284, -5.020340142156847, 0
8483, 0.053267709115097775, -4.894205978145316, 0
8484, 0.11047300701320044, -4.959783244496386, 0
8485, 0.006934037145266525, -4.941441913357595, 0
8486, 0.016808409041338405, -4.997917647915396, 0
8487, 0.05380824350487659, -5.043438213178212, 0
8488, 0.11047300701320042, -5.157438803535742, 0
8489, 0.0349681610192401, -5.123885900356175, 0
8490, 0.08722403460317431, -5.108024913775902, 0
8491, -0.1104730070132016, -5.2731742586820864, 0
8492, -0.1104730070132017, -5.8058916413292625, 0
8493, -0.06433153200142816, -5.071375157815059, 0
8494, 0.11047300701320042, -5.206852693295581, 0
8495, 0.11047300701320033, -6.0468888192128505, 0
8496, -0.11047300701320159, -5.184388028240891, 0
8497, -0.11047300701320165, -5.450746719564479, 0
8498, -1.1176085403977187e-05, -5.231559638175502, 0
8499, -0.06412764337125565, -5.228781143461489, 0
8500, -0.029140285442649877, -5.16257799969685, 0
8501, -0.019317484156256823, -5.10639699023394, 0
8502, -0.07878675194024501, -5.139994913020293, 0
8503, 4.9624224521379015, -0.04723012656909955, 0
8504, 5.020340142156937, -0.05377724481695058, 0
8505, 4.89420597814624, 0.05326770911494862, 0
8506, 4.959783244496384, 0.1104730070132007, 0
8507, 4.941441913358534, 0.006934037144285039, 0
8508, 4.997917647915636, 0.016808409039837095, 0
8509, 5.043438213177396, 0.053808243504929215, 0
8510, 5.157438803535742, 0.11047300701320065, 0
8511, 5.123885900355093, 0.03496816102024178, 0
8512, 5.108024913775902, 0.08722403460409507, 0
8513, 5.2731742586820864, -0.11047300701320202, 0
8514, 5.8058916413292625, -0.11047300701320216, 0
8515, 5.071375157815477, -0.06433153200096317, 0
8516, 5.206852693295581, 0.11047300701320062, 0
8517, 6.0468888192128505, 0.11047300701320036, 0
8518, 5.184388028240891, -0.11047300701320201, 0
8519, 5.450746719564479, -0.11047300701320206, 0
8520, 5.231559638175501, -1.1176087410393054e-05, 0
8521, 5.228781143461489, -0.06412764337242045, 0
8522, 5.1625779996948475, -0.029140285444111177, 0
8523, 5.1063969902327315, -0.01931748415490228, 0
8524, 5.139994913020293, -0.07878675194169327, 0
8525, -5.187698203019475, -0.04818497027730694, 0
8526, -5.243863107932269, -0.05524209727753022, 0
8527, -5.651577701134135, -0.1104730070132008, 0
8528, -5.453922142094778, -0.1104730070132008, 0
8529, -5.3550943625751, -0.1104730070132008, 0
8530, -5.299547311206973, 0.03507586680132563, 0
8531, -5.361960489123282, 0.110473007013201, 0
8532, -5.317567373902684, 0.08369014282665468, 0
8533, -5.378048300841167, 0.03362449255202704, 0
8534, -5.338057802520302, -0.005674650174480295, 0
8535, -5.406353604343881, 0.0796582558401415, 0
8536, -5.628319180446871, 0.11047300701320097, 0
8537, -5.439122767677297, 0.027790024186739187, 0
8538, -5.438755732407457, -0.042172824510441444, 0
8539, -5.404508252334939, -0.08561163625556766, 0
8540, -0.048184970277006335, 5.187698203019512, 0
8541, -0.05524209727708632, 5.243863107932671, 0
8542, -0.11047300701320101, 5.651577701134135, 0
8543, -0.11047300701320101, 5.453922142094778, 0
8544, -0.11047300701320101, 5.3550943625751, 0
8545, 0.03507586680188055, 5.299547311206547, 0
8546, 0.110473007013201, 5.361960489123282, 0
8547, 0.0836901428269108, 5.317567373902684, 0
8548, 0.033624492551598495, 5.378048300841137, 0
8549, -0.0056746501749668846, 5.338057802519566, 0
8550, 0.07965825583987368, 5.406353604343881, 0
8551, 0.11047300701320097, 5.628319180446871, 0
8552, 0.0277900241863754, 5.4391227676774205, 0
8553, -0.04217282451052911, 5.438755732408356, 0
8554, -0.08561163625517279, 5.4045082523349395, 0
8555, 0.048184970277251035, -5.187698203019482, 0
8556, 0.055242097277448395, -5.243863107932343, 0
8557, 0.11047300701320037, -5.651577701134135, 0
8558, 0.1104730070132004, -5.453922142094778, 0
8559, 0.1104730070132004, -5.3550943625751, 0
8560, -0.03507586680142887, -5.299547311206895, 0
8561, -0.11047300701320162, -5.361960489123282, 0
8562, -0.083690142826703, -5.317567373902684, 0
8563, -0.03362449255195196, -5.378048300841159, 0
8564, 0.005674650174569924, -5.338057802520168, 0
8565, -0.07965825584009384, -5.406353604343881, 0
8566, -0.11047300701320167, -5.628319180446871, 0
8567, -0.027790024186671855, -5.4391227676773175, 0
8568, 0.042172824510457625, -5.438755732407622, 0
8569, 0.08561163625549498, -5.404508252334939, 0
8570, 5.187698203019585, 0.04818497027639925, 0
8571, 5.243863107933483, 0.055242097276190054, 0
8572, 5.651577701134135, 0.11047300701320048, 0
8573, 5.453922142094778, 0.11047300701320054, 0
8574, 5.3550943625751, 0.11047300701320056, 0
8575, 5.299547311205689, -0.03507586680300074, 0
8576, 5.361960489123282, -0.11047300701320203, 0
8577, 5.317567373902684, -0.08369014282742838, 0
8578, 5.378048300841075, -0.03362449255073528, 0
8579, 5.338057802518082, 0.005674650175947718, 0
8580, 5.406353604343881, -0.07965825583933445, 0
8581, 5.628319180446871, -0.11047300701320212, 0
8582, 5.439122767677672, -0.027790024185641825, 0
8583, 5.438755732410171, 0.04217282451070514, 0
8584, 5.404508252334939, 0.08561163625437428, 0
8585, -5.539532950005675, 0.11047300701320097, 0
8586, -5.552749921614456, -0.1104730070132008, 0
8587, -5.508945994740742, 0.005915147228917693, 0
8588, -5.503336031854618, -0.06366641535336678, 0
8589, -5.488494293936292, 0.06300771479132919, 0
8590, -5.602163811374296, -0.025438445663256343, 0
8591, -5.557263628109382, -0.05622136280874681, 0
8592, -5.57355892102578, 0.043766354779193356, 0
8593, -5.7959723496205555, -0.018511057249326744, 0
8594, -5.643070973113121, -0.058541721994076694, 0
8595, -5.652822731071015, 0.03528499041195611, 0
8596, -5.717105410888067, 0.11047300701320097, 0
8597, -5.672712295667469, 0.08335376563924514, 0
8598, -5.849233260173493, -0.1104730070132008, 0
8599, -6.161036563094045, 0.11047300701320095, 0
8600, -5.709267011260587, 0.042937369070512724, 0
8601, -5.983464102211654, 0.11047300701320095, 0
8602, -5.765889932055054, -0.060875408010658674, 0
8603, -5.719333243973463, -0.037806709371858496, 0
8604, -5.750405480653814, -0.1104730070132008, 0
8605, -5.700991590893975, -0.08862605283740083, 0
8606, -5.671943746005237, -0.014122451911970195, 0
8607, -5.748833339036134, 0.0068705290561744264, 0
8608, -5.765690879334418, 0.06509982181449353, 0
8609, -5.308729923602844, -0.06422629490301912, 0
8610, -5.3613034875044825, -0.0539389890974665, 0
8611, -5.283121106752519, -0.01651873321029451, 0
8612, -5.395008154517841, -0.01500155051930633, 0
8613, 0.11047300701320097, 5.539532950005675, 0
8614, -0.11047300701320101, 5.552749921614456, 0
8615, 0.005915147228673378, 5.508945994741495, 0
8616, -0.06366641535424439, 5.503336031854618, 0
8617, 0.06300771479120773, 5.488494293936578, 0
8618, -0.025438445663925533, 5.602163811374296, 0
8619, -0.05622136280885367, 5.5572636281091485, 0
8620, 0.04376635477929164, 5.573558921026733, 0
8621, -0.018511057249357615, 5.7959723496205795, 0
8622, -0.0585417219941809, 5.64307097311339, 0
8623, 0.0352849904117543, 5.65282273107051, 0
8624, 0.11047300701320097, 5.717105410888067, 0
8625, 0.08335376563898265, 5.672712295667469, 0
8626, -0.110473007013201, 5.849233260173493, 0
8627, 0.11047300701320095, 6.161036563094045, 0
8628, 0.04293736907057927, 5.709267011260728, 0
8629, 0.11047300701320095, 5.983464102211654, 0
8630, -0.06087540801072105, 5.765889932055167, 0
8631, -0.037806709371916186, 5.719333243973607, 0
8632, -0.11047300701320101, 5.750405480653814, 0
8633, -0.08862605283740492, 5.700991590893975, 0
8634, -0.014122451911955172, 5.671943746005381, 0
8635, 0.0068705290561618115, 5.748833339036183, 0
8636, 0.06509982181440764, 5.765690879334576, 0
8637, -0.06422629490350366, 5.308729923602802, 0
8638, -0.05393898909758252, 5.361303487504251, 0
8639, -0.01651873321028552, 5.2831211067526604, 0
8640, -0.015001550519765136, 5.3950081545182895, 0
8641, -0.11047300701320166, -5.539532950005675, 0
8642, 0.11047300701320038, -5.552749921614456, 0
8643, -0.00591514722887446, -5.50894599474088, 0
8644, 0.0636664153535278, -5.503336031854617, 0
8645, -0.06300771479130621, -5.488494293936341, 0
8646, 0.02543844566337793, -5.602163811374296, 0
8647, 0.0562213628087654, -5.557263628109339, 0
8648, -0.04376635477921219, -5.573558921025955, 0
8649, 0.018511057249331622, -5.79597234962056, 0
8650, 0.05854172199409513, -5.643070973113169, 0
8651, -0.03528499041191992, -5.6528227310709225, 0
8652, -0.11047300701320169, -5.717105410888067, 0
8653, -0.08335376563919782, -5.672712295667469, 0
8654, 0.11047300701320034, -5.849233260173493, 0
8655, -0.11047300701320176, -6.161036563094045, 0
8656, -0.04293736907052539, -5.7092670112606125, 0
8657, -0.11047300701320173, -5.983464102211654, 0
8658, 0.06087540801066962, -5.765889932055075, 0
8659, 0.03780670937186839, -5.71933324397349, 0
8660, 0.11047300701320036, -5.750405480653814, 0
8661, 0.0886260528374009, -5.700991590893975, 0
8662, 0.014122451911966878, -5.6719437460052635, 0
8663, -0.006870529056172865, -5.748833339036143, 0
8664, -0.06509982181447858, -5.765690879334447, 0
8665, 0.06422629490310776, -5.308729923602836, 0
8666, 0.053938989097488434, -5.361303487504439, 0
8667, 0.016518733210291674, -5.283121106752547, 0
8668, 0.015001550519388555, -5.395008154517923, 0
8669, 5.539532950005675, -0.11047300701320209, 0
8670, 5.552749921614456, 0.11047300701320051, 0
8671, 5.5089459947430175, -0.005915147228179374, 0
8672, 5.503336031854617, 0.06366641535601603, 0
8673, 5.488494293937159, -0.06300771479096427, 0
8674, 5.602163811374296, 0.02543844566527753, 0
8675, 5.557263628108677, 0.05622136280906853, 0
8676, 5.573558921028659, -0.043766354779491035, 0
8677, 5.795972349620626, 0.018511057249423403, 0
8678, 5.643070973113932, 0.05854172199439156, 0
8679, 5.652822731069489, -0.035284990411347326, 0
8680, 5.717105410888067, -0.11047300701320215, 0
8681, 5.672712295667469, -0.0833537656384527, 0
8682, 5.849233260173493, 0.11047300701320041, 0
8683, 6.161036563094045, -0.11047300701320224, 0
8684, 5.709267011261015, -0.04293736907071471, 0
8685, 5.983464102211654, -0.1104730070132022, 0
8686, 5.76588993205539, 0.060875408010846434, 0
8687, 5.719333243973894, 0.037806709372033606, 0
8688, 5.750405480653814, 0.11047300701320045, 0
8689, 5.700991590893975, 0.08862605283741445, 0
8690, 5.67194374600567, 0.0141224519119241, 0
8691, 5.748833339036283, -0.006870529056133952, 0
8692, 5.765690879334898, -0.06509982181423102, 0
8693, 5.3087299236027174, 0.06422629490448051, 0
8694, 5.3613034875037835, 0.05393898909781497, 0
8695, 5.283121106752946, 0.016518733210266538, 0
8696, 5.395008154519197, 0.015001550520689341, 0
8697, -5.924942278545828, -0.0052208491470064206, 0
8698, -0.005220849147021561, 5.924942278545853, 0
8699, 0.005220849147008655, -5.924942278545832, 0
8700, 5.9249422785459, 0.005220849147049053, 0
8701, -5.863442949552774, -0.04083895281896094, 0
8702, -5.818159727154652, -0.06786521009059983, 0
8703, -5.894677871770458, 0.11047300701320095, 0
8704, -5.80376289758299, 0.031599437506943474, 0
8705, -5.867402475115753, 0.02322678868298416, 0
8706, -5.939070986991056, 0.06028045374365956, 0
8707, -6.047354130524845, 0.00923691522843112, 0
8708, -5.984470455957792, 0.016213293632817927, 0
8709, -5.948061039693172, -0.1104730070132008, 0
8710, -6.0089014216372565, -0.05046948491447543, 0
8711, -5.898647149933333, -0.08428966346844907, 0
8712, -5.95266635440312, -0.05429633361384377, 0
8713, -5.85028475654986, 0.07646482685130815, 0
8714, -0.04083895281897079, 5.863442949552801, 0
8715, -0.06786521009060173, 5.818159727154726, 0
8716, 0.11047300701320095, 5.894677871770458, 0
8717, 0.03159943750684984, 5.803762897583071, 0
8718, 0.023226788682935953, 5.867402475115803, 0
8719, 0.060280453743654025, 5.939070986991056, 0
8720, 0.009236915228432438, 6.047354130524849, 0
8721, 0.016213293632829643, 5.984470455957802, 0
8722, -0.11047300701320098, 5.948061039693172, 0
8723, -0.05046948491447341, 6.008901421637252, 0
8724, -0.08428966346846876, 5.898647149933333, 0
8725, -0.05429633361385578, 5.952666354403128, 0
8726, 0.076464826851269, 5.85028475654986, 0
8727, 0.04083895281896226, -5.863442949552779, 0
8728, 0.06786521009060002, -5.818159727154666, 0
8729, -0.11047300701320172, -5.894677871770458, 0
8730, -0.031599437506927085, -5.803762897583005, 0
8731, -0.023226788682975584, -5.867402475115762, 0
8732, -0.06028045374365916, -5.939070986991056, 0
8733, -0.00923691522843205, -6.0473541305248455, 0
8734, -0.01621329363282056, -5.984470455957794, 0
8735, 0.11047300701320033, -5.948061039693172, 0
8736, 0.05046948491447444, -6.008901421637256, 0
8737, 0.08428966346845197, -5.898647149933333, 0
8738, 0.054296333613845435, -5.952666354403122, 0
8739, -0.07646482685130149, -5.85028475654986, 0
8740, 5.863442949552853, 0.040838952818989874, 0
8741, 5.818159727154875, 0.06786521009060494, 0
8742, 5.894677871770458, -0.11047300701320217, 0
8743, 5.803762897583231, -0.031599437506655004, 0
8744, 5.8674024751159, -0.02322678868283862, 0
8745, 5.939070986991056, -0.060280453743644734, 0
8746, 6.047354130524859, -0.009236915228436018, 0
8747, 5.984470455957823, -0.016213293632852822, 0
8748, 5.948061039693172, 0.11047300701320038, 0
8749, 6.008901421637245, 0.05046948491446814, 0
8750, 5.898647149933333, 0.08428966346850694, 0
8751, 5.952666354403143, 0.054296333613877264, 0
8752, 5.85028475654986, -0.07646482685119108, 0
8753, -6.07225033265285, 0.11047300701320095, 0
8754, -6.1166434478734475, 0.04587644432038818, 0
8755, -6.065684735012074, 0.0584083229539189, 0
8756, -6.442199937291566, -0.1104730070132008, 0
8757, -6.068146050019618, -0.05498894072881842, 0
8758, -6.098702276925405, -0.004031424400959447, 0
8759, -6.244544378252208, -0.1104730070132008, 0
8760, -6.011400274722679, 0.06363603576619607, 0
8761, -6.338609023976437, 0.11047300701320094, 0
8762, -6.145716598732529, -0.1104730070132008, 0
8763, -6.249822793535241, 0.11047300701320095, 0
8764, -6.294215908755839, -0.0011236053878856817, 0
8765, -6.196584954868121, -0.011040126217669102, 0
8766, -6.179820088153517, 0.05001171735998945, 0
8767, -6.241321903031016, 0.03407240424605704, 0
8768, -6.298048536511516, 0.06197986927968234, 0
8769, -6.392001326624318, 0.024605463847159864, 0
8770, -6.33887473628014, 0.027832139490461923, 0
8771, -6.343372157771887, -0.1104730070132008, 0
8772, -6.432367888309035, -0.03726006908517495, 0
8773, -6.476259156466569, 0.0354806171067228, 0
8774, -6.639855496330923, -0.1104730070132008, 0
8775, -6.351770641366146, -0.04097420716125624, 0
8776, -6.541027716811245, -0.1104730070132008, 0
8777, -6.50524001809955, -0.014537153026602287, 0
8778, -6.238705447910461, -0.052006730481389235, 0
8779, -6.183211733200117, -0.06692676927447354, 0
8780, -6.126275664965811, -0.055205708902130335, 0
8781, -6.297500100143591, -0.06967281214309215, 0
8782, -6.392786047531726, -0.08118750689476469, 0
8783, -6.4273952544176325, 0.11047300701320094, 0
8784, -6.383002139197035, 0.07854317961537552, 0
8785, -6.47178836963823, 0.085983203418856, 0
8786, -6.491613827051405, -0.074263246153661, 0
8787, -6.6250508134569905, 0.11047300701320092, 0
8788, -6.590441606571083, -0.09064162153475898, 0
8789, -6.656142484848887, 0.0015873244829698874, 0
8790, -7.387136113644122, 0.11047300701320091, 0
8791, -7.62813329152771, -0.11047300701320079, 0
8792, -6.733920142055153, 0.11047300701320091, 0
8793, -6.519515771339153, 0.06057543862579255, 0
8794, -6.951658799251476, 0.11047300701320091, 0
8795, -6.578890467777455, 0.010377892385780307, 0
8796, -6.579181065341059, 0.07093520011591437, 0
8797, -6.633700704602864, 0.05406106901373631, 0
8798, -6.679485477756072, 0.08995058209478718, 0
8799, -6.612632965157059, -0.036933968898464745, 0
8800, -6.555009970787043, -0.044563266080902435, 0
8801, 0.11047300701320095, 6.07225033265285, 0
8802, 0.0458764443203917, 6.1166434478734475, 0
8803, 0.05840832295392016, 6.065684735012075, 0
8804, -0.11047300701320095, 6.442199937291566, 0
8805, -0.05498894072881595, 6.068146050019616, 0
8806, -0.004031424400960805, 6.098702276925411, 0
8807, -0.11047300701320097, 6.244544378252208, 0
8808, 0.06363603576620482, 6.011400274722686, 0
8809, 0.11047300701320094, 6.338609023976437, 0
8810, -0.11047300701320098, 6.145716598732529, 0
8811, 0.11047300701320095, 6.249822793535241, 0
8812, -0.001123605387885765, 6.294215908755839, 0
8813, -0.011040126217653786, 6.196584954868125, 0
8814, 0.050011717359994566, 6.17982008815351, 0
8815, 0.03407240424608121, 6.2413219030310225, 0
8816, 0.061979869279676164, 6.298048536511532, 0
8817, 0.024605463847127404, 6.3920013266244, 0
8818, 0.027832139490445176, 6.338874736280189, 0
8819, -0.11047300701320095, 6.343372157771887, 0
8820, -0.037260069085226374, 6.4323678883090025, 0
8821, 0.035480617106615965, 6.476259156466695, 0
8822, -0.11047300701320095, 6.639855496330923, 0
8823, -0.040974207161270315, 6.351770641366115, 0
8824, -0.11047300701320095, 6.541027716811245, 0
8825, -0.014537153026689176, 6.505240018099538, 0
8826, -0.05200673048138326, 6.238705447910464, 0
8827, -0.06692676927446209, 6.183211733200112, 0
8828, -0.05520570890213499, 6.126275664965806, 0
8829, -0.06967281214312047, 6.2975001001435755, 0
8830, -0.08118750689475454, 6.392786047531726, 0
8831, 0.11047300701320094, 6.4273952544176325, 0
8832, 0.07854317961534657, 6.383002139197035, 0
8833, 0.08598320341877652, 6.47178836963823, 0
8834, -0.07426324615371693, 6.491613827051405, 0
8835, 0.11047300701320092, 6.6250508134569905, 0
8836, -0.09064162153476615, 6.590441606571083, 0
8837, 0.0015873244829688743, 6.656142484848874, 0
8838, 0.11047300701320091, 7.387136113644122, 0
8839, -0.1104730070132009, 7.62813329152771, 0
8840, 0.11047300701320091, 6.733920142055153, 0
8841, 0.06057543862582988, 6.519515771339152, 0
8842, 0.11047300701320091, 6.951658799251476, 0
8843, 0.010377892385769905, 6.57889046777743, 0
8844, 0.07093520011590435, 6.579181065341067, 0
8845, 0.05406106901374114, 6.633700704602874, 0
8846, 0.08995058209479818, 6.679485477756072, 0
8847, -0.03693396889846632, 6.6126329651570455, 0
8848, -0.044563266080925756, 6.555009970787049, 0
8849, -0.11047300701320174, -6.07225033265285, 0
8850, -0.045876444320389634, -6.1166434478734475, 0
8851, -0.058408322953919914, -6.065684735012074, 0
8852, 0.11047300701320029, -6.442199937291566, 0
8853, 0.05498894072881748, -6.068146050019617, 0
8854, 0.004031424400959228, -6.098702276925406, 0
8855, 0.11047300701320031, -6.244544378252208, 0
8856, -0.06363603576619828, -6.01140027472268, 0
8857, -0.11047300701320178, -6.338609023976437, 0
8858, 0.11047300701320033, -6.145716598732529, 0
8859, -0.11047300701320177, -6.249822793535241, 0
8860, 0.0011236053878850016, -6.294215908755839, 0
8861, 0.011040126217665947, -6.196584954868122, 0
8862, -0.05001171735999101, -6.179820088153516, 0
8863, -0.03407240424606163, -6.241321903031017, 0
8864, -0.06197986927968213, -6.298048536511518, 0
8865, -0.0246054638471552, -6.3920013266243325, 0
8866, -0.027832139490459887, -6.3388747362801485, 0
8867, 0.1104730070132003, -6.343372157771887, 0
8868, 0.03726006908518318, -6.432367888309029, 0
8869, -0.03548061710670472, -6.4762591564665914, 0
8870, 0.11047300701320026, -6.639855496330923, 0
8871, 0.04097420716125801, -6.351770641366141, 0
8872, 0.11047300701320027, -6.541027716811245, 0
8873, 0.014537153026616817, -6.505240018099547, 0
8874, 0.05200673048138787, -6.238705447910461, 0
8875, 0.06692676927447078, -6.183211733200115, 0
8876, 0.05520570890213063, -6.126275664965809, 0
8877, 0.0696728121430964, -6.297500100143588, 0
8878, 0.08118750689476235, -6.392786047531726, 0
8879, -0.1104730070132018, -6.4273952544176325, 0
8880, -0.07854317961537141, -6.383002139197035, 0
8881, -0.08598320341884277, -6.471788369638231, 0
8882, 0.07426324615367025, -6.491613827051405, 0
8883, -0.11047300701320181, -6.6250508134569905, 0
8884, 0.09064162153475933, -6.590441606571083, 0
8885, -0.0015873244829704564, -6.6561424848488855, 0
8886, -0.11047300701320178, -7.387136113644122, 0
8887, 0.11047300701320015, -7.62813329152771, 0
8888, -0.1104730070132018, -6.733920142055153, 0
8889, -0.060575438625800025, -6.519515771339153, 0
8890, -0.1104730070132018, -6.951658799251476, 0
8891, -0.010377892385778725, -6.578890467777451, 0
8892, -0.07093520011591292, -6.579181065341061, 0
8893, -0.054061069013738035, -6.633700704602867, 0
8894, -0.08995058209479076, -6.679485477756072, 0
8895, 0.036933968898464384, -6.612632965157057, 0
8896, 0.04456326608090515, -6.555009970787044, 0
8897, 6.07225033265285, -0.11047300701320223, 0
8898, 6.1166434478734475, -0.045876444320400486, 0
8899, 6.065684735012077, -0.058408322953923945, 0
8900, 6.442199937291566, 0.11047300701320023, 0
8901, 6.068146050019611, 0.05498894072881058, 0
8902, 6.098702276925425, 0.004031424400962998, 0
8903, 6.244544378252208, 0.1104730070132003, 0
8904, 6.011400274722697, -0.06363603576622306, 0
8905, 6.338609023976437, -0.11047300701320228, 0
8906, 6.145716598732529, 0.11047300701320033, 0
8907, 6.249822793535241, -0.11047300701320226, 0
8908, 6.294215908755839, 0.0011236053878847935, 0
8909, 6.196584954868131, 0.011040126217618027, 0
8910, 6.179820088153494, -0.050011717360007556, 0
8911, 6.241321903031036, -0.034072404246135383, 0
8912, 6.2980485365115655, -0.06197986927966394, 0
8913, 6.392001326624573, -0.02460546384705979, 0
8914, 6.338874736280295, -0.027832139490410756, 0
8915, 6.343372157771887, 0.11047300701320026, 0
8916, 6.432367888308935, 0.03726006908533389, 0
8917, 6.476259156466963, -0.03548061710639206, 0
8918, 6.639855496330923, 0.11047300701320018, 0
8919, 6.351770641366049, 0.04097420716129908, 0
8920, 6.541027716811245, 0.1104730070132002, 0
8921, 6.505240018099514, 0.014537153026871863, 0
8922, 6.238705447910469, 0.052006730481368134, 0
8923, 6.183211733200101, 0.06692676927443528, 0
8924, 6.126275664965794, 0.05520570890214307, 0
8925, 6.297500100143543, 0.0696728121431793, 0
8926, 6.392786047531726, 0.08118750689473211, 0
8927, 6.4273952544176325, -0.1104730070132023, 0
8928, 6.383002139197035, -0.07854317961528645, 0
8929, 6.471788369638231, -0.08598320341861027, 0
8930, 6.491613827051405, 0.07426324615383378, 0
8931, 6.6250508134569905, -0.11047300701320233, 0
8932, 6.590441606571083, 0.09064162153478174, 0
8933, 6.656142484848843, -0.001587324482967875, 0
8934, 7.387136113644122, -0.11047300701320238, 0
8935, 7.62813329152771, 0.11047300701319986, 0
8936, 6.733920142055153, -0.11047300701320234, 0
8937, 6.519515771339154, -0.06057543862590935, 0
8938, 6.951658799251476, -0.11047300701320235, 0
8939, 6.578890467777374, -0.010377892385748013, 0
8940, 6.5791810653410865, -0.0709352001158824, 0
8941, 6.633700704602895, -0.054061069013754036, 0
8942, 6.679485477756072, -0.08995058209482419, 0
8943, 6.612632965157016, 0.03693396889846953, 0
8944, 6.555009970787062, 0.044563266080976584, 0
8945, -6.738683275850601, -0.1104730070132008, 0
8946, -0.11047300701320095, 6.738683275850601, 0
8947, 0.11047300701320026, -6.738683275850601, 0
8948, 6.738683275850601, 0.11047300701320015, 0
8949, -6.6892693860907615, -0.060441132084710934, 0
8950, -6.753935529576895, 0.01395455191802762, 0
8951, -6.707399969489789, -0.010898217093866083, 0
8952, -6.842789470653314, 0.11047300701320091, 0
8953, -6.7880971656104405, -0.053381545849328915, 0
8954, -6.846021843515317, 0.018339056377189012, 0
8955, -6.80096273250599, -0.004520791480552025, 0
8956, -7.035166614409637, -0.1104730070132008, 0
8957, -7.232822173448994, -0.1104730070132008, 0
8958, -6.857994235735471, -0.04713916721963933, 0
8959, -6.901498558865043, 0.061358207160954484, 0
8960, -6.903661445327654, 0.0012885305258975542, 0
8961, -7.060528127849637, 0.11047300701320091, 0
8962, -6.936338834889959, -0.1104730070132008, 0
8963, -6.788354806354233, 0.07142676397580396, 0
8964, -7.169397456447799, 0.11047300701320091, 0
8965, -7.013837855499966, -0.04002854187893845, 0
8966, -7.133994393929315, -0.1104730070132008, 0
8967, -7.084580504169477, -0.057060631084942644, 0
8968, -7.0694182887548145, 0.02522183847805086, 0
8969, -7.183408283689155, -0.015194719640579599, 0
8970, -7.1415366653146615, -0.05393180067218044, 0
8971, -7.126259546476468, 0.004579955133055032, 0
8972, -7.1177657779188355, 0.06977320584569946, 0
8973, -7.177016593804487, 0.04770756839222465, 0
8974, -7.27826678504596, 0.11047300701320091, 0
8975, -7.261473984894316, 0.02451365346504903, 0
8976, -7.223832120746879, 0.0852357009381583, 0
8977, -6.9886998175919945, 0.03768106470303993, 0
8978, -7.430477732488352, -0.11047300701320079, 0
8979, -7.332701449345041, 0.05521881369367663, 0
8980, -7.006093463550556, 0.11047300701320091, 0
8981, -7.034181282574713, 0.06463637967136013, 0
8982, -7.246615432653569, -0.04286661902785765, 0
8983, -7.331649952968673, -0.11047300701320079, 0
8984, -7.282236063208834, -0.0853443126868714, 0
8985, -7.342649843239788, -0.02769356658204778, 0
8986, -7.291824660959757, -0.01750763628430742, 0
8987, -7.332701449345041, 0.11047300701320091, 0
8988, -7.381063842728513, -0.07491865569747393, 0
8989, -7.451294395975937, 0.010921761959449085, 0
8990, -7.4383364372688225, -0.04743567717656405, 0
8991, -7.395873886060079, -0.011485078001486196, 0
8992, -7.529305512008031, -0.11047300701320079, 0
8993, -7.479891622248192, -0.08462478454843056, 0
8994, -7.546010979862276, -0.01838103809450735, 0
8995, -7.822613428036768, 0.1104730070132009, 0
8996, -7.403123025615592, 0.05032634609853234, 0
8997, -7.6048747708404445, 0.11047300701320091, 0
8998, -7.457677159440944, 0.0678711651471193, 0
8999, -7.496005442242283, 0.11047300701320091, 0
9000, -7.713744099438607, 0.1104730070132009, 0
9001, -7.613692601989115, 0.0032567297753916917, 0
9002, -8.023444409606425, -0.11047300701320079, 0
9003, -0.06044113208470762, 6.689269386090762, 0
9004, -7.59124390280469, -0.060706881017075436, 0
9005, -7.825788850567067, -0.11047300701320079, 0
9006, 0.01395455191803739, 6.753935529576864, 0
9007, -0.01089821709386262, 6.70739996948977, 0
9008, 0.11047300701320091, 6.842789470653314, 0
9009, -0.053381545849315405, 6.7880971656104405, 0
9010, 0.018339056377214436, 6.846021843515259, 0
9011, -0.00452079148053873, 6.80096273250595, 0
9012, -0.11047300701320092, 7.035166614409637, 0
9013, -0.11047300701320092, 7.232822173448994, 0
9014, -0.04713916721962054, 6.857994235735463, 0
9015, 0.06135820716102916, 6.901498558864958, 0
9016, 0.0012885305259588524, 6.903661445327623, 0
9017, 0.11047300701320091, 7.060528127849637, 0
9018, -0.11047300701320092, 6.936338834889959, 0
9019, 0.07142676397579902, 6.788354806354234, 0
9020, 0.11047300701320091, 7.169397456447799, 0
9021, -0.04002854187886486, 7.013837855500033, 0
9022, -0.11047300701320092, 7.133994393929315, 0
9023, -0.057060631084992736, 7.084580504169477, 0
9024, 0.025221838478047973, 7.069418288755007, 0
9025, -0.01519471964054056, 7.183408283689155, 0
9026, -0.05393180067216932, 7.14153666531467, 0
9027, 0.004579955132980026, 7.126259546476531, 0
9028, 0.06977320584556358, 7.117765777919043, 0
9029, 0.047707568392273, 7.177016593804746, 0
9030, 0.11047300701320091, 7.27826678504596, 0
9031, 0.024513653464782084, 7.261473984894685, 0
9032, 0.08523570093838, 7.223832120746879, 0
9033, 0.03768106470315612, 6.988699817592211, 0
9034, -0.11047300701320091, 7.430477732488352, 0
9035, 0.055218813693887425, 7.332701449345041, 0
9036, 0.11047300701320091, 7.006093463550556, 0
9037, 0.06463637967130392, 7.03418128257495, 0
9038, -0.04286661902792012, 7.246615432653427, 0
9039, -0.11047300701320092, 7.331649952968673, 0
9040, -0.08534431268683583, 7.282236063208834, 0
9041, -0.02769356658194297, 7.342649843239883, 0
9042, -0.0175076362847654, 7.291824660959786, 0
9043, 0.11047300701320091, 7.332701449345041, 0
9044, -0.07491865569745829, 7.381063842728513, 0
9045, 0.01092176195967131, 7.4512943959763875, 0
9046, -0.04743567717655192, 7.43833643726884, 0
9047, -0.011485078001251578, 7.395873886060201, 0
9048, -0.1104730070132009, 7.529305512008031, 0
9049, -0.08462478454843518, 7.479891622248192, 0
9050, -0.01838103809468379, 7.546010979862178, 0
9051, 0.1104730070132009, 7.822613428036768, 0
9052, 0.05032634609869058, 7.403123025616039, 0
9053, 0.11047300701320091, 7.6048747708404445, 0
9054, 0.06787116514715417, 7.4576771594412135, 0
9055, 0.11047300701320091, 7.496005442242283, 0
9056, 0.1104730070132009, 7.713744099438607, 0
9057, 0.003256729774117409, 7.613692601990411, 0
9058, -0.11047300701320088, 8.023444409606425, 0
9059, 0.060441132084709845, -6.689269386090762, 0
9060, -0.06070688101516672, 7.591243902806867, 0
9061, -0.1104730070132009, 7.825788850567067, 0
9062, -0.013954551918030121, -6.75393552957689, 0
9063, 0.010898217093864793, -6.707399969489786, 0
9064, -0.1104730070132018, -6.842789470653314, 0
9065, 0.053381545849326126, -6.7880971656104405, 0
9066, -0.018339056377193574, -6.846021843515309, 0
9067, 0.004520791480549111, -6.800962732505985, 0
9068, 0.11047300701320023, -7.035166614409637, 0
9069, 0.1104730070132002, -7.232822173448994, 0
9070, 0.04713916721963596, -6.857994235735471, 0
9071, -0.06135820716096625, -6.901498558865031, 0
9072, -0.0012885305259074976, -6.903661445327651, 0
9073, -0.1104730070132018, -7.060528127849637, 0
9074, 0.11047300701320023, -6.936338834889959, 0
9075, -0.07142676397580423, -6.788354806354233, 0
9076, -0.1104730070132018, -7.169397456447799, 0
9077, 0.04002854187892707, -7.013837855499976, 0
9078, 0.11047300701320022, -7.133994393929315, 0
9079, 0.05706063108495017, -7.084580504169477, 0
9080, -0.025221838478050984, -7.069418288754845, 0
9081, 0.01519471964057266, -7.183408283689155, 0
9082, 0.053931800672178044, -7.141536665314662, 0
9083, -0.004579955133044045, -7.1262595464764775, 0
9084, -0.06977320584567903, -7.117765777918868, 0
9085, -0.04770756839223313, -7.177016593804528, 0
9086, -0.1104730070132018, -7.27826678504596, 0
9087, -0.024513653465007633, -7.261473984894374, 0
9088, -0.08523570093819421, -7.22383212074688, 0
9089, -0.037681064703058265, -6.988699817592028, 0
9090, 0.11047300701320018, -7.430477732488352, 0
9091, -0.05521881369371024, -7.332701449345041, 0
9092, -0.1104730070132018, -7.006093463550556, 0
9093, -0.06463637967135202, -7.03418128257475, 0
9094, 0.04286661902786689, -7.246615432653547, 0
9095, 0.11047300701320019, -7.331649952968673, 0
9096, 0.08534431268686529, -7.282236063208834, 0
9097, 0.02769356658203078, -7.342649843239803, 0
9098, 0.017507636284378618, -7.291824660959763, 0
9099, -0.11047300701320178, -7.332701449345041, 0
9100, 0.074918655697471, -7.381063842728513, 0
9101, -0.010921761959485077, -7.451294395976009, 0
9102, 0.04743567717656148, -7.438336437268825, 0
9103, 0.011485078001448129, -7.395873886060098, 0
9104, 0.11047300701320016, -7.529305512008031, 0
9105, 0.08462478454843057, -7.479891622248192, 0
9106, 0.01838103809453459, -7.5460109798622605, 0
9107, -0.11047300701320177, -7.822613428036767, 0
9108, -0.050326346098558336, -7.403123025615663, 0
9109, -0.11047300701320177, -7.6048747708404445, 0
9110, -0.06787116514712559, -7.457677159440987, 0
9111, -0.11047300701320177, -7.496005442242283, 0
9112, -0.11047300701320177, -7.713744099438606, 0
9113, -0.0032567297751902938, -7.613692601989321, 0
9114, 0.1104730070132001, -8.023444409606425, 0
9115, 6.6892693860907615, 0.06044113208469864, 0
9116, 0.06070688101677167, -7.591243902805036, 0
9117, 0.11047300701320013, -7.825788850567067, 0
9118, 6.753935529576795, -0.013954551918059726, 0
9119, 6.7073999694897255, 0.010898217093854017, 0
9120, 6.842789470653314, -0.11047300701320235, 0
9121, 6.7880971656104405, 0.053381545849283944, 0
9122, 6.846021843515125, -0.018339056377273538, 0
9123, 6.800962732505859, 0.004520791480508192, 0
9124, 7.035166614409637, 0.11047300701320004, 0
9125, 7.232822173448994, 0.11047300701319998, 0
9126, 6.857994235735443, 0.047139167219576346, 0
9127, 6.901498558864761, -0.06135820716120245, 0
9128, 6.903661445327551, -0.0012885305261011448, 0
9129, 7.060528127849637, -0.11047300701320235, 0
9130, 6.936338834889959, 0.11047300701320006, 0
9131, 6.788354806354233, -0.07142676397578818, 0
9132, 7.169397456447799, -0.11047300701320237, 0
9133, 7.013837855500189, 0.04002854187869394, 0
9134, 7.133994393929315, 0.11047300701320001, 0
9135, 7.084580504169476, 0.057060631085106825, 0
9136, 7.069418288755451, -0.025221838478042546, 0
9137, 7.183408283689155, 0.01519471964044787, 0
9138, 7.141536665314691, 0.053931800672141754, 0
9139, 7.1262595464766765, -0.004579955132808865, 0
9140, 7.117765777919522, -0.06977320584525218, 0
9141, 7.177016593805341, -0.04770756839238646, 0
9142, 7.27826678504596, -0.11047300701320238, 0
9143, 7.261473984895536, -0.0245136534641699, 0
9144, 7.22383212074688, -0.08523570093889228, 0
9145, 6.9886998175927095, -0.037681064703425235, 0
9146, 7.430477732488352, 0.11047300701319991, 0
9147, 7.332701449345041, -0.05521881369437476, 0
9148, 7.006093463550556, -0.11047300701320235, 0
9149, 7.034181282575498, -0.06463637967117569, 0
9150, 7.2466154326531, 0.04286661902806215, 0
9151, 7.331649952968673, 0.11047300701319995, 0
9152, 7.282236063208834, 0.08534431268675252, 0
9153, 7.342649843240102, 0.02769356658170001, 0
9154, 7.2918246609598505, 0.017507636285817575, 0
9155, 7.332701449345041, -0.11047300701320238, 0
9156, 7.381063842728513, 0.0749186556974211, 0
9157, 7.451294395977425, -0.01092176196018526, 0
9158, 7.438336437268881, 0.047435677176522584, 0
9159, 7.395873886060484, 0.011485078000708915, 0
9160, 7.529305512008031, 0.11047300701319988, 0
9161, 7.479891622248192, 0.0846247845484444, 0
9162, 7.5460109798619515, 0.018381038095089508, 0
9163, 7.822613428036768, -0.11047300701320241, 0
9164, 7.403123025617069, -0.05032634609905694, 0
9165, 7.6048747708404445, -0.1104730070132024, 0
9166, 7.457677159441836, -0.06787116514723596, 0
9167, 7.496005442242283, -0.11047300701320238, 0
9168, 7.713744099438607, -0.11047300701320241, 0
9169, 7.613692601993401, -0.0032567297711778367, 0
9170, 8.023444409606425, 0.11047300701319973, 0
9171, -6.985752724649798, -0.08698312221232829, 0
9172, 7.591243902811891, 0.06070688101076094, 0
9173, 7.825788850567067, 0.1104730070131998, 0
9174, -6.937616422784756, -0.04944150262997694, 0
9175, -6.8869249451301195, -0.09147503755705873, 0
9176, -6.971535363543402, -0.010792126897326927, 0
9177, -7.523640483839453, 0.04706751401843125, 0
9178, -7.550440106541364, 0.11047300701320091, 0
9179, -7.583040023701124, 0.054706500350809886, 0
9180, -7.659309435139526, 0.060979156044502686, 0
9181, -7.766142706265946, -0.001837662779576435, 0
9182, -7.722488708401794, 0.04617417449998179, 0
9183, -7.768178763737687, 0.0851320465755724, 0
9184, -7.688952600732032, -0.02816976647535215, 0
9185, -7.726961071047388, -0.11047300701320079, 0
9186, -7.645068626842979, -0.059364320829594835, 0
9187, -7.740889103853297, -0.05411293175354337, 0
9188, -0.08698312221225236, 6.985752724649798, 0
9189, -0.04944150262995913, 6.937616422784689, 0
9190, -0.09147503755704196, 6.8869249451301195, 0
9191, -0.010792126897223454, 6.971535363543378, 0
9192, 0.04706751401850093, 7.52364048383982, 0
9193, 0.11047300701320091, 7.550440106541364, 0
9194, 0.05470650034990838, 7.583040023702103, 0
9195, 0.060979156044368016, 7.659309435139526, 0
9196, -0.0018376627795225198, 7.766142706266051, 0
9197, 0.04617417449998113, 7.722488708401832, 0
9198, 0.08513204657559852, 7.768178763737687, 0
9199, -0.02816976647462697, 7.688952600733021, 0
9200, -0.1104730070132009, 7.726961071047388, 0
9201, -0.05936432083039422, 7.645068626845146, 0
9202, -0.054112931753688615, 7.740889103853839, 0
9203, 0.08698312221231627, -6.985752724649799, 0
9204, 0.049441502629973696, -6.937616422784747, 0
9205, 0.09147503755705622, -6.8869249451301195, 0
9206, 0.010792126897310468, -6.971535363543399, 0
9207, -0.04706751401844306, -7.523640483839512, 0
9208, -0.11047300701320177, -7.550440106541364, 0
9209, -0.05470650035066757, -7.5830400237012805, 0
9210, -0.0609791560444823, -7.659309435139525, 0
9211, 0.0018376627795672756, -7.766142706265962, 0
9212, -0.04617417449998244, -7.7224887084018, 0
9213, -0.08513204657557756, -7.768178763737686, 0
9214, 0.02816976647523557, -7.688952600732189, 0
9215, 0.11047300701320015, -7.726961071047388, 0
9216, 0.05936432082972085, -7.645068626843322, 0
9217, 0.0541129317535658, -7.740889103853383, 0
9218, 6.985752724649798, 0.08698312221207617, 0
9219, 6.9376164227845365, 0.04944150262991691, 0
9220, 6.8869249451301195, 0.09147503755700187, 0
9221, 6.971535363543323, 0.010792126896983778, 0
9222, 7.523640483840668, -0.04706751401866405, 0
9223, 7.550440106541364, -0.1104730070132024, 0
9224, 7.5830400237043625, -0.054706500347829375, 0
9225, 7.659309435139526, -0.060979156044058444, 0
9226, 7.766142706266297, 0.001837662779396551, 0
9227, 7.722488708401919, -0.04617417449998057, 0
9228, 7.768178763737687, -0.08513204657566062, 0
9229, 7.6889526007353055, 0.028169766472954525, 0
9230, 7.726961071047388, 0.11047300701319983, 0
9231, 7.645068626850148, 0.05936432083223818, 0
9232, 7.740889103855094, 0.05411293175402281, 0
9233, -8.040352085233092, 0.11047300701320088, 0
9234, 0.11047300701320088, 8.040352085233092, 0
9235, -0.11047300701320177, -8.04035208523309, 0
9236, 8.040352085233092, -0.11047300701320242, 0
9237, -7.833951354653304, -0.03529938624022348, 0
9238, -7.792292257491588, -0.06880591805054964, 0
9239, -7.82773723687523, 0.03754440920725721, 0
9240, -0.035299386240183916, 7.8339513546534665, 0
9241, -0.06880591805048505, 7.792292257491984, 0
9242, 0.037544409207278626, 7.82773723687534, 0
9243, 0.035299386240216474, -7.833951354653329, 0
9244, 0.06880591805053918, -7.79229225749165, 0
9245, -0.03754440920726144, -7.8277372368752465, 0
9246, 7.833951354653844, 0.0352993862400906, 0
9247, 7.792292257492902, 0.06880591805033331, 0
9248, 7.827737236875596, -0.03754440920732988, 0
9249, -7.93148275663493, 0.1104730070132009, 0
9250, -7.887797302132972, 0.005981026710743256, 0
9251, -7.88282247248775, 0.06943875922010877, 0
9252, -7.985917420934011, 0.026337368408158632, 0
9253, -7.93163296679919, 0.04134143509569315, 0
9254, -7.985917420934011, 0.08601444774888717, 0
9255, -8.221099968645781, -0.11047300701320079, 0
9256, -7.892912321238623, -0.05644936442595201, 0
9257, -7.924616630086746, -0.11047300701320079, 0
9258, -7.944524212571279, -0.020795985539735336, 0
9259, -8.013517309525561, -0.03964400264311961, 0
9260, -7.974030519846585, -0.081288480456751, 0
9261, -8.060412023075163, 0.018735148868362042, 0
9262, -8.149221413831253, 0.11047300701320088, 0
9263, -8.094786749532172, 0.07431386893866265, 0
9264, -8.183694759805656, -0.00047689945127812883, 0
9265, -8.1502001483859, 0.04994653499851509, 0
9266, -8.203656078130335, 0.08108208562289268, 0
9267, -8.31992774816546, -0.11047300701320079, 0
9268, -8.263665834532434, 0.035042988798197734, 0
9269, -8.24844759880214, -0.03847917270092226, 0
9270, -8.122272189126104, -0.11047300701320079, 0
9271, -8.072858299366263, -0.06743718794196006, 0
9272, -8.13531612972818, -0.04560938839613431, 0
9273, -8.192804409872071, -0.05873712740317507, 0
9274, -8.114985809524917, 0.006494457623581319, 0
9275, 0.1104730070132009, 7.93148275663493, 0
9276, 0.00598102671081098, 7.88779730213305, 0
9277, 0.06943875922012321, 7.882822472487804, 0
9278, 0.026337368408245257, 7.985917420934011, 0
9279, 0.04134143509575225, 7.931632966799223, 0
9280, 0.08601444774894862, 7.985917420934011, 0
9281, -0.11047300701320088, 8.221099968645781, 0
9282, -0.056449364425866164, 7.892912321238791, 0
9283, -0.1104730070132009, 7.924616630086746, 0
9284, -0.020795985539586444, 7.9445242125713165, 0
9285, -0.03964400264306012, 8.013517309525627, 0
9286, -0.08128848045667941, 7.974030519846585, 0
9287, 0.01873514886846677, 8.060412023075152, 0
9288, 0.11047300701320088, 8.149221413831253, 0
9289, 0.07431386893872213, 8.094786749532172, 0
9290, -0.00047689945129998634, 8.183694759805588, 0
9291, 0.04994653499851688, 8.150200148385872, 0
9292, 0.08108208562286849, 8.203656078130335, 0
9293, -0.11047300701320087, 8.31992774816546, 0
9294, 0.035042988798231235, 8.263665834532436, 0
9295, -0.038479172700923575, 8.248447598802128, 0
9296, -0.11047300701320088, 8.122272189126104, 0
9297, -0.06743718794199184, 8.072858299366263, 0
9298, -0.04560938839615511, 8.135316129728148, 0
9299, -0.058737127403191515, 8.192804409872041, 0
9300, 0.0064944576235714205, 8.114985809524889, 0
9301, -0.11047300701320177, -7.931482756634929, 0
9302, -0.005981026710754497, -7.887797302132983, 0
9303, -0.06943875922011158, -7.882822472487758, 0
9304, -0.026337368408172593, -7.98591742093401, 0
9305, -0.04134143509570221, -7.931632966799194, 0
9306, -0.08601444774889704, -7.98591742093401, 0
9307, 0.11047300701320009, -8.221099968645781, 0
9308, 0.056449364425937995, -7.892912321238649, 0
9309, 0.11047300701320012, -7.924616630086746, 0
9310, 0.02079598553971055, -7.944524212571284, 0
9311, 0.039644002643110104, -8.01351730952557, 0
9312, 0.08128848045674017, -7.974030519846585, 0
9313, -0.018735148868378126, -8.060412023075159, 0
9314, -0.11047300701320177, -8.149221413831253, 0
9315, -0.07431386893867228, -8.09478674953217, 0
9316, 0.0004768994512812791, -8.183694759805643, 0
9317, -0.04994653499851609, -8.150200148385894, 0
9318, -0.08108208562288732, -8.203656078130333, 0
9319, 0.11047300701320008, -8.31992774816546, 0
9320, -0.0350429887982047, -8.263665834532434, 0
9321, 0.038479172700921827, -8.248447598802139, 0
9322, 0.11047300701320009, -8.122272189126104, 0
9323, 0.06743718794196335, -8.072858299366263, 0
9324, 0.045609388396137665, -8.135316129728174, 0
9325, 0.05873712740317707, -8.192804409872066, 0
9326, -0.006494457623579392, -8.11498580952491, 0
9327, 7.93148275663493, -0.11047300701320241, 0
9328, 7.887797302133233, -0.0059810267109690896, 0
9329, 7.882822472487933, -0.06943875922015734, 0
9330, 7.985917420934011, -0.026337368408449066, 0
9331, 7.931632966799302, -0.04134143509588901, 0
9332, 7.985917420934011, -0.08601444774909361, 0
9333, 8.221099968645781, 0.11047300701319968, 0
9334, 7.89291232123918, 0.056449364425665886, 0
9335, 7.924616630086746, 0.11047300701319976, 0
9336, 7.944524212571405, 0.020795985539241606, 0
9337, 8.013517309525781, 0.039644002642918744, 0
9338, 7.974030519846585, 0.08128848045650966, 0
9339, 8.060412023075127, -0.01873514886871531, 0
9340, 8.149221413831253, -0.11047300701320242, 0
9341, 8.094786749532172, -0.07431386893886398, 0
9342, 8.18369475980543, 0.0004768994513501823, 0
9343, 8.150200148385807, -0.04994653499852232, 0
9344, 8.203656078130335, -0.08108208562281399, 0
9345, 8.31992774816546, 0.11047300701319965, 0
9346, 8.263665834532441, -0.03504298879831092, 0
9347, 8.2484475988021, 0.03847917270092495, 0
9348, 8.122272189126104, 0.1104730070131997, 0
9349, 8.072858299366263, 0.06743718794206514, 0
9350, 8.135316129728073, 0.04560938839620254, 0
9351, 8.19280440987197, 0.05873712740322881, 0
9352, 8.114985809524825, -0.006494457623549747, 0
9353, -9.129045371214708, 0.11047300701320086, 0
9354, -9.209377763842568, -0.11047300701320079, 0
9355, -8.270513858405621, -0.08805234056646441, 0
9356, -8.693568056822063, 0.11047300701320087, 0
9357, -8.289963423198461, -0.008736387419123519, 0
9358, -8.475829399625738, 0.11047300701320088, 0
9359, -8.333829552102532, 0.04740127607573647, 0
9360, -8.366960071027577, 0.11047300701320088, 0
9361, -8.312525406728497, 0.11047300701320088, 0
9362, -8.421394735326658, 0.041642076340172876, 0
9363, -8.421394735326658, 0.11047300701320088, 0
9364, -8.814066645763853, -0.11047300701320079, 0
9365, -8.639133392522982, 0.0055371659618658475, 0
9366, -8.616411086724497, -0.11047300701320079, 0
9367, -8.4711597492309, 0.05822579837409804, 0
9368, -8.369341637925299, -0.040638230237898525, 0
9369, -8.369341637925299, -0.11047300701320079, 0
9370, -8.31705243500424, -0.05603888611621938, 0
9371, -8.375541886885944, 0.013044660850701752, 0
9372, -8.5846987282239, 0.11047300701320087, 0
9373, -8.412109798665059, -0.06277581219331377, 0
9374, -8.517583307204818, -0.11047300701320079, 0
9375, -8.566997196964657, -0.040564230799142904, 0
9376, -8.62506540687306, -0.05193774735266894, 0
9377, -8.715238866244174, -0.11047300701320079, 0
9378, -8.69742595939309, -0.039190103491109796, 0
9379, -8.911306714018385, 0.11047300701320086, 0
9380, -8.764652756004013, -0.06025786662059559, 0
9381, -8.708800888143706, 0.03598438912766236, 0
9382, -8.566997196964657, -0.11047300701320079, 0
9383, -9.01172220480321, -0.11047300701320079, 0
9384, -8.802437385420223, 0.11047300701320087, 0
9385, -8.487410729370204, -0.036727914328751624, 0
9386, -8.569022422088146, 0.03575433996248237, 0
9387, -8.46816941744498, -0.08764549296524425, 0
9388, -8.43682285158005, -0.012351563147310549, 0
9389, -8.52900079677155, -0.0013697840954014565, 0
9390, -8.530264063924818, 0.08288982720887399, 0
9391, -8.639133392522982, 0.07212386920117304, 0
9392, 0.11047300701320086, 9.129045371214708, 0
9393, -0.11047300701320083, 9.209377763842568, 0
9394, -0.08805234056646154, 8.27051385840562, 0
9395, 0.11047300701320087, 8.693568056822063, 0
9396, -0.008736387419108864, 8.289963423198449, 0
9397, 0.11047300701320088, 8.475829399625738, 0
9398, 0.04740127607573451, 8.33382955210254, 0
9399, 0.11047300701320088, 8.366960071027577, 0
9400, 0.11047300701320088, 8.312525406728497, 0
9401, 0.04164207634018291, 8.421394735326658, 0
9402, 0.11047300701320088, 8.421394735326658, 0
9403, -0.11047300701320084, 8.814066645763853, 0
9404, 0.005537165961865806, 8.639133392522982, 0
9405, -0.11047300701320086, 8.616411086724497, 0
9406, 0.058225798374097505, 8.471159749230903, 0
9407, -0.040638230237884265, 8.369341637925299, 0
9408, -0.11047300701320087, 8.369341637925299, 0
9409, -0.05603888611621135, 8.317052435004232, 0
9410, 0.013044660850709516, 8.375541886885951, 0
9411, 0.11047300701320087, 8.5846987282239, 0
9412, -0.0627758121933081, 8.41210979866506, 0
9413, -0.11047300701320087, 8.517583307204818, 0
9414, -0.04056423079914296, 8.566997196964657, 0
9415, -0.051937747352669004, 8.62506540687306, 0
9416, -0.11047300701320086, 8.715238866244174, 0
9417, -0.03919010349110985, 8.69742595939309, 0
9418, 0.11047300701320086, 8.911306714018385, 0
9419, -0.06025786662059566, 8.764652756004013, 0
9420, 0.03598438912766232, 8.708800888143706, 0
9421, -0.11047300701320087, 8.566997196964657, 0
9422, -0.11047300701320084, 9.01172220480321, 0
9423, 0.11047300701320087, 8.802437385420223, 0
9424, -0.036727914328753164, 8.487410729370206, 0
9425, 0.035754339962482326, 8.569022422088146, 0
9426, -0.08764549296524486, 8.468169417444978, 0
9427, -0.0123515631473025, 8.436822851580054, 0
9428, -0.001369784095401505, 8.52900079677155, 0
9429, 0.08288982720887396, 8.530264063924818, 0
9430, 0.07212386920117303, 8.639133392522982, 0
9431, -0.11047300701320176, -9.129045371214705, 0
9432, 0.11047300701319998, -9.209377763842568, 0
9433, 0.08805234056646336, -8.270513858405621, 0
9434, -0.11047300701320177, -8.693568056822059, 0
9435, 0.00873638741911983, -8.28996342319846, 0
9436, -0.11047300701320177, -8.475829399625736, 0
9437, -0.047401276075737256, -8.333829552102532, 0
9438, -0.11047300701320177, -8.366960071027574, 0
9439, -0.11047300701320177, -8.312525406728493, 0
9440, -0.04164207634017822, -8.421394735326654, 0
9441, -0.11047300701320177, -8.421394735326654, 0
9442, 0.11047300701320002, -8.814066645763853, 0
9443, -0.005537165961866736, -8.639133392522979, 0
9444, 0.11047300701320004, -8.616411086724497, 0
9445, -0.05822579837409812, -8.4711597492309, 0
9446, 0.04063823023789549, -8.369341637925299, 0
9447, 0.11047300701320008, -8.369341637925299, 0
9448, 0.0560388861162172, -8.317052435004237, 0
9449, -0.013044660850703792, -8.375541886885944, 0
9450, -0.11047300701320177, -8.584698728223898, 0
9451, 0.06277581219331035, -8.41210979866506, 0
9452, 0.11047300701320005, -8.517583307204818, 0
9453, 0.040564230799144285, -8.566997196964657, 0
9454, 0.05193774735266853, -8.62506540687306, 0
9455, 0.11047300701320004, -8.715238866244174, 0
9456, 0.0391901034911059, -8.697425959393092, 0
9457, -0.11047300701320177, -8.911306714018382, 0
9458, 0.060257866620595596, -8.764652756004013, 0
9459, -0.035984389127665065, -8.7088008881437, 0
9460, 0.11047300701320005, -8.566997196964657, 0
9461, 0.11047300701320001, -9.01172220480321, 0
9462, -0.11047300701320177, -8.80243738542022, 0
9463, 0.036727914328751846, -8.487410729370206, 0
9464, -0.03575433996248252, -8.56902242208814, 0
9465, 0.08764549296524371, -8.468169417444978, 0
9466, 0.0123515631473054, -8.436822851580052, 0
9467, 0.001369784095404912, -8.529000796771552, 0
9468, -0.08288982720887625, -8.530264063924818, 0
9469, -0.07212386920117347, -8.639133392522979, 0
9470, 9.129045371214708, -0.11047300701320249, 0
9471, 9.209377763842568, 0.11047300701319937, 0
9472, 8.27051385840562, 0.08805234056645339, 0
9473, 8.693568056822063, -0.11047300701320246, 0
9474, 8.289963423198415, 0.00873638741907308, 0
9475, 8.475829399625738, -0.11047300701320245, 0
9476, 8.333829552102559, -0.04740127607572721, 0
9477, 8.366960071027577, -0.11047300701320245, 0
9478, 8.312525406728497, -0.11047300701320245, 0
9479, 8.421394735326658, -0.0416420763402124, 0
9480, 8.421394735326658, -0.11047300701320245, 0
9481, 8.814066645763853, 0.1104730070131995, 0
9482, 8.639133392522982, -0.005537165961867263, 0
9483, 8.616411086724497, 0.11047300701319955, 0
9484, 8.471159749230914, -0.05822579837409802, 0
9485, 8.369341637925299, 0.04063823023784589, 0
9486, 8.369341637925299, 0.11047300701319963, 0
9487, 8.317052435004214, 0.05603888611619003, 0
9488, 8.375541886885975, -0.013044660850730153, 0
9489, 8.5846987282239, -0.11047300701320245, 0
9490, 8.412109798665064, 0.06277581219329179, 0
9491, 8.517583307204818, 0.11047300701319959, 0
9492, 8.566997196964657, 0.040564230799141586, 0
9493, 8.62506540687306, 0.05193774735266763, 0
9494, 8.715238866244174, 0.11047300701319952, 0
9495, 8.69742595939309, 0.03919010349110842, 0
9496, 8.911306714018385, -0.11047300701320248, 0
9497, 8.764652756004013, 0.060257866620594305, 0
9498, 8.708800888143706, -0.03598438912766384, 0
9499, 8.566997196964657, 0.11047300701319958, 0
9500, 9.01172220480321, 0.11047300701319944, 0
9501, 8.802437385420223, -0.11047300701320246, 0
9502, 8.487410729370211, 0.03672791432875523, 0
9503, 8.569022422088146, -0.03575433996248381, 0
9504, 8.468169417444978, 0.08764549296524451, 0
9505, 8.436822851580061, 0.012351563147279261, 0
9506, 8.529000796771552, 0.0013697840954001173, 0
9507, 8.530264063924818, -0.08288982720887547, 0
9508, 8.639133392522982, -0.07212386920117453, 0
9509, -8.871961317806367, -0.004081840660891033, 0
9510, -8.826844663453452, -0.04847859763692268, 0
9511, -8.782697159502662, 0.014541035912962734, 0
9512, -8.912894425283532, -0.11047300701320079, 0
9513, -8.863480535523694, -0.08834390341605479, 0
9514, -8.748002721121143, 0.08280297269823111, 0
9515, -8.837356060374542, 0.05329069053775907, 0
9516, -8.856872049719303, 0.11047300701320087, 0
9517, -8.898277401776326, 0.05091382335268532, 0
9518, -8.971722447543762, -0.018024623477622917, 0
9519, -9.020176042616548, 0.11047300701320086, 0
9520, -8.965741378317468, 0.0673599932337533, 0
9521, -8.962308315043371, -0.0769754120796172, 0
9522, -8.917845452667855, -0.03964783744151869, 0
9523, -9.110549984322889, -0.11047300701320079, 0
9524, -9.037928492581763, 0.0321374726692083, 0
9525, -9.074610706915628, 0.08162972311985849, 0
9526, -9.129467702588183, 0.04388824068795849, 0
9527, -9.564522685607354, 0.11047300701320086, 0
9528, -9.346784028411031, 0.11047300701320086, 0
9529, -9.192233737963859, -0.02148353337763942, 0
9530, -9.237914699812869, 0.11047300701320086, 0
9531, -9.183480035513789, 0.0775245506360504, 0
9532, -9.036919843809558, -0.03530308022886926, 0
9533, -9.088879729831046, -0.002352379158980504, 0
9534, -9.088198311269538, -0.058720915702504144, 0
9535, -9.148541293141298, -0.06336172371069795, 0
9536, -9.604688881921284, -0.11047300701320079, 0
9537, -9.205600705969811, 0.029589310969168205, 0
9538, -9.407033322881926, -0.11047300701320079, 0
9539, -9.258393726170882, 0.029498308799666507, 0
9540, -9.29234936411195, 0.08116289826239818, 0
9541, -9.371895525745613, -0.0013670250895220087, 0
9542, -9.343678985809245, 0.05103666580691031, 0
9543, -9.455653357009194, 0.11047300701320086, 0
9544, -9.401218692710112, 0.07782998281183881, 0
9545, -9.483492630467255, 0.002340520990203182, 0
9546, -9.45354507429401, 0.05228029240392175, 0
9547, -9.510088021308274, 0.07936632778703448, 0
9548, -9.585755103325686, 0.010135758122731778, 0
9549, -9.55903376170431, 0.05689636700049017, 0
9550, -9.782261342803677, 0.11047300701320086, 0
9551, -9.673392014205515, 0.11047300701320086, 0
9552, -9.62549937355295, 0.06386287166685237, 0
9553, -9.308205543362247, -0.11047300701320079, 0
9554, -9.802344440960642, -0.11047300701320079, 0
9555, -9.687213587866099, 0.051529536862497616, 0
9556, -9.727826678504595, 0.11047300701320086, 0
9557, -9.220461457309334, -0.06219155334539272, 0
9558, -9.309777161045433, -0.005672259861646621, 0
9559, -9.259156025477628, -0.02450831251038263, 0
9560, -9.344654311228338, -0.05860744390930523, 0
9561, -9.505861102401605, -0.11047300701320079, 0
9562, -9.53557691457467, -0.00626449643362411, 0
9563, -9.600089899288985, -0.049404435649132106, 0
9564, -9.651336449340183, -0.005570695811851399, 0
9565, -9.703516661440963, -0.11047300701320079, 0
9566, -9.703755147353094, 0.0013149141369073417, 0
9567, -9.761094622306931, 0.04288628859871829, 0
9568, -9.654102771681124, -0.076044264065938, 0
9569, -9.89113067140184, 0.11047300701320084, 0
9570, -9.864001809052814, -0.011661482502889842, 0
9571, -9.803843738089606, -0.0008090433799941218, 0
9572, -9.845255073833158, 0.056582811006224226, 0
9573, -9.90117222048032, -0.11047300701320079, 0
9574, -9.795797022859931, -0.055541261602992775, 0
9575, -9.555274992161445, -0.08348683610336205, 0
9576, -9.854393004920324, -0.0716731224729129, 0
9577, -9.931453919319623, 0.0005482931962900746, 0
9578, -9.456447212641766, -0.06164635288888263, 0
9579, -9.400819666655202, -0.05023465119080903, 0
9580, -9.509982657277787, -0.05391663549194742, 0
9581, -10.0, 2.7755575615636056e-17, 0
9582, -9.97278266785046, 0.05523650350660044, 0
9583, -9.94556533570092, 0.11047300701320084, 0
9584, -9.909316582391192, -0.05305402465803111, 0
9585, -9.90417273023193, 0.05289900819286701, 0
9586, -9.971454681241521, -0.05523650350659992, 0
9587, -9.73277145005444, -0.054641203575609046, 0
9588, -0.00408184066089104, 8.871961317806367, 0
9589, -0.04847859763692272, 8.826844663453452, 0
9590, 0.01454103591296265, 8.782697159502662, 0
9591, -0.11047300701320084, 8.912894425283532, 0
9592, -0.08834390341605483, 8.863480535523692, 0
9593, 0.08280297269823109, 8.748002721121143, 0
9594, 0.053290690537759054, 8.837356060374542, 0
9595, 0.11047300701320087, 8.856872049719303, 0
9596, 0.050913823352685336, 8.898277401776326, 0
9597, -0.018024623477622903, 8.971722447543762, 0
9598, 0.11047300701320086, 9.020176042616548, 0
9599, 0.0673599932337533, 8.965741378317466, 0
9600, -0.0769754120796172, 8.962308315043371, 0
9601, -0.03964783744151868, 8.917845452667855, 0
9602, -0.11047300701320084, 9.110549984322889, 0
9603, 0.03213747266920729, 9.037928492581761, 0
9604, 0.08162972311985701, 9.074610706915628, 0
9605, 0.04388824068795823, 9.129467702588185, 0
9606, 0.11047300701320086, 9.564522685607354, 0
9607, 0.11047300701320086, 9.346784028411031, 0
9608, -0.021483533377640973, 9.192233737963857, 0
9609, 0.11047300701320086, 9.237914699812869, 0
9610, 0.07752455063605171, 9.183480035513789, 0
9611, -0.03530308022887069, 9.036919843809558, 0
9612, -0.002352379158980379, 9.088879729831046, 0
9613, -0.05872091570250397, 9.08819831126954, 0
9614, -0.06336172371069992, 9.148541293141298, 0
9615, -0.1104730070132008, 9.604688881921284, 0
9616, 0.029589310969167455, 9.205600705969808, 0
9617, -0.11047300701320081, 9.407033322881926, 0
9618, 0.029498308799666237, 9.258393726170878, 0
9619, 0.0811628982623965, 9.29234936411195, 0
9620, -0.0013670250895214259, 9.371895525745614, 0
9621, 0.051036665806910346, 9.343678985809245, 0
9622, 0.11047300701320086, 9.455653357009194, 0
9623, 0.07782998281183882, 9.401218692710112, 0
9624, 0.0023405209902064433, 9.483492630467254, 0
9625, 0.05228029240392347, 9.45354507429401, 0
9626, 0.07936632778703528, 9.510088021308274, 0
9627, 0.010135758122730584, 9.585755103325686, 0
9628, 0.05689636700048961, 9.55903376170431, 0
9629, 0.11047300701320086, 9.782261342803677, 0
9630, 0.11047300701320086, 9.673392014205515, 0
9631, 0.06386287166685133, 9.62549937355295, 0
9632, -0.11047300701320081, 9.308205543362247, 0
9633, -0.11047300701320079, 9.802344440960642, 0
9634, 0.05152953686249734, 9.687213587866097, 0
9635, 0.11047300701320086, 9.727826678504595, 0
9636, -0.06219155334539307, 9.220461457309334, 0
9637, -0.005672259861645046, 9.309777161045433, 0
9638, -0.0245083125103831, 9.259156025477628, 0
9639, -0.05860744390930445, 9.344654311228338, 0
9640, -0.11047300701320081, 9.505861102401605, 0
9641, -0.0062644964336242386, 9.535576914574667, 0
9642, -0.04940443564913342, 9.600089899288982, 0
9643, -0.005570695811855476, 9.651336449340185, 0
9644, -0.11047300701320079, 9.703516661440963, 0
9645, 0.0013149141369074042, 9.703755147353096, 0
9646, 0.04288628859872115, 9.76109462230693, 0
9647, -0.07604426406593542, 9.654102771681124, 0
9648, 0.11047300701320084, 9.89113067140184, 0
9649, -0.011661482502880308, 9.86400180905284, 0
9650, -0.0008090433799885187, 9.803843738089622, 0
9651, 0.05658281100622247, 9.84525507383317, 0
9652, -0.11047300701320079, 9.90117222048032, 0
9653, -0.05554126160298893, 9.79579702285994, 0
9654, -0.08348683610336541, 9.555274992161443, 0
9655, -0.07167312247290045, 9.854393004920334, 0
9656, 0.0005482931962967251, 9.931453919319637, 0
9657, -0.06164635288888124, 9.456447212641766, 0
9658, -0.050234651190809276, 9.400819666655202, 0
9659, -0.05391663549194832, 9.509982657277787, 0
9660, 2.7755575615636056e-17, 10.0, 0
9661, 0.05523650350660044, 9.97278266785046, 0
9662, 0.11047300701320084, 9.94556533570092, 0
9663, -0.05305402465803006, 9.90931658239121, 0
9664, 0.0528990081928709, 9.90417273023194, 0
9665, -0.05523650350659992, 9.971454681241534, 0
9666, -0.054641203575609455, 9.732771450054445, 0
9667, 0.00408184066089038, -8.871961317806367, 0
9668, 0.048478597636921895, -8.826844663453452, 0
9669, -0.014541035912967779, -8.78269715950266, 0
9670, 0.11047300701320001, -8.912894425283532, 0
9671, 0.08834390341605401, -8.863480535523692, 0
9672, -0.08280297269823128, -8.74800272112114, 0
9673, -0.053290690537761684, -8.837356060374542, 0
9674, -0.11047300701320177, -8.8568720497193, 0
9675, -0.05091382335268584, -8.898277401776326, 0
9676, 0.01802462347762234, -8.971722447543762, 0
9677, -0.11047300701320176, -9.020176042616544, 0
9678, -0.06735999323375814, -8.965741378317462, 0
9679, 0.07697541207961653, -8.962308315043371, 0
9680, 0.03964783744151806, -8.917845452667855, 0
9681, 0.1104730070132, -9.110549984322889, 0
9682, -0.03213747266920588, -9.037928492581758, 0
9683, -0.08162972311985645, -9.074610706915625, 0
9684, -0.04388824068795963, -9.129467702588181, 0
9685, -0.11047300701320174, -9.56452268560735, 0
9686, -0.11047300701320174, -9.346784028411028, 0
9687, 0.02148353337763706, -9.19223373796386, 0
9688, -0.11047300701320176, -9.237914699812865, 0
9689, -0.07752455063605285, -9.183480035513785, 0
9690, 0.03530308022887291, -9.036919843809558, 0
9691, 0.002352379158979484, -9.088879729831044, 0
9692, 0.05872091570250286, -9.08819831126954, 0
9693, 0.06336172371069802, -9.148541293141301, 0
9694, 0.11047300701319994, -9.604688881921284, 0
9695, -0.029589310969171834, -9.205600705969815, 0
9696, 0.11047300701319995, -9.407033322881926, 0
9697, -0.029498308799668096, -9.258393726170885, 0
9698, -0.0811628982624025, -9.292349364111946, 0
9699, 0.001367025089522883, -9.371895525745606, 0
9700, -0.05103666580691088, -9.34367898580924, 0
9701, -0.11047300701320174, -9.45565335700919, 0
9702, -0.07782998281183784, -9.401218692710108, 0
9703, -0.0023405209901940643, -9.48349263046726, 0
9704, -0.05228029240391669, -9.453545074294011, 0
9705, -0.07936632778703778, -9.51008802130827, 0
9706, -0.010135758122750096, -9.58575510332567, 0
9707, -0.05689636700050107, -9.559033761704299, 0
9708, -0.11047300701320173, -9.782261342803675, 0
9709, -0.11047300701320173, -9.673392014205513, 0
9710, -0.06386287166686624, -9.625499373552937, 0
9711, 0.11047300701319997, -9.308205543362247, 0
9712, 0.11047300701319991, -9.802344440960642, 0
9713, -0.05152953686249498, -9.687213587866124, 0
9714, -0.11047300701320173, -9.727826678504595, 0
9715, 0.06219155334539156, -9.220461457309336, 0
9716, 0.005672259861647551, -9.309777161045432, 0
9717, 0.02450831251037977, -9.259156025477626, 0
9718, 0.05860744390930465, -9.344654311228334, 0
9719, 0.11047300701319995, -9.505861102401605, 0
9720, 0.006264496433626076, -9.535576914574667, 0
9721, 0.04940443564911703, -9.60008989928901, 0
9722, 0.005570695811802643, -9.651336449340159, 0
9723, 0.11047300701319993, -9.703516661440963, 0
9724, -0.0013149141368964607, -9.70375514735307, 0
9725, -0.04288628859867806, -9.761094622306965, 0
9726, 0.07604426406595294, -9.654102771681124, 0
9727, -0.11047300701320173, -9.891130671401836, 0
9728, 0.011661482503019904, -9.864001809052466, 0
9729, 0.0008090433800717056, -9.803843738089407, 0
9730, -0.05658281100624156, -9.84525507383299, 0
9731, 0.11047300701319991, -9.90117222048032, 0
9732, 0.05554126160304422, -9.795797022859826, 0
9733, 0.08348683610333502, -9.555274992161443, 0
9734, 0.07167312247307658, -9.854393004920187, 0
9735, -0.000548293196202886, -9.931453919319445, 0
9736, 0.06164635288888617, -9.456447212641766, 0
9737, 0.05023465119080894, -9.400819666655202, 0
9738, 0.05391663549193974, -9.509982657277778, 0
9739, -9.159339953157541e-16, -9.999999999999998, 0
9740, -0.055236503506601316, -9.972782667850456, 0
9741, -0.11047300701320173, -9.945565335700916, 0
9742, 0.05305402465804349, -9.909316582390954, 0
9743, -0.05289900819281404, -9.904172730231775, 0
9744, 0.0552365035065995, -9.971454681241358, 0
9745, 0.05464120357560744, -9.732771450054367, 0
9746, 8.871961317806367, 0.004081840660889617, 0
9747, 8.826844663453452, 0.048478597636921354, 0
9748, 8.782697159502662, -0.014541035912964018, 0
9749, 8.912894425283532, 0.11047300701319947, 0
9750, 8.863480535523692, 0.08834390341605347, 0
9751, 8.748002721121143, -0.08280297269823264, 0
9752, 8.837356060374542, -0.05329069053776055, 0
9753, 8.856872049719303, -0.11047300701320246, 0
9754, 8.898277401776326, -0.05091382335268682, 0
9755, 8.971722447543762, 0.018024623477621446, 0
9756, 9.020176042616548, -0.11047300701320249, 0
9757, 8.965741378317468, -0.0673599932337549, 0
9758, 8.962308315043371, 0.07697541207961575, 0
9759, 8.917845452667855, 0.03964783744151722, 0
9760, 9.110549984322889, 0.1104730070131994, 0
9761, 9.037928492581763, -0.032137472669209896, 0
9762, 9.074610706915628, -0.0816297231198601, 0
9763, 9.129467702588183, -0.04388824068796, 0
9764, 9.564522685607354, -0.11047300701320252, 0
9765, 9.346784028411031, -0.1104730070132025, 0
9766, 9.192233737963859, 0.021483533377637948, 0
9767, 9.237914699812869, -0.11047300701320249, 0
9768, 9.183480035513789, -0.07752455063605199, 0
9769, 9.036919843809558, 0.03530308022886761, 0
9770, 9.088879729831046, 0.002352379158978894, 0
9771, 9.088198311269538, 0.05872091570250263, 0
9772, 9.148541293141298, 0.06336172371069657, 0
9773, 9.604688881921284, 0.11047300701319925, 0
9774, 9.205600705969811, -0.029589310969169738, 0
9775, 9.407033322881926, 0.11047300701319931, 0
9776, 9.258393726170882, -0.02949830879966804, 0
9777, 9.292349364111951, -0.08116289826239975, 0
9778, 9.371895525745616, 0.0013670250895198022, 0
9779, 9.343678985809246, -0.05103666580691174, 0
9780, 9.455653357009194, -0.11047300701320252, 0
9781, 9.401218692710113, -0.07782998281184209, 0
9782, 9.483492630467252, -0.002340520990210704, 0
9783, 9.45354507429401, -0.05228029240392682, 0
9784, 9.510088021308274, -0.07936632778703774, 0
9785, 9.585755103325686, -0.010135758122730987, 0
9786, 9.55903376170431, -0.05689636700049069, 0
9787, 9.782261342803677, -0.11047300701320252, 0
9788, 9.673392014205515, -0.11047300701320252, 0
9789, 9.625499373552952, -0.0638628716668519, 0
9790, 9.308205543362247, 0.11047300701319934, 0
9791, 9.802344440960642, 0.11047300701319918, 0
9792, 9.687213587866093, -0.05152953686249866, 0
9793, 9.727826678504595, -0.11047300701320252, 0
9794, 9.220461457309334, 0.06219155334539129, 0
9795, 9.309777161045435, 0.005672259861644886, 0
9796, 9.25915602547763, 0.024508312510381717, 0
9797, 9.344654311228341, 0.05860744390930429, 0
9798, 9.505861102401605, 0.11047300701319929, 0
9799, 9.535576914574666, 0.006264496433622757, 0
9800, 9.600089899288976, 0.049404435649133126, 0
9801, 9.651336449340187, 0.005570695811859486, 0
9802, 9.703516661440963, 0.1104730070131992, 0
9803, 9.703755147353098, -0.0013149141369096775, 0
9804, 9.761094622306926, -0.042886288598726854, 0
9805, 9.654102771681123, 0.0760442640659297, 0
9806, 9.89113067140184, -0.11047300701320253, 0
9807, 9.864001809052873, 0.011661482502866138, 0
9808, 9.80384373808964, 0.0008090433799793316, 0
9809, 9.845255073833187, -0.056582811006222915, 0
9810, 9.90117222048032, 0.11047300701319915, 0
9811, 9.79579702285995, 0.05554126160298237, 0
9812, 9.555274992161443, 0.08348683610336846, 0
9813, 9.854393004920347, 0.07167312247288303, 0
9814, 9.931453919319653, -0.0005482931963064311, 0
9815, 9.456447212641764, 0.06164635288887859, 0
9816, 9.400819666655204, 0.05023465119080563, 0
9817, 9.509982657277787, 0.053916635491949166, 0
9818, 10.0, -1.7069679003611853e-15, 0
9819, 9.97278266785046, -0.05523650350660212, 0
9820, 9.94556533570092, -0.11047300701320253, 0
9821, 9.90931658239123, 0.05305402465802728, 0
9822, 9.904172730231956, -0.05289900819287777, 0
9823, 9.971454681241548, 0.05523650350659825, 0
9824, 9.732771450054452, 0.05464120357560802, 0
*ELEMENT, TYPE=CPS3
1, 1040, 1041, 2011
2, 2057, 1937, 1805
3, 1445, 2274, 397
4, 2928, 2500, 1947
5, 2508, 1585, 1558
6, 1754, 1905, 1627
7, 2134, 1998, 2082
8, 1754, 1039, 1040
9, 1508, 1821, 2087
10, 2127, 2012, 2087
11, 2194, 1756, 1906
12, 2095, 2029, 1919
13, 885, 2038, 884
14, 1907, 2473, 1756
15, 2023, 1764, 876
16, 1036, 1037, 2473
17, 2009, 1904, 2008
18, 1416, 1467, 1931
19, 1759, 1044, 1045
20, 2066, 776, 777
21, 6269, 395, 6268
22, 2015, 1757, 1630
23, 1333, 1321, 1337
24, 2624, 2625, 2138
25, 2927, 2499, 1942
26, 2274, 1401, 1446
27, 1481, 1433, 6262
28, 1550, 391, 1704
29, 1319, 1331, 1315
30, 393, 1447, 394
31, 394, 1447, 6268
32, 1393, 1375, 2272
33, 1550, 392, 391
34, 1397, 4514, 4515
35, 1399, 4536, 4537
36, 1628, 1755, 1904
37, 493, 1956, 494
38, 1447, 1682, 1402
39, 2156, 2190, 1952
40, 1885, 1883, 616
41, 387, 1795, 388
42, 1895, 1750, 2857
43, 2190, 2181, 2637
44, 2156, 1952, 2070
45, 2390, 1889, 1747
46, 2197, 2207, 2202
47, 1739, 1870, 1871
48, 2204, 1611, 6896
49, 1611, 2843, 3988
50, 6285, 6286, 1028
51, 1855, 1853, 1731
52, 1859, 1734, 1860
53, 6286, 1027, 1028
54, 1998, 301, 300
55, 2576, 1795, 1850
56, 2902, 2450, 1877
57, 5075, 5078, 5077
58, 5137, 5140, 5139
59, 485, 2411, 1789
60, 7212, 8183, 1548
61, 1030, 6279, 6278
62, 6426, 2405, 6425
63, 389, 1541, 390
64, 1491, 1541, 1932
65, 1729, 2380, 2843
66, 5143, 1563, 4598
67, 1660, 1789, 2411
68, 306, 1836, 307
69, 6313, 6308, 6309
70, 382, 381, 3030
71, 1353, 2297, 1512
72, 382, 3579, 383
73, 1325, 6983, 6982
74, 3031, 2647, 6297
75, 1907, 2472, 2471
76, 6323, 6307, 6322
77, 1323, 1339, 1335
78, 1903, 1901, 1753
79, 406, 1485, 1538
80, 1913, 1636, 2022
81, 2311, 2310, 2308
82, 1902, 68, 67
83, 23, 22, 1897
84, 1053, 2319, 2918
85, 2137, 2162, 2088
86, 2313, 2290, 2317
87, 1757, 1048, 1758
88, 1794, 6274, 2050
89, 1630, 1758, 2016
90, 1933, 2052, 1542
91, 8210, 8211, 8213
92, 1050, 1051, 2475
93, 1779, 1633, 2588
94, 1538, 2307, 407
95, 2323, 1674, 2324
96, 1769, 1208, 2028
97, 2324, 2322, 2323
98, 617, 1883, 1882
99, 2325, 2321, 2328
100, 2897, 1803, 1683
101, 2889, 2890, 2888
102, 411, 410, 1796
103, 2003, 500, 499
104, 2325, 2330, 1612
105, 2820, 3353, 6448
106, 6461, 6454, 6455
107, 6467, 7902, 7900
108, 2611, 1720, 3010
109, 822, 823, 2601
110, 7280, 7279, 1061
111, 985, 986, 3995
112, 6469, 6467, 6470
113, 1855, 1859, 983
114, 2052, 1796, 410
115, 571, 570, 1890
116, 326, 2409, 1785
117, 1389, 1373, 2270
118, 1048, 1049, 1758
119, 324, 2270, 1422
120, 1449, 1537, 404
121, 1485, 406, 405
122, 1477, 1429, 6260
123, 1537, 1485, 405
124, 483, 2272, 1426
125, 8545, 8639, 8476
126, 2274, 398, 397
127, 9559, 9539, 9558
128, 1450, 401, 2275
129, 1449, 403, 1646
130, 1330, 6986, 1310
131, 398, 1446, 399
132, 6922, 1433, 1379
133, 1478, 472, 471
134, 2275, 401, 400
135, 5081, 1561, 4566
136, 8204, 8169, 1574
137, 465, 1832, 466
138, 413, 1851, 2381
139, 414, 413, 2381
140, 1658, 1785, 2409
141, 1852, 1851, 412
142, 1684, 329, 1473
143, 1355, 2301, 1514
144, 417, 416, 3032
145, 1429, 476, 475
146, 418, 417, 7301
147, 7312, 6441, 6481
148, 1327, 6976, 6975
149, 6441, 7301, 3032
150, 1686, 488, 1475
151, 2381, 6531, 414
152, 1482, 313, 312
153, 406, 1538, 407
154, 9184, 9180, 9182
155, 332, 331, 1553
156, 1757, 1047, 1048
157, 2115, 461, 460
158, 3331, 2298, 4556
159, 2526, 2527, 2529
160, 6313, 6309, 6312
161, 6310, 6307, 6324
162, 1023, 1024, 6317
163, 6332, 6330, 6327
164, 1828, 1829, 1708
165, 6314, 6300, 6308
166, 1835, 1834, 624
167, 1947, 2066, 2598
168, 6358, 6397, 6355
169, 6360, 6367, 6354
170, 6354, 6368, 6376
171, 3018, 2043, 8128
172, 5764, 2884, 2425
173, 6371, 6375, 6368
174, 3449, 1745, 1886
175, 6332, 7274, 1022
176, 1822, 1823, 1705
177, 6341, 6344, 6325
178, 1400, 2, 1
179, 401, 1450, 402
180, 2773, 4530, 3917
181, 6361, 6364, 6359
182, 6364, 6361, 6363
183, 1398, 161, 160
184, 6349, 6351, 6350
185, 1017, 7235, 1016
186, 560, 1460, 2777
187, 328, 1473, 329
188, 1466, 1653, 1651
189, 7302, 3034, 6442
190, 7302, 371, 370
191, 2040, 2041, 1926
192, 6372, 7241, 7239
193, 1397, 320, 319
194, 6374, 1017, 6373
195, 3947, 4601, 4594
196, 1014, 7854, 1013
197, 167, 166, 2410
198, 7263, 7264, 7848
199, 5269, 5973, 5974
200, 6086, 6084, 6044
201, 2585, 2586, 1639
202, 1642, 1774, 2861
203, 7265, 7268, 7234
204, 3931, 1417, 4554
205, 2018, 2090, 1910
206, 2140, 2020, 2091
207, 5892, 5606, 5969
208, 1010, 6157, 6155
209, 4365, 3764, 1886
210, 1751, 2467, 1897
211, 5972, 2213, 5890
212, 2850, 2386, 1739
213, 7236, 7238, 7235
214, 2488, 2489, 2487
215, 2504, 4105, 2502
216, 1008, 6116, 1007
217, 1004, 1005, 3036
218, 6117, 6115, 1008
219, 169, 1474, 170
220, 3036, 3037, 3582
221, 3050, 3595, 3048
222, 1558, 1585, 1727
223, 1898, 1751, 1896
224, 1003, 1004, 3582
225, 1943, 2125, 303
226, 3587, 3588, 3041
227, 3586, 3044, 1001
228, 1495, 2999, 3000
229, 3583, 4158, 3582
230, 1836, 1715, 307
231, 368, 367, 4168
232, 1536, 1573, 2378
233, 366, 3595, 367
234, 1691, 1527, 5543
235, 1433, 317, 316
236, 1709, 4066, 3486
237, 3594, 3049, 3593
238, 6263, 155, 1483
239, 493, 492, 1585
240, 1943, 303, 302
241, 4721, 4728, 3585
242, 3584, 3585, 3038
243, 6262, 314, 1481
244, 363, 362, 3584
245, 8118, 2550, 1442
246, 3047, 3053, 999
247, 1763, 1634, 2393
248, 1485, 1537, 1448
249, 5261, 3042, 5257
250, 4719, 3039, 4716
251, 3587, 359, 358
252, 5778, 5601, 5779
253, 6260, 473, 1477
254, 365, 3048, 366
255, 1000, 3043, 999
256, 2092, 1635, 2022
257, 5260, 5255, 5258
258, 1473, 1421, 1684
259, 1485, 1448, 1538
260, 354, 3598, 355
261, 2776, 2587, 1412
262, 998, 3052, 997
263, 350, 3603, 3606
264, 2838, 1368, 1388
265, 5280, 4750, 5588
266, 2498, 1936, 1509
267, 1727, 1557, 3477
268, 4179, 3605, 2661
269, 1403, 2804, 2805
270, 3060, 352, 351
271, 2642, 1035, 2471
272, 5261, 3588, 3042
273, 1513, 3332, 3333
274, 348, 3058, 349
275, 3945, 5116, 3943
276, 3055, 3601, 4172
277, 5084, 3938, 5085
278, 3600, 994, 995
279, 3602, 994, 3600
280, 1427, 1476, 1661
281, 3600, 3601, 3055
282, 1454, 1407, 2373
283, 2919, 2482, 1410
284, 4175, 4176, 3602
285, 2355, 2350, 2353
286, 2879, 1613, 2419
287, 1731, 1853, 1854
288, 1446, 1401, 2622
289, 3378, 3991, 3992
290, 2401, 2400, 1415
291, 3615, 4192, 4193
292, 1880, 1743, 1879
293, 309, 1605, 310
294, 987, 988, 3377
295, 1563, 5143, 1605
296, 985, 1853, 984
297, 982, 1859, 1860
298, 7210, 7211, 7836
299, 2419, 2420, 1855
300, 2501, 1948, 1536
301, 1726, 1555, 3473
302, 8116, 1532, 5248
303, 1992, 2080, 1860
304, 6432, 2407, 6431
305, 1491, 1821, 1704
306, 8117, 8116, 978
307, 1365, 974, 1385
308, 637, 1316, 1581
309, 1441, 6907, 6256
310, 3330, 1361, 1512
311, 1824, 337, 336
312, 1855, 983, 984
313, 2846, 3991, 3378
314, 2126, 2189, 2202
315, 350, 349, 3603
316, 170, 1685, 1519
317, 1598, 800, 1577
318, 18, 17, 1830
319, 6455, 6460, 2209
320, 16, 1957, 17
321, 6475, 6477, 6471
322, 1956, 1829, 494
323, 7916, 7338, 7341
324, 1945, 779, 780
325, 2987, 2201, 3029
326, 7340, 7410, 7409
327, 228, 227, 1873
328, 421, 7313, 422
329, 1399, 479, 478
330, 420, 6486, 6487
331, 7430, 7429, 7413
332, 6487, 421, 420
333, 2030, 1640, 1771
334, 7419, 7430, 7421
335, 6556, 6551, 6553
336, 2771, 4508, 3915
337, 2056, 2115, 2590
338, 7335, 7336, 7190
339, 8079, 7988, 8078
340, 6426, 6425, 1599
341, 7987, 7693, 1074
342, 2028, 1208, 1209
343, 1408, 2278, 2277
344, 7988, 8081, 8082
345, 1464, 2289, 2620
346, 7701, 7699, 6955
347, 4200, 4754, 4758
348, 1898, 21, 20
349, 4758, 4761, 4200
350, 252, 1803, 1871
351, 4644, 4039, 4643
352, 4758, 4754, 4759
353, 1885, 615, 1886
354, 7709, 7706, 1078
355, 1403, 2013, 2015
356, 7285, 7428, 7427
357, 168, 1787, 1474
358, 5621, 5638, 3071
359, 1451, 2294, 246
360, 6553, 6551, 6546
361, 2283, 1459, 556
362, 6548, 6545, 6540
363, 3066, 2662, 3062
364, 233, 232, 1511
365, 3066, 6545, 2662
366, 1429, 1477, 5074
367, 487, 1475, 488
368, 429, 428, 3062
369, 6261, 632, 1479
370, 3622, 3623, 3067
371, 432, 431, 3622
372, 10, 1476, 11
373, 3623, 6802, 6801
374, 1433, 1481, 5136
375, 429, 3620, 430
376, 461, 1937, 462
377, 6269, 2614, 1445
378, 434, 3068, 435
379, 2666, 3075, 3632
380, 3626, 3068, 3070
381, 2218, 4771, 4777
382, 1402, 1645, 1447
383, 3069, 3624, 3625
384, 1648, 2370, 2372
385, 1920, 2030, 2486
386, 437, 3072, 438
387, 440, 439, 3079
388, 3072, 3077, 438
389, 1664, 1432, 5526
390, 76, 75, 1672
391, 3082, 3084, 440
392, 2141, 2284, 1457
393, 3628, 4201, 4202
394, 334, 333, 1583
395, 1082, 3627, 1081
396, 1042, 1755, 1041
397, 3477, 1557, 1520
398, 7207, 8174, 1547
399, 2217, 5282, 5284
400, 1560, 2936, 2513
401, 152, 1691, 1484
402, 304, 2125, 305
403, 3086, 3647, 3648
404, 3634, 4203, 4204
405, 1703, 1490, 74
406, 1088, 3647, 1087
407, 441, 3083, 442
408, 2834, 2375, 2835
409, 2302, 6931, 4595
410, 1849, 1850, 386
411, 3653, 4783, 4784
412, 3653, 3090, 3652
413, 2105, 1423, 2104
414, 1091, 3652, 1090
415, 308, 1715, 1589
416, 2670, 4210, 3644
417, 446, 3649, 3650
418, 2111, 5519, 5053
419, 1649, 1452, 243
420, 4549, 4550, 1376
421, 1566, 1529, 1941
422, 1777, 2490, 2033
423, 3368, 2305, 2379
424, 1096, 3660, 3663
425, 450, 449, 3657
426, 2024, 1766, 1201
427, 1900, 1899, 94
428, 2017, 1759, 1045
429, 5570, 5569, 2883
430, 1098, 3097, 1097
431, 2983, 2982, 2003
432, 1095, 4241, 4794
433, 2973, 2974, 3525
434, 3663, 1095, 1096
435, 1504, 1357, 2833
436, 3638, 2672, 3636
437, 6930, 3935, 3937
438, 3646, 3083, 3085
439, 3651, 445, 444
440, 3088, 444, 443
441, 1526, 310, 1605
442, 1101, 2385, 1100
443, 2385, 3387, 4001
444, 1518, 2169, 2145
445, 1493, 2811, 1543
446, 445, 3649, 446
447, 4242, 447, 3650
448, 4797, 3093, 3657
449, 1829, 1956, 2508
450, 984, 1853, 1855
451, 3657, 3658, 4797
452, 3336, 1363, 1514
453, 2385, 1101, 1863
454, 2462, 141, 1891
455, 2151, 3014, 1962
456, 333, 332, 1725
457, 1723, 566, 565
458, 2051, 1795, 1932
459, 1807, 1106, 1694
460, 1807, 1806, 1105
461, 7205, 7206, 7835
462, 1104, 1105, 1806
463, 1108, 1565, 1107
464, 1959, 1804, 2117
465, 1535, 8123, 1572
466, 172, 171, 2169
467, 1381, 6252, 1111
468, 6252, 1109, 1110
469, 945, 946, 1593
470, 1591, 1109, 1437
471, 1715, 308, 307
472, 1528, 1694, 1565
473, 4582, 1964, 4580
474, 1112, 1381, 1111
475, 1126, 1315, 1579
476, 5287, 5621, 5285
477, 1712, 1834, 1835
478, 1591, 1565, 1108
479, 3384, 345, 3382
480, 959, 1607, 7835
481, 3383, 343, 2422
482, 1650, 1780, 1633
483, 2086, 1627, 2010
484, 344, 3382, 345
485, 941, 1814, 2426
486, 343, 342, 2422
487, 1989, 1856, 1988
488, 3952, 5156, 3950
489, 2577, 1856, 1989
490, 11, 1687, 1523
491, 3974, 2363, 3975
492, 2974, 2973, 1989
493, 1444, 8122, 2562
494, 341, 1988, 342
495, 1466, 85, 1653
496, 981, 982, 1860
497, 1583, 2502, 1954
498, 565, 1486, 1723
499, 1583, 333, 1725
500, 2855, 2390, 1747
501, 2625, 2009, 1631
502, 1583, 1954, 334
503, 2423, 1862, 1994
504, 332, 1553, 1725
505, 6256, 977, 1441
506, 3945, 1419, 4588
507, 2167, 2143, 2165
508, 1106, 1807, 1105
509, 1622, 2906, 2458
510, 329, 1517, 330
511, 1932, 1795, 1673
512, 1517, 2166, 330
513, 1770, 1771, 1640
514, 1824, 336, 1825
515, 1832, 1711, 466
516, 327, 1473, 328
517, 1825, 1954, 2502
518, 1365, 1357, 972
519, 1516, 2166, 2143
520, 1357, 1345, 970
521, 1345, 1325, 968
522, 1522, 2175, 2149
523, 974, 975, 1385
524, 232, 231, 1724
525, 70, 2007, 71
526, 971, 1357, 970
527, 1668, 1436, 5540
528, 1317, 966, 1325
529, 1662, 1430, 5521
530, 712, 2037, 711
531, 970, 1345, 969
532, 2834, 1366, 1386
533, 1357, 971, 972
534, 1963, 2121, 1695
535, 324, 323, 2270
536, 4088, 2508, 2510
537, 6982, 6983, 1390
538, 1867, 1738, 1869
539, 1881, 1879, 1743
540, 1421, 1658, 1927
541, 1855, 1734, 1859
542, 2270, 322, 1389
543, 2339, 2922, 2337
544, 1339, 1783, 1471
545, 1325, 966, 967
546, 1317, 1309, 964
547, 2007, 1903, 1677
548, 965, 966, 1317
549, 1397, 1389, 320
550, 963, 964, 1309
551, 2460, 2463, 2459
552, 324, 1422, 2409
553, 8129, 3018, 8124
554, 3313, 3920, 1192
555, 1898, 2468, 1751
556, 3058, 3059, 2660
557, 2162, 2641, 1402
558, 450, 3657, 3659
559, 3097, 3098, 4649
560, 2423, 2883, 1862
561, 3385, 3386, 2848
562, 5156, 3952, 5157
563, 1112, 1113, 2261
564, 2585, 2287, 1460
565, 2780, 2268, 1194
566, 453, 3385, 454
567, 1995, 2977, 1993
568, 2423, 4040, 3417
569, 1838, 1717, 148
570, 944, 1699, 943
571, 1995, 457, 1994
572, 2424, 1104, 1806
573, 1993, 459, 458
574, 3931, 5054, 3929
575, 2261, 1114, 1369
576, 1366, 2835, 1358
577, 1545, 1703, 73
578, 71, 2007, 6272
579, 1117, 1353, 1116
580, 1116, 1353, 1115
581, 230, 1582, 231
582, 1369, 1361, 2261
583, 1119, 1333, 1118
584, 1478, 473, 472
585, 1652, 2401, 1651
586, 6430, 1656, 1783
587, 1429, 1377, 6926
588, 1121, 1321, 1120
589, 1484, 155, 154
590, 1120, 1321, 1119
591, 1421, 1927, 2100
592, 1117, 1333, 1353
593, 1427, 1930, 2112
594, 1121, 1311, 1321
595, 180, 179, 2942
596, 2114, 1937, 2115
597, 1109, 6252, 1437
598, 4042, 4041, 4681
599, 1776, 1777, 1643
600, 1913, 1765, 1636
601, 1694, 1107, 1565
602, 69, 1903, 2007
603, 1325, 1329, 1317
604, 2098, 1927, 1786
605, 1674, 1796, 1933
606, 3022, 2047, 8142
607, 1561, 1587, 1711
608, 2431, 2433, 1615
609, 485, 484, 2411
610, 6431, 1313, 1595
611, 1692, 2151, 1962
612, 1729, 1987, 1850
613, 1824, 1825, 1706
614, 1113, 1114, 2261
615, 1587, 468, 467
616, 1369, 1114, 1115
617, 2114, 1805, 1937
618, 1850, 1849, 1729
619, 1688, 1430, 1478
620, 1837, 1836, 306
621, 1117, 1118, 1333
622, 1429, 5074, 5070
623, 1897, 1895, 23
624, 1883, 1885, 1745
625, 1417, 1512, 2297
626, 1119, 1321, 1333
627, 2867, 1652, 2865
628, 1915, 2481, 2479
629, 468, 1587, 1603
630, 3345, 1909, 2314
631, 1603, 1587, 1561
632, 1873, 1823, 228
633, 473, 1478, 1662
634, 2058, 1938, 620
635, 1940, 1939, 1268
636, 1746, 1887, 2389
637, 7220, 7221, 7838
638, 7205, 1607, 1349
639, 9066, 9071, 9072
640, 491, 490, 1557
641, 2505, 1584, 1556
642, 8454, 8456, 8455
643, 410, 409, 2052
644, 8954, 8959, 8960
645, 4803, 5800, 4258
646, 2003, 1877, 2002
647, 1864, 1102, 1103
648, 272, 271, 3100
649, 411, 1796, 1852
650, 1892, 139, 1893
651, 3101, 5297, 6053
652, 2864, 1775, 2397
653, 5896, 5898, 5300
654, 2477, 886, 887
655, 1755, 1905, 2011
656, 912, 913, 6055
657, 2024, 1201, 1202
658, 6054, 912, 6055
659, 6573, 5801, 6572
660, 714, 2035, 2034
661, 921, 3107, 920
662, 2504, 1554, 2930
663, 1807, 1694, 1693
664, 146, 145, 1816
665, 5318, 5319, 3109
666, 3677, 3117, 3118
667, 470, 1688, 1478
668, 3110, 2680, 3107
669, 3116, 917, 918
670, 1724, 1552, 1986
671, 273, 272, 3665
672, 920, 3107, 3111
673, 80, 1464, 81
674, 3113, 918, 919
675, 2073, 2130, 1975
676, 6565, 6566, 6567
677, 923, 924, 3117
678, 623, 1808, 1835
679, 1682, 1447, 393
680, 3100, 3104, 2678
681, 6047, 6180, 6182
682, 2122, 1938, 2059
683, 6125, 6090, 6124
684, 1399, 4532, 4536
685, 6435, 6434, 1597
686, 7133, 7131, 7132
687, 1507, 1360, 2839
688, 7136, 907, 7783
689, 6894, 4015, 7692
690, 465, 464, 1833
691, 7690, 7141, 7186
692, 1495, 2160, 2136
693, 6161, 6215, 7183
694, 6873, 6881, 4013
695, 2549, 1826, 1707
696, 4014, 2690, 4012
697, 7784, 7136, 7137
698, 1814, 2428, 2427
699, 1038, 1756, 1037
700, 5644, 7145, 7045
701, 1455, 2277, 237
702, 6094, 6129, 7126
703, 3101, 3666, 3667
704, 1925, 2038, 1760
705, 4801, 3667, 4247
706, 2772, 4519, 3916
707, 4133, 4135, 4711
708, 6212, 6226, 6228
709, 1506, 1347, 1359
710, 6223, 6205, 6221
711, 5978, 5980, 5643
712, 1504, 1345, 1357
713, 7186, 7184, 6236
714, 4129, 4710, 5111
715, 1435, 158, 157
716, 6211, 6213, 6205
717, 7120, 7121, 6052
718, 1431, 635, 634
719, 1431, 1479, 5104
720, 147, 146, 1839
721, 290, 3123, 291
722, 2008, 1755, 1042
723, 1871, 1870, 253
724, 1890, 1889, 571
725, 3431, 935, 936
726, 3431, 3433, 935
727, 1763, 1407, 1453
728, 935, 3433, 934
729, 285, 284, 4272
730, 4516, 4517, 1373
731, 2014, 1450, 1404
732, 2031, 2867, 1773
733, 933, 4049, 932
734, 3686, 930, 931
735, 1211, 2030, 1771
736, 3687, 3688, 3129
737, 4682, 934, 3433
738, 5526, 5104, 1664
739, 1815, 943, 1699
740, 2310, 1492, 2308
741, 1971, 1816, 3461
742, 819, 1840, 818
743, 1593, 946, 1439
744, 945, 1567, 944
745, 1530, 6984, 5152
746, 1530, 1699, 1567
747, 937, 938, 1869
748, 7213, 7214, 7216
749, 1529, 1566, 1592
750, 796, 1608, 7836
751, 2432, 2430, 2429
752, 939, 1868, 1867
753, 15, 14, 1728
754, 938, 939, 1867
755, 1814, 942, 1815
756, 1579, 1315, 6974
757, 2617, 1413, 2615
758, 2894, 3432, 4045
759, 279, 3674, 280
760, 2335, 2338, 1494
761, 16, 15, 1586
762, 4806, 3671, 4259
763, 4262, 278, 277
764, 175, 174, 1584
765, 926, 927, 3690
766, 4253, 276, 275
767, 1524, 470, 469
768, 4252, 3670, 6804
769, 1938, 621, 620
770, 275, 274, 3669
771, 3671, 4253, 3669
772, 1526, 311, 310
773, 3670, 3105, 3669
774, 1659, 1474, 1787
775, 2314, 2916, 2312
776, 3690, 3128, 3130
777, 2836, 1367, 1387
778, 3681, 4272, 3679
779, 4272, 4280, 285
780, 2685, 3123, 4275
781, 2800, 1216, 1217
782, 1967, 2124, 1697
783, 4289, 925, 926
784, 1976, 1978, 1533
785, 242, 1454, 1649
786, 4264, 3674, 3675
787, 3679, 3680, 4815
788, 4269, 4270, 3680
789, 1662, 1478, 1430
790, 1488, 1539, 1465
791, 283, 3679, 284
792, 1543, 2811, 2812
793, 1668, 1484, 1436
794, 287, 3684, 288
795, 3124, 4817, 4276
796, 1658, 1473, 1785
797, 3333, 1362, 1513
798, 2558, 1534, 1981
799, 1953, 1823, 1822
800, 1977, 1976, 1570
801, 6842, 6845, 6840
802, 2423, 456, 455
803, 4008, 2362, 4006
804, 1729, 1611, 1987
805, 1145, 1146, 1881
806, 4008, 4007, 4009
807, 1989, 341, 340
808, 6851, 6849, 4007
809, 1741, 2438, 1874
810, 2821, 3322, 3354
811, 2821, 3354, 3968
812, 1803, 251, 2055
813, 2055, 1551, 1936
814, 2722, 4363, 3757
815, 3967, 2361, 3963
816, 1149, 2828, 3983
817, 6870, 6866, 6859
818, 940, 941, 2426
819, 8232, 8178, 1576
820, 255, 254, 2386
821, 1659, 1787, 2410
822, 258, 257, 3131
823, 2690, 4015, 3131
824, 5113, 1562, 4582
825, 3390, 4016, 3389
826, 624, 1834, 625
827, 1398, 4525, 4526
828, 1480, 631, 630
829, 5177, 5180, 5179
830, 5105, 5108, 5107
831, 254, 253, 1870
832, 167, 2410, 1787
833, 252, 251, 1803
834, 2793, 2293, 2790
835, 147, 1838, 148
836, 254, 1870, 2386
837, 6869, 6877, 6878
838, 2356, 248, 1510
839, 1958, 1898, 20
840, 1911, 2477, 2478
841, 2477, 2019, 1760
842, 888, 2478, 887
843, 2026, 1767, 1204
844, 1046, 1047, 2018
845, 2790, 889, 890
846, 1043, 1044, 2009
847, 2044, 1659, 1424
848, 1760, 1632, 1925
849, 1761, 882, 883
850, 884, 2038, 2039
851, 1945, 1944, 779
852, 2991, 1810, 2990
853, 886, 1760, 885
854, 1934, 1675, 2497
855, 1551, 250, 249
856, 2922, 2492, 2337
857, 246, 245, 1451
858, 1391, 1374, 2271
859, 1324, 1340, 1336
860, 6924, 1435, 1380
861, 243, 1452, 244
862, 1405, 1510, 2294
863, 1479, 1431, 6261
864, 1647, 245, 244
865, 3000, 1703, 1545
866, 1780, 2393, 1926
867, 1762, 1634, 1912
868, 879, 880, 1762
869, 241, 2276, 1454
870, 1269, 1270, 1941
871, 1633, 1780, 2589
872, 2995, 1817, 2994
873, 1483, 1435, 6263
874, 247, 2294, 1510
875, 1510, 248, 247
876, 1702, 1819, 1948
877, 1687, 11, 1476
878, 1893, 139, 138
879, 2276, 240, 1453
880, 8560, 8667, 8498
881, 9373, 9385, 9387
882, 9490, 9502, 9504
883, 237, 236, 1455
884, 1407, 1454, 2276
885, 9229, 9225, 9227
886, 239, 2279, 1453
887, 235, 2280, 236
888, 6974, 1315, 1331
889, 9796, 9776, 9795
890, 1334, 1322, 1338
891, 874, 2575, 2574
892, 1408, 2277, 1455
893, 1320, 1332, 1316
894, 2296, 234, 233
895, 1395, 1376, 2273
896, 1913, 1635, 1764
897, 223, 222, 3133
898, 1661, 1791, 2412
899, 1685, 170, 1474
900, 1354, 2299, 1513
901, 6022, 6031, 5964
902, 5752, 2228, 5750
903, 5184, 1564, 4615
904, 7076, 7077, 5882
905, 8238, 8239, 8241
906, 165, 2271, 1424
907, 6429, 2406, 6428
908, 8, 2412, 1791
909, 1740, 2387, 2851
910, 5746, 2364, 5747
911, 7217, 8192, 1549
912, 3973, 867, 3356
913, 3694, 224, 223
914, 1356, 2303, 1515
915, 1326, 6988, 6987
916, 1582, 1724, 231
917, 2102, 1928, 1788
918, 2023, 876, 877
919, 2575, 1764, 2572
920, 1764, 875, 876
921, 6, 2273, 1428
922, 2971, 1724, 1986
923, 1456, 2296, 1409
924, 2339, 2868, 1922
925, 2139, 1910, 1908
926, 2567, 2569, 2566
927, 2417, 2567, 2566
928, 2565, 2971, 2563
929, 1891, 1892, 1748
930, 2468, 1624, 2912
931, 2876, 2877, 871
932, 3013, 2625, 1631
933, 229, 228, 1823
934, 1916, 2026, 1917
935, 1582, 1822, 1552
936, 1400, 4547, 4548
937, 5546, 5191, 865
938, 6024, 6030, 6072
939, 1717, 1838, 1716
940, 1719, 2551, 1980
941, 6022, 5744, 6031
942, 3975, 3976, 5194
943, 869, 870, 2874
944, 1873, 2582, 1823
945, 1618, 2440, 2438
946, 2451, 1619, 2454
947, 3973, 3356, 2822
948, 5193, 3358, 4629
949, 2882, 2422, 1856
950, 1862, 2579, 1995
951, 2823, 4020, 3975
952, 1738, 1868, 2434
953, 1850, 1795, 387
954, 5195, 3360, 3359
955, 1484, 154, 153
956, 4913, 4364, 2722
957, 7451, 7452, 7448
958, 1452, 1649, 1406
959, 1328, 6979, 6978
960, 2053, 1543, 548
961, 947, 6254, 946
962, 1536, 1948, 1573
963, 1355, 953, 954
964, 2806, 1054, 1055
965, 629, 1480, 630
966, 564, 563, 1670
967, 1787, 168, 167
968, 1335, 955, 956
969, 8260, 8187, 1578
970, 1335, 1355, 954
971, 949, 1383, 948
972, 1532, 8117, 1569
973, 1355, 1514, 1371
974, 4600, 1715, 1714
975, 1371, 1363, 2263
976, 2263, 951, 1371
977, 390, 1541, 1704
978, 2263, 949, 950
979, 952, 953, 1355
980, 2332, 1544, 90
981, 1461, 1486, 1670
982, 1416, 2619, 1468
983, 1514, 2301, 1419
984, 1482, 1666, 314
985, 2914, 2157, 1753
986, 958, 1323, 957
987, 958, 1313, 1323
988, 956, 1323, 1335
989, 2505, 1556, 2949
990, 1589, 309, 308
991, 1433, 5136, 5132
992, 309, 1589, 1605
993, 1828, 1708, 3503
994, 4121, 3528, 2000
995, 954, 955, 1335
996, 3414, 2878, 3413
997, 1747, 1889, 1890
998, 1323, 956, 957
999, 8167, 8165, 8156
1000, 952, 1371, 951
1001, 5116, 3945, 5117
1002, 294, 2978, 295
1003, 1997, 1866, 2580
1004, 2580, 3576, 1997
1005, 1937, 2118, 462
1006, 488, 1686, 1521
1007, 4121, 2978, 4114
1008, 155, 1668, 1483
1009, 7215, 7216, 7837
1010, 292, 291, 3125
1011, 1866, 1999, 2000
1012, 4122, 4279, 3529
1013, 2496, 2404, 1779
1014, 616, 615, 1885
1015, 937, 1869, 3432
1016, 1736, 1863, 1864
1017, 1649, 1454, 2373
1018, 3123, 3125, 291
1019, 3938, 1418, 4571
1020, 1563, 1589, 1715
1021, 1434, 1482, 1690
1022, 1589, 1563, 1605
1023, 2500, 775, 2065
1024, 2425, 1736, 1864
1025, 946, 6254, 1439
1026, 711, 2037, 2493
1027, 1573, 567, 1722
1028, 1813, 2188, 2123
1029, 2134, 302, 301
1030, 944, 1567, 1699
1031, 1757, 1758, 1630
1032, 1746, 2005, 1888
1033, 1439, 5155, 1593
1034, 2612, 1992, 2081
1035, 1769, 1919, 1639
1036, 299, 1996, 300
1037, 951, 2263, 950
1038, 1959, 1961, 1710
1039, 1958, 2071, 4083
1040, 948, 1383, 6254
1041, 1921, 2032, 2399
1042, 2104, 1928, 2102
1043, 2550, 2947, 2953
1044, 3020, 2045, 8135
1045, 1812, 1967, 1837
1046, 1519, 171, 170
1047, 337, 1824, 4113
1048, 1519, 2169, 171
1049, 1955, 175, 1584
1050, 1560, 1586, 1728
1051, 173, 1555, 1726
1052, 2392, 1752, 2858
1053, 2570, 2572, 1635
1054, 1584, 174, 1726
1055, 1740, 2001, 1873
1056, 1955, 1584, 2505
1057, 169, 168, 1474
1058, 1971, 1973, 1716
1059, 161, 1398, 1391
1060, 1897, 1896, 1751
1061, 1314, 1597, 6434
1062, 2616, 6273, 1793
1063, 881, 882, 2041
1064, 2005, 2266, 2265
1065, 1910, 1631, 1759
1066, 1391, 2271, 163
1067, 165, 164, 2271
1068, 1715, 1836, 1714
1069, 1392, 6987, 6988
1070, 1992, 1991, 1569
1071, 1873, 1872, 1740
1072, 1423, 1659, 1928
1073, 872, 2876, 871
1074, 2410, 165, 1424
1075, 8131, 8136, 3020
1076, 1938, 2058, 2621
1077, 2051, 1541, 389
1078, 1330, 1318, 1326
1079, 182, 181, 1875
1080, 1852, 2326, 2809
1081, 2940, 1875, 1876
1082, 942, 1814, 941
1083, 1508, 1550, 1704
1084, 182, 1874, 183
1085, 1443, 8120, 2558
1086, 1533, 1570, 1976
1087, 185, 3362, 186
1088, 2469, 1902, 67
1089, 3436, 2439, 2899
1090, 2050, 1931, 1794
1091, 183, 1874, 3436
1092, 185, 184, 2899
1093, 2093, 2164, 2631
1094, 1386, 811, 812
1095, 1827, 1826, 177
1096, 473, 1662, 1477
1097, 1474, 1423, 1685
1098, 803, 1326, 1318
1099, 564, 1670, 1486
1100, 803, 804, 1326
1101, 800, 801, 1310
1102, 80, 2289, 1464
1103, 801, 1318, 1310
1104, 1664, 1480, 1432
1105, 8266, 8267, 8269
1106, 1358, 1346, 807
1107, 566, 1722, 567
1108, 1358, 808, 809
1109, 1358, 807, 808
1110, 409, 408, 1542
1111, 805, 1346, 1326
1112, 1508, 1704, 1821
1113, 6931, 3942, 3944
1114, 807, 1346, 806
1115, 1318, 802, 803
1116, 1979, 1981, 1534
1117, 7210, 1608, 1350
1118, 1914, 2025, 2093
1119, 958, 959, 1313
1120, 150, 1606, 151
1121, 5345, 5338, 5811
1122, 1435, 1483, 5176
1123, 1661, 1476, 1791
1124, 1660, 1475, 1789
1125, 3142, 5352, 3136
1126, 3705, 3149, 3150
1127, 1467, 2288, 77
1128, 3143, 2693, 3140
1129, 6589, 6583, 6586
1130, 2774, 4541, 3918
1131, 552, 551, 1458
1132, 1910, 2017, 2018
1133, 211, 210, 3135
1134, 211, 3139, 212
1135, 1459, 2776, 557
1136, 3137, 7107, 6586
1137, 3140, 3142, 3695
1138, 1507, 1348, 1360
1139, 3698, 840, 841
1140, 1525, 629, 628
1141, 198, 3711, 199
1142, 1647, 1452, 1406
1143, 236, 2280, 1455
1144, 3711, 3153, 3155
1145, 402, 1450, 1646
1146, 3703, 4320, 3713
1147, 203, 3700, 204
1148, 1527, 152, 151
1149, 6004, 6006, 6007
1150, 2911, 2466, 1894
1151, 3701, 4297, 3146
1152, 3700, 3701, 3146
1153, 2275, 2775, 2623
1154, 206, 205, 3149
1155, 837, 3707, 836
1156, 2286, 2777, 2287
1157, 1505, 1346, 1358
1158, 5918, 844, 7048
1159, 6657, 6612, 6641
1160, 173, 172, 1555
1161, 6587, 6609, 6613
1162, 6590, 6584, 6583
1163, 2326, 1674, 2323
1164, 6596, 6592, 7449
1165, 14, 13, 1559
1166, 6593, 6597, 214
1167, 178, 1826, 2943
1168, 6023, 6025, 6026
1169, 6604, 6625, 6244
1170, 6612, 6639, 6641
1171, 1808, 1963, 1835
1172, 2431, 2434, 2435
1173, 6606, 6625, 6604
1174, 2495, 2925, 2493
1175, 3024, 2049, 8149
1176, 7465, 7462, 7461
1177, 2194, 2643, 2185
1178, 5351, 4837, 2229
1179, 4309, 5332, 5336
1180, 5353, 4311, 4836
1181, 2849, 2385, 1736
1182, 2452, 1619, 2451
1183, 4309, 5343, 4837
1184, 4412, 3821, 1893
1185, 3952, 1420, 4604
1186, 6585, 6583, 6584
1187, 5807, 5996, 6098
1188, 7777, 7107, 7108
1189, 1766, 1637, 1915
1190, 2396, 2397, 2861
1191, 5345, 5658, 5659
1192, 1778, 1644, 1924
1193, 2496, 1925, 1632
1194, 5336, 5332, 5337
1195, 4306, 4304, 4303
1196, 2108, 1929, 2106
1197, 2381, 1730, 2844
1198, 1340, 1784, 1472
1199, 191, 190, 3158
1200, 1933, 1492, 2318
1201, 2366, 2447, 3364
1202, 1568, 1531, 1946
1203, 1596, 963, 1575
1204, 2704, 3157, 3716
1205, 1550, 1508, 1682
1206, 3363, 187, 186
1207, 193, 192, 3162
1208, 7202, 8165, 1546
1209, 192, 191, 3715
1210, 2128, 1841, 1975
1211, 1524, 469, 1603
1212, 4318, 2700, 3153
1213, 6929, 3928, 3930
1214, 2605, 3005, 3007
1215, 1718, 1840, 2073
1216, 1512, 3329, 3330
1217, 2308, 1542, 2307
1218, 2952, 6257, 1442
1219, 1514, 3335, 3336
1220, 1386, 1366, 811
1221, 6257, 814, 1442
1222, 336, 335, 1825
1223, 8119, 8118, 815
1224, 1935, 1494, 2343
1225, 1571, 1980, 1979
1226, 1975, 2129, 2128
1227, 2408, 6434, 6435
1228, 178, 177, 1826
1229, 2550, 8118, 1533
1230, 2877, 3411, 2874
1231, 1977, 2074, 1840
1232, 1830, 1957, 2511
1233, 1592, 1566, 1271
1234, 817, 818, 2074
1235, 1358, 809, 1366
1236, 1600, 1126, 1579
1237, 4847, 4843, 4844
1238, 3706, 4313, 4839
1239, 1508, 2087, 2088
1240, 4312, 4313, 3706
1241, 3728, 194, 193
1242, 1688, 1524, 5524
1243, 834, 835, 4312
1244, 1107, 1694, 1106
1245, 2527, 3490, 2525
1246, 2698, 6960, 4834
1247, 144, 143, 2466
1248, 3697, 4293, 4830
1249, 6175, 4831, 6176
1250, 1733, 2612, 2880
1251, 4292, 4293, 3697
1252, 1963, 1965, 1712
1253, 1900, 2351, 2817
1254, 3709, 3154, 3708
1255, 1912, 1634, 2020
1256, 829, 3726, 828
1257, 3400, 3960, 4625
1258, 4331, 3361, 827
1259, 3440, 2444, 2448
1260, 1905, 2010, 1627
1261, 3722, 187, 3363
1262, 6841, 6844, 3966
1263, 632, 1664, 1479
1264, 4841, 4312, 4314
1265, 4864, 3160, 3724
1266, 1421, 1473, 1658
1267, 2139, 2014, 2089
1268, 3725, 4864, 3724
1269, 1462, 2617, 1670
1270, 1651, 2401, 1415
1271, 4328, 4861, 4862
1272, 2616, 2617, 2615
1273, 1122, 1609, 7837
1274, 829, 830, 3724
1275, 3980, 3003, 826
1276, 232, 1724, 1511
1277, 1975, 820, 821
1278, 1672, 1490, 1489
1279, 1564, 5184, 1606
1280, 1711, 1832, 1710
1281, 8476, 8478, 8477
1282, 1827, 1955, 2505
1283, 1521, 1686, 2109
1284, 2068, 1951, 1949
1285, 1599, 6425, 1311
1286, 2511, 1586, 1560
1287, 2097, 2050, 1644
1288, 2370, 1648, 1632
1289, 5054, 3931, 5055
1290, 1425, 1475, 1660
1291, 1159, 3164, 1158
1292, 3164, 3166, 3729
1293, 314, 1666, 1481
1294, 1157, 3169, 1156
1295, 2367, 3365, 3984
1296, 1874, 182, 1875
1297, 1958, 20, 19
1298, 1630, 2804, 2015
1299, 1154, 3172, 1153
1300, 3172, 3174, 1153
1301, 1913, 2022, 1635
1302, 4055, 1619, 2452
1303, 3169, 3171, 1156
1304, 413, 412, 1851
1305, 3740, 516, 515
1306, 1264, 1265, 2061
1307, 5922, 2715, 5820
1308, 1747, 1890, 2458
1309, 2553, 2955, 2552
1310, 2236, 5403, 5409
1311, 1690, 1526, 5537
1312, 5412, 5688, 5407
1313, 1161, 1162, 3179
1314, 76, 1672, 1467
1315, 3730, 3732, 4335
1316, 5248, 1441, 8116
1317, 3185, 3741, 3183
1318, 3181, 4886, 3165
1319, 329, 1684, 1517
1320, 5385, 5386, 3166
1321, 3187, 3745, 3748
1322, 1967, 1969, 1714
1323, 3486, 3488, 1709
1324, 513, 512, 3730
1325, 1144, 2075, 1143
1326, 8185, 8183, 8160
1327, 1569, 1991, 1532
1328, 1983, 1535, 1572
1329, 1146, 1879, 1881
1330, 495, 1828, 496
1331, 800, 1310, 1577
1332, 8120, 1534, 2558
1333, 1359, 1135, 1367
1334, 1724, 1582, 1552
1335, 1959, 2117, 1692
1336, 495, 494, 1829
1337, 8121, 8120, 1141
1338, 1367, 1137, 1387
1339, 2333, 1544, 2332
1340, 1140, 1443, 6258
1341, 1443, 2962, 6258
1342, 1982, 657, 658
1343, 1880, 1148, 3983
1344, 1562, 5113, 1604
1345, 3738, 510, 509
1346, 3731, 4870, 3730
1347, 4615, 1972, 4613
1348, 2828, 1149, 1150
1349, 1594, 1568, 782
1350, 4345, 3731, 4333
1351, 1528, 1565, 1591
1352, 3985, 3986, 3366
1353, 3736, 509, 508
1354, 3396, 5207, 505
1355, 490, 489, 2172
1356, 1577, 1310, 6986
1357, 507, 506, 4027
1358, 492, 491, 1727
1359, 2356, 1551, 249
1360, 1880, 1879, 1147
1361, 627, 1604, 628
1362, 4655, 5207, 3396
1363, 4584, 1713, 1712
1364, 8498, 8500, 8499
1365, 1174, 1175, 7855
1366, 1763, 2020, 1634
1367, 7658, 7659, 7661
1368, 2096, 2097, 2036
1369, 1634, 1762, 1926
1370, 7658, 7661, 1177
1371, 2586, 1918, 1639
1372, 1178, 7658, 1177
1373, 4902, 4905, 2719
1374, 2422, 342, 1988
1375, 7793, 7786, 7788
1376, 1882, 1884, 618
1377, 5716, 4421, 7058
1378, 7113, 4906, 4907
1379, 1867, 1869, 938
1380, 1173, 8012, 7790
1381, 1179, 6776, 6782
1382, 1756, 1629, 1907
1383, 6753, 6756, 6768
1384, 1942, 2062, 2596
1385, 6740, 6727, 6739
1386, 5195, 3979, 4632
1387, 1828, 3505, 3507
1388, 6745, 6750, 6710
1389, 1816, 1971, 1839
1390, 6726, 6727, 6246
1391, 6767, 6774, 6760
1392, 2351, 1676, 2348
1393, 397, 396, 1445
1394, 1181, 6759, 6760
1395, 6737, 7631, 6735
1396, 3, 2, 1395
1397, 6739, 6736, 6738
1398, 8023, 8024, 7474
1399, 7628, 7647, 1185
1400, 1804, 1959, 1833
1401, 2100, 1927, 2098
1402, 7971, 7645, 7633
1403, 4904, 5692, 7067
1404, 520, 4349, 3748
1405, 2279, 238, 2277
1406, 521, 520, 3745
1407, 3195, 2715, 3192
1408, 1411, 2141, 2094
1409, 3198, 6968, 2718
1410, 1682, 392, 1550
1411, 405, 404, 1537
1412, 4337, 3732, 4875
1413, 2095, 1919, 1770
1414, 3739, 4347, 4883
1415, 4351, 5413, 2713
1416, 404, 403, 1449
1417, 4346, 4347, 3739
1418, 1785, 327, 326
1419, 395, 394, 6268
1420, 2714, 5923, 5919
1421, 1471, 1335, 1339
1422, 528, 3196, 529
1423, 2286, 1462, 562
1424, 529, 7303, 530
1425, 7303, 7305, 7890
1426, 1469, 1333, 1337
1427, 7303, 3196, 6443
1428, 2296, 233, 1511
1429, 1417, 3329, 1512
1430, 4352, 3753, 4898
1431, 474, 6260, 475
1432, 527, 526, 4353
1433, 525, 3754, 526
1434, 633, 6261, 634
1435, 7810, 7785, 6109
1436, 1506, 1801, 8144
1437, 1419, 3335, 1514
1438, 3200, 3754, 3198
1439, 7972, 7976, 7975
1440, 388, 2051, 389
1441, 1368, 2839, 1360
1442, 1556, 1584, 1726
1443, 1713, 1834, 1712
1444, 480, 479, 1393
1445, 1347, 1132, 1133
1446, 91, 90, 1544
1447, 2832, 1365, 1385
1448, 1510, 2357, 2356
1449, 1131, 1347, 1327
1450, 1134, 1135, 1359
1451, 1488, 1465, 1540
1452, 1133, 1134, 1359
1453, 1311, 1121, 1122
1454, 2618, 2620, 2619
1455, 1338, 1782, 1470
1456, 1476, 1427, 1687
1457, 1127, 1319, 1315
1458, 1130, 1327, 1129
1459, 1666, 1482, 1434
1460, 1319, 1128, 1129
1461, 1319, 1129, 1327
1462, 4697, 4111, 1733
1463, 2002, 2450, 501
1464, 502, 501, 2450
1465, 2450, 3395, 502
1466, 503, 3394, 504
1467, 1868, 1738, 1867
1468, 1650, 1633, 1779
1469, 3396, 504, 3394
1470, 2641, 2162, 2185
1471, 1872, 1873, 227
1472, 1844, 1980, 2075
1473, 2003, 2583, 1877
1474, 2983, 3549, 2982
1475, 2304, 6932, 4612
1476, 1887, 1888, 545
1477, 500, 2002, 501
1478, 2113, 1427, 2112
1479, 1415, 1466, 1651
1480, 1133, 1359, 1347
1481, 1983, 1985, 1535
1482, 1829, 1828, 495
1483, 1880, 1147, 1148
1484, 6976, 1394, 6975
1485, 1660, 1929, 1425
1486, 482, 2272, 483
1487, 1719, 2903, 3494
1488, 2419, 1855, 1731
1489, 481, 1393, 2272
1490, 1868, 939, 940
1491, 1492, 1933, 1542
1492, 1331, 1319, 1327
1493, 1599, 1311, 1122
1494, 2787, 2267, 2788
1495, 1753, 2135, 2084
1496, 2919, 1410, 1458
1497, 1399, 1393, 479
1498, 2042, 1658, 1422
1499, 1748, 2459, 1891
1500, 1426, 2411, 483
1501, 2017, 1045, 1046
1502, 489, 1521, 2172
1503, 1557, 1727, 491
1504, 492, 1727, 1585
1505, 566, 1723, 1722
1506, 457, 456, 1994
1507, 1521, 489, 488
1508, 570, 1819, 1890
1509, 569, 568, 2067
1510, 8143, 3022, 8138
1511, 1475, 487, 486
1512, 1137, 1138, 1387
1513, 6432, 6431, 1595
1514, 387, 386, 1850
1515, 2961, 2376, 2836
1516, 1806, 1807, 1693
1517, 1212, 2486, 2030
1518, 1585, 1956, 493
1519, 2508, 1956, 1585
1520, 3484, 3486, 4066
1521, 467, 1711, 1587
1522, 2063, 1943, 1813
1523, 1382, 6253, 1274
1524, 878, 879, 2021
1525, 4127, 4128, 4129
1526, 1875, 181, 1876
1527, 2380, 385, 384
1528, 1438, 1272, 6253
1529, 2135, 2006, 2084
1530, 1884, 619, 618
1531, 2262, 1276, 1277
1532, 1954, 1825, 335
1533, 1604, 1588, 1562
1534, 1506, 1359, 2837
1535, 486, 1789, 1475
1536, 1480, 1689, 1432
1537, 300, 1996, 1998
1538, 1562, 1588, 1713
1539, 1941, 1270, 1566
1540, 2490, 723, 724
1541, 3763, 611, 3201
1542, 1770, 1919, 2028
1543, 1885, 1886, 1745
1544, 545, 544, 1887
1545, 386, 385, 1849
1546, 1262, 3403, 1261
1547, 2641, 2086, 2614
1548, 613, 612, 3205
1549, 1882, 618, 617
1550, 1815, 1699, 1698
1551, 4151, 2989, 2596
1552, 2838, 2377, 2839
1553, 2298, 6929, 4562
1554, 1745, 4937, 2206
1555, 1962, 3014, 3016
1556, 2206, 2203, 1744
1557, 1809, 2178, 2120
1558, 2103, 5511, 5047
1559, 149, 1717, 1590
1560, 610, 609, 3202
1561, 1322, 1334, 1282
1562, 1886, 615, 614
1563, 5104, 5100, 1431
1564, 5765, 5965, 5575
1565, 2380, 1849, 385
1566, 1280, 1281, 1334
1567, 1740, 1617, 2001
1568, 627, 1588, 1604
1569, 1480, 1664, 632
1570, 720, 721, 2032
1571, 1322, 1283, 1284
1572, 1322, 1282, 1283
1573, 6427, 1655, 1782
1574, 1418, 1513, 2299
1575, 2916, 2476, 2312
1576, 1284, 1312, 1322
1577, 627, 626, 1588
1578, 1751, 2912, 2467
1579, 2794, 1510, 1405
1580, 1370, 1277, 1278
1581, 1523, 1687, 2113
1582, 1370, 2262, 1277
1583, 1276, 2262, 1275
1584, 1517, 1684, 2101
1585, 1370, 1362, 2262
1586, 4566, 1960, 4563
1587, 78, 1468, 79
1588, 1791, 9, 8
1589, 311, 1482, 312
1590, 1431, 1378, 6928
1591, 2814, 728, 729
1592, 1334, 1354, 1280
1593, 1354, 1279, 1280
1594, 87, 86, 1539
1595, 1281, 1282, 1334
1596, 1365, 2833, 1357
1597, 1534, 8121, 1571
1598, 1354, 1278, 1279
1599, 1275, 1382, 1274
1600, 1312, 1601, 6428
1601, 610, 3201, 611
1602, 1714, 1836, 1837
1603, 7208, 7209, 7211
1604, 2059, 1938, 1809
1605, 1141, 8120, 1140
1606, 1315, 1126, 1127
1607, 3309, 3314, 3307
1608, 3420, 1864, 2424
1609, 1195, 2782, 1194
1610, 2537, 2549, 2548
1611, 1882, 1744, 1884
1612, 3313, 3312, 3307
1613, 2386, 1870, 1739
1614, 2782, 1195, 2778
1615, 6695, 6699, 1188
1616, 1718, 2514, 1977
1617, 3320, 6697, 8152
1618, 1730, 1851, 1852
1619, 3317, 3921, 3314
1620, 1189, 6697, 6696
1621, 4070, 4074, 4073
1622, 1543, 1934, 1493
1623, 1888, 2584, 1797
1624, 2504, 2502, 1554
1625, 2779, 1197, 2483
1626, 1894, 1749, 2911
1627, 1199, 2479, 1198
1628, 1754, 1627, 2643
1629, 2021, 1765, 878
1630, 548, 1543, 549
1631, 1752, 1899, 1900
1632, 2813, 551, 550
1633, 973, 1365, 972
1634, 546, 1797, 547
1635, 2025, 1914, 2024
1636, 1951, 1489, 1949
1637, 2110, 1930, 1792
1638, 1766, 1915, 2485
1639, 1199, 1200, 2485
1640, 1766, 1914, 2631
1641, 2027, 1917, 1206
1642, 1195, 1196, 2778
1643, 1888, 1797, 546
1644, 1783, 4587, 4588
1645, 1136, 1137, 1367
1646, 1746, 2389, 2854
1647, 1369, 1512, 1361
1648, 2268, 3919, 6694
1649, 1781, 4553, 4554
1650, 1371, 1514, 1363
1651, 3207, 7477, 6671
1652, 2301, 1335, 1471
1653, 1393, 481, 480
1654, 6719, 6732, 6726
1655, 1115, 1353, 1369
1656, 6717, 6246, 6712
1657, 541, 540, 3206
1658, 1389, 322, 321
1659, 6722, 7479, 6720
1660, 4563, 3932, 4559
1661, 1136, 1367, 1135
1662, 541, 3765, 542
1663, 1389, 4515, 1373
1664, 1410, 1457, 2282
1665, 1130, 1131, 1327
1666, 1766, 1200, 1201
1667, 553, 552, 2282
1668, 1595, 1313, 959
1669, 2813, 550, 2812
1670, 967, 968, 1325
1671, 1317, 964, 965
1672, 2284, 554, 1457
1673, 9199, 9195, 9197
1674, 556, 1459, 557
1675, 1769, 1207, 1208
1676, 8575, 8695, 8520
1677, 556, 555, 2283
1678, 8390, 8405, 8481
1679, 554, 553, 1457
1680, 1393, 4537, 1375
1681, 1199, 2485, 2479
1682, 9638, 9618, 9637
1683, 2094, 2164, 2093
1684, 4596, 3946, 4593
1685, 1317, 1329, 1309
1686, 559, 1460, 560
1687, 2860, 1916, 1768
1688, 2062, 1265, 1266
1689, 780, 1946, 1945
1690, 1767, 1916, 1638
1691, 1206, 1917, 1205
1692, 1210, 1211, 1771
1693, 7215, 1609, 1501
1694, 2286, 562, 561
1695, 1131, 1132, 1347
1696, 563, 1462, 1670
1697, 1723, 1486, 1461
1698, 968, 969, 1345
1699, 1462, 563, 562
1700, 1319, 1127, 1128
1701, 1769, 1639, 1918
1702, 1321, 1311, 1337
1703, 559, 558, 2285
1704, 1582, 1953, 1822
1705, 2859, 2587, 1459
1706, 1269, 1941, 1940
1707, 1509, 1936, 1551
1708, 1771, 1770, 1210
1709, 1440, 4711, 4135
1710, 1461, 1670, 1793
1711, 1486, 565, 564
1712, 1644, 6274, 1924
1713, 3341, 1215, 1216
1714, 1636, 1765, 1912
1715, 1039, 1906, 1038
1716, 2800, 2799, 3341
1717, 1768, 1917, 1918
1718, 2488, 1920, 2486
1719, 2048, 1661, 1428
1720, 1210, 1770, 1209
1721, 334, 1954, 335
1722, 1723, 1461, 1721
1723, 572, 571, 1889
1724, 6266, 7215, 8160
1725, 8378, 8387, 8383
1726, 1722, 1723, 1721
1727, 7205, 8156, 6264
1728, 8328, 8343, 8437
1729, 973, 974, 1365
1730, 1819, 570, 569
1731, 575, 3769, 576
1732, 952, 1355, 1371
1733, 976, 6256, 975
1734, 1139, 6258, 1138
1735, 573, 572, 2390
1736, 575, 574, 3208
1737, 2297, 1333, 1469
1738, 3208, 3210, 3769
1739, 1889, 2390, 572
1740, 1323, 1313, 1339
1741, 1948, 2067, 1573
1742, 3343, 1218, 1219
1743, 4620, 2501, 3370
1744, 1746, 1621, 2005
1745, 1883, 617, 616
1746, 1622, 2458, 3956
1747, 142, 141, 2462
1748, 3959, 3958, 3960
1749, 1674, 1852, 1796
1750, 5420, 2242, 4366
1751, 4366, 3400, 5418
1752, 4366, 4939, 5423
1753, 253, 252, 1871
1754, 1103, 2424, 1864
1755, 5826, 5827, 5925
1756, 2080, 980, 981
1757, 2943, 2944, 2941
1758, 569, 2067, 1819
1759, 568, 567, 1573
1760, 2242, 5420, 6013
1761, 1676, 1900, 1798
1762, 6977, 1316, 1332
1763, 1683, 1803, 1936
1764, 1429, 6926, 476
1765, 4930, 3212, 4929
1766, 8347, 8356, 8352
1767, 3231, 3798, 3229
1768, 74, 1490, 75
1769, 2859, 1459, 1411
1770, 3777, 3215, 3776
1771, 1480, 632, 631
1772, 4387, 2733, 4386
1773, 605, 3793, 606
1774, 1859, 982, 983
1775, 605, 604, 3214
1776, 2053, 1797, 1934
1777, 1423, 1928, 2104
1778, 3202, 3203, 2720
1779, 1967, 1812, 2124
1780, 3776, 3215, 2728
1781, 2728, 5835, 3787
1782, 1354, 1513, 1370
1783, 594, 3219, 595
1784, 1143, 1571, 1142
1785, 980, 1569, 979
1786, 156, 6263, 157
1787, 4955, 2729, 4956
1788, 3806, 3235, 3236
1789, 1646, 403, 402
1790, 3221, 3223, 5452
1791, 597, 3227, 3230
1792, 234, 1456, 235
1793, 1253, 3770, 1252
1794, 595, 3219, 3223
1795, 1672, 1489, 1794
1796, 597, 596, 3225
1797, 1647, 244, 1452
1798, 599, 598, 3229
1799, 592, 591, 3235
1800, 315, 6262, 316
1801, 1449, 1403, 1537
1802, 3774, 3771, 4367
1803, 1953, 230, 229
1804, 1268, 1939, 1267
1805, 1531, 1568, 1594
1806, 2062, 1942, 2061
1807, 2499, 1264, 2061
1808, 1713, 626, 625
1809, 1939, 1810, 2991
1810, 2335, 1494, 2333
1811, 4697, 4110, 4111
1812, 1273, 6253, 1272
1813, 1271, 1272, 1592
1814, 1270, 1271, 1566
1815, 2060, 1810, 1940
1816, 2562, 1535, 1985
1817, 1592, 1272, 1438
1818, 656, 1845, 655
1819, 1525, 628, 1604
1820, 1939, 1940, 1810
1821, 1775, 1414, 1464
1822, 1259, 4032, 1258
1823, 2107, 5515, 5050
1824, 4360, 3761, 3762
1825, 4931, 3771, 4930
1826, 1650, 1779, 2404
1827, 1256, 1257, 3761
1828, 4538, 4539, 1375
1829, 2072, 2129, 2601
1830, 3404, 1263, 2499
1831, 1758, 2474, 2016
1832, 1261, 3403, 3405
1833, 5208, 3405, 4665
1834, 22, 21, 1896
1835, 4936, 4937, 4935
1836, 1762, 1912, 2021
1837, 2330, 2325, 2328
1838, 5208, 1260, 3405
1839, 1263, 1264, 2499
1840, 5534, 5136, 1666
1841, 2832, 2374, 2833
1842, 607, 606, 3775
1843, 583, 582, 7826
1844, 6926, 4531, 6925
1845, 6922, 4509, 6921
1846, 162, 161, 1391
1847, 7944, 7946, 7942
1848, 8007, 580, 579
1849, 1760, 2019, 1632
1850, 7084, 7999, 7774
1851, 6445, 7895, 3238
1852, 1504, 1799, 8130
1853, 86, 85, 1466
1854, 1204, 1767, 1203
1855, 7895, 7309, 7495
1856, 7308, 7892, 7894
1857, 239, 1453, 240
1858, 6445, 7307, 7308
1859, 7287, 7858, 7859
1860, 321, 320, 1389
1861, 7748, 7991, 7744
1862, 7941, 5928, 5933
1863, 5829, 5929, 5931
1864, 6676, 3210, 6673
1865, 2130, 819, 820
1866, 624, 623, 1835
1867, 6672, 6676, 6673
1868, 2557, 2959, 3510
1869, 1400, 4543, 4547
1870, 8057, 7861, 7863
1871, 8057, 7863, 8115
1872, 1231, 8032, 1230
1873, 144, 2466, 2465
1874, 1940, 1268, 1269
1875, 8032, 8033, 7829
1876, 2118, 1937, 2057
1877, 1582, 230, 1953
1878, 7935, 7937, 7940
1879, 1505, 1800, 8137
1880, 1235, 7861, 1234
1881, 5446, 7011, 5445
1882, 1507, 1802, 8151
1883, 3797, 5700, 3796
1884, 1244, 1245, 3796
1885, 3473, 1555, 1518
1886, 2077, 2133, 1982
1887, 589, 588, 3809
1888, 1248, 3799, 1247
1889, 311, 1690, 1482
1890, 3801, 1250, 4382
1891, 3372, 2842, 3370
1892, 4382, 3772, 3802
1893, 1250, 3801, 1249
1894, 2988, 2060, 3553
1895, 5435, 5436, 4946
1896, 1558, 2934, 2510
1897, 305, 1812, 1837
1898, 3807, 3808, 3237
1899, 2040, 880, 881
1900, 5845, 5442, 5444
1901, 5943, 6810, 5843
1902, 7765, 1239, 7761
1903, 1763, 2393, 1407
1904, 716, 717, 2396
1905, 5944, 5845, 5707
1906, 2027, 1769, 1918
1907, 1244, 7492, 1243
1908, 5449, 5441, 4390
1909, 1966, 1695, 2153
1910, 3545, 2433, 2892
1911, 1906, 1756, 1038
1912, 1397, 4510, 4514
1913, 3423, 1694, 1528
1914, 4067, 4073, 4075
1915, 7726, 7725, 5442
1916, 1731, 1854, 3412
1917, 92, 91, 2054
1918, 8004, 8005, 1237
1919, 8049, 8046, 7288
1920, 2101, 1421, 2100
1921, 660, 2607, 659
1922, 978, 8116, 977
1923, 1433, 6922, 317
1924, 963, 1309, 1575
1925, 1823, 1953, 229
1926, 6703, 6702, 1187
1927, 2502, 1583, 1554
1928, 9128, 9122, 9127
1929, 155, 1484, 1668
1930, 1202, 1203, 2025
1931, 1336, 793, 1324
1932, 2907, 1819, 1702
1933, 2083, 498, 497
1934, 1515, 2303, 1420
1935, 2469, 67, 66
1936, 1336, 791, 792
1937, 1590, 1606, 150
1938, 3380, 3378, 3994
1939, 788, 789, 1372
1940, 1957, 1830, 17
1941, 1748, 1893, 3464
1942, 149, 1590, 150
1943, 2514, 1718, 2516
1944, 5172, 1435, 5176
1945, 1999, 297, 2000
1946, 788, 2264, 787
1947, 786, 787, 2264
1948, 1949, 1820, 2068
1949, 1312, 1285, 1601
1950, 1320, 1328, 1332
1951, 2424, 3418, 3420
1952, 2486, 1212, 1213
1953, 2040, 1762, 880
1954, 6429, 6428, 1601
1955, 1590, 1717, 1564
1956, 2029, 2095, 2615
1957, 4133, 4136, 4135
1958, 2389, 544, 543
1959, 2081, 2613, 6439
1960, 1440, 783, 6255
1961, 2474, 1049, 1050
1962, 1606, 1590, 1564
1963, 2378, 1722, 1721
1964, 1691, 1436, 1484
1965, 2180, 2196, 2189
1966, 143, 142, 1894
1967, 2864, 2862, 2863
1968, 8176, 8174, 8158
1969, 1789, 486, 485
1970, 794, 795, 1324
1971, 793, 794, 1324
1972, 6424, 1654, 1781
1973, 795, 1314, 1324
1974, 1482, 314, 313
1975, 547, 2053, 548
1976, 1356, 791, 1336
1977, 3326, 3327, 3324
1978, 789, 790, 1356
1979, 2264, 1372, 1364
1980, 8288, 8196, 1580
1981, 791, 1356, 790
1982, 82, 81, 1671
1983, 793, 1336, 792
1984, 1356, 1515, 1372
1985, 1749, 2460, 3450
1986, 464, 1804, 1833
1987, 140, 139, 1892
1988, 2109, 1425, 2108
1989, 5540, 5176, 1668
1990, 1749, 2910, 2460
1991, 463, 2118, 464
1992, 141, 140, 1891
1993, 3811, 2741, 4410
1994, 3240, 3820, 135
1995, 4669, 4667, 2415
1996, 2372, 1647, 1648
1997, 1882, 1883, 1744
1998, 1748, 1892, 1893
1999, 1406, 1649, 1650
2000, 133, 3241, 134
2001, 2099, 5507, 5044
2002, 788, 1372, 2264
2003, 1946, 781, 1568
2004, 4617, 1717, 1716
2005, 1646, 2014, 2013
2006, 795, 796, 1314
2007, 1898, 1896, 21
2008, 2, 1400, 1395
2009, 1337, 1781, 1469
2010, 640, 641, 1328
2011, 1652, 1651, 1463
2012, 3310, 3308, 4551
2013, 639, 640, 1320
2014, 1395, 2273, 4
2015, 2387, 1872, 226
2016, 6978, 6979, 1396
2017, 1661, 1930, 1427
2018, 5, 2273, 6
2019, 306, 305, 1837
2020, 3359, 3978, 4630
2021, 6, 1428, 2412
2022, 2880, 2612, 2081
2023, 1320, 1316, 638
2024, 2195, 2199, 2200
2025, 1666, 1434, 5534
2026, 1475, 1425, 1686
2027, 2866, 1487, 1414
2028, 2484, 2481, 2483
2029, 645, 1360, 644
2030, 643, 644, 1348
2031, 8294, 8295, 8297
2032, 1320, 640, 1328
2033, 1348, 1328, 642
2034, 3322, 2791, 3321
2035, 6932, 3949, 3951
2036, 1520, 2172, 2147
2037, 648, 649, 1388
2038, 1348, 644, 1360
2039, 8520, 8522, 8521
2040, 8145, 8150, 3024
2041, 1602, 637, 1581
2042, 646, 1360, 645
2043, 1285, 1312, 1284
2044, 1360, 646, 1368
2045, 2125, 1943, 2063
2046, 1476, 10, 9
2047, 2377, 2838, 2967
2048, 12, 11, 1523
2049, 1643, 2398, 1776
2050, 1398, 4521, 4525
2051, 2175, 12, 1523
2052, 1505, 1358, 2835
2053, 93, 1798, 1900
2054, 1559, 1728, 14
2055, 15, 1728, 1586
2056, 16, 1586, 1957
2057, 146, 1816, 1839
2058, 3481, 1559, 1522
2059, 1586, 2511, 1957
2060, 2387, 226, 225
2061, 1830, 2071, 18
2062, 1765, 1913, 2023
2063, 5150, 3946, 5148
2064, 1983, 1572, 1984
2065, 1982, 2132, 2131
2066, 2913, 1895, 1897
2067, 5521, 5074, 1662
2068, 2310, 2313, 1492
2069, 1897, 22, 1896
2070, 2836, 2376, 2837
2071, 2395, 2860, 2394
2072, 23, 1895, 24
2073, 2857, 3401, 1895
2074, 2856, 26, 25
2075, 1527, 151, 1606
2076, 1101, 1102, 1863
2077, 4966, 4965, 4967
2078, 1902, 1753, 1901
2079, 3828, 3249, 28
2080, 1931, 1672, 1794
2081, 29, 28, 3249
2082, 1491, 1704, 1541
2083, 651, 1444, 6259
2084, 4702, 3525, 1990
2085, 1316, 637, 638
2086, 1717, 149, 148
2087, 1703, 3000, 1949
2088, 785, 786, 1384
2089, 13, 12, 2175
2090, 784, 6255, 783
2091, 1440, 1594, 783
2092, 331, 330, 2166
2093, 1384, 6255, 785
2094, 1108, 1109, 1591
2095, 1466, 1415, 1539
2096, 2064, 1817, 1945
2097, 1581, 1316, 6977
2098, 779, 1944, 778
2099, 1818, 2993, 2598
2100, 3339, 1364, 1515
2101, 1945, 1817, 1944
2102, 1145, 1844, 1144
2103, 782, 1568, 781
2104, 1711, 467, 466
2105, 2500, 774, 775
2106, 7203, 7204, 7206
2107, 3257, 3859, 129
2108, 1963, 1808, 2121
2109, 2550, 1533, 1978
2110, 3859, 3814, 130
2111, 174, 173, 1726
2112, 3241, 3242, 2739
2113, 1530, 1567, 1593
2114, 776, 2065, 775
2115, 3839, 765, 766
2116, 4598, 1968, 4596
2117, 1519, 1685, 2105
2118, 3842, 3256, 2748
2119, 128, 3255, 129
2120, 3843, 3256, 3842
2121, 3369, 6447, 2799
2122, 2065, 2066, 1947
2123, 134, 3240, 135
2124, 7218, 7219, 7221
2125, 227, 226, 1872
2126, 3408, 774, 2500
2127, 1039, 1754, 1906
2128, 771, 772, 3409
2129, 4406, 771, 3409
2130, 1944, 1817, 2995
2131, 3407, 772, 773
2132, 2140, 2163, 2022
2133, 546, 545, 1888
2134, 9015, 9016, 9010
2135, 1653, 84, 83
2136, 768, 769, 3817
2137, 3817, 3819, 768
2138, 1647, 1406, 2404
2139, 719, 2031, 1773
2140, 4527, 4528, 1374
2141, 3817, 3818, 4960
2142, 1285, 1610, 7838
2143, 1414, 1671, 1464
2144, 764, 765, 4426
2145, 3856, 3855, 3851
2146, 4426, 3839, 3841
2147, 3862, 760, 761
2148, 68, 1901, 69
2149, 2745, 4973, 4425
2150, 1509, 2926, 2498
2151, 622, 2122, 623
2152, 3261, 761, 762
2153, 1556, 2932, 2507
2154, 3862, 3863, 4438
2155, 759, 3868, 758
2156, 2992, 2064, 3557
2157, 3265, 3863, 4440
2158, 629, 1689, 1480
2159, 3849, 2250, 3851
2160, 2300, 6930, 4579
2161, 123, 3866, 124
2162, 626, 1713, 1588
2163, 1367, 2837, 1359
2164, 1533, 8119, 1570
2165, 120, 3874, 121
2166, 2812, 549, 1543
2167, 2373, 1780, 1650
2168, 1418, 3332, 1513
2169, 5475, 4994, 4453
2170, 3875, 3275, 3874
2171, 6924, 4520, 6923
2172, 3875, 4459, 4460
2173, 117, 3267, 118
2174, 4447, 3868, 3869
2175, 1403, 1646, 2013
2176, 654, 1572, 653
2177, 118, 3870, 119
2178, 758, 4447, 757
2179, 817, 1570, 816
2180, 3879, 115, 114
2181, 84, 1653, 85
2182, 4999, 3866, 3867
2183, 5950, 5952, 6970
2184, 1690, 311, 1526
2185, 1688, 470, 1524
2186, 1928, 1659, 2044
2187, 111, 3277, 112
2188, 3880, 6819, 6818
2189, 1927, 1658, 2042
2190, 3880, 3282, 3879
2191, 2755, 3277, 3281
2192, 1470, 1334, 1338
2193, 1464, 1671, 81
2194, 1765, 877, 878
2195, 7195, 7503, 7504
2196, 6680, 3278, 3877
2197, 241, 1454, 242
2198, 7518, 7520, 7519
2199, 392, 1682, 393
2200, 112, 3876, 113
2201, 470, 1478, 471
2202, 7506, 7508, 7507
2203, 3469, 1553, 1516
2204, 3873, 5011, 755
2205, 7073, 7072, 7071
2206, 753, 754, 7716
2207, 2903, 2453, 3494
2208, 1996, 1997, 1865
2209, 5947, 5950, 5009
2210, 1853, 985, 1854
2211, 2008, 1042, 1043
2212, 5951, 5954, 5955
2213, 7086, 7088, 750
2214, 7092, 7088, 8008
2215, 720, 2032, 2031
2216, 2026, 1204, 1205
2217, 6680, 6686, 3278
2218, 2039, 883, 884
2219, 756, 3873, 755
2220, 4140, 2992, 2597
2221, 327, 1785, 1473
2222, 7952, 7950, 7197
2223, 1506, 6976, 1347
2224, 1504, 6983, 1345
2225, 103, 102, 6528
2226, 7928, 7929, 7931
2227, 7530, 7540, 7091
2228, 6516, 6518, 6512
2229, 7831, 7834, 7833
2230, 7386, 7922, 7926
2231, 2058, 619, 1884
2232, 251, 250, 2055
2233, 7367, 7392, 7198
2234, 7365, 7354, 7368
2235, 1955, 1827, 176
2236, 1821, 1491, 2070
2237, 7365, 7367, 7198
2238, 1814, 1815, 1698
2239, 102, 6527, 6528
2240, 9, 1791, 1476
2241, 7195, 7399, 7396
2242, 1761, 2039, 2588
2243, 152, 1484, 153
2244, 1619, 2456, 2454
2245, 4613, 3953, 4609
2246, 1710, 1832, 1833
2247, 1575, 1309, 6981
2248, 1425, 1929, 2108
2249, 652, 8123, 8122
2250, 177, 176, 1827
2251, 2403, 1415, 2400
2252, 1490, 1703, 1489
2253, 2562, 8122, 1535
2254, 654, 655, 2078
2255, 8194, 8192, 8162
2256, 2968, 6259, 1444
2257, 1845, 1984, 2078
2258, 1725, 1553, 3469
2259, 1593, 1567, 945
2260, 1561, 5081, 1603
2261, 2131, 1846, 1982
2262, 2076, 2132, 2607
2263, 468, 1603, 469
2264, 3010, 1845, 2077
2265, 1147, 1879, 1146
2266, 19, 2071, 1958
2267, 3823, 4416, 3824
2268, 1729, 1849, 2380
2269, 1740, 1872, 2387
2270, 1891, 140, 1892
2271, 4413, 4414, 3823
2272, 3246, 4413, 3823
2273, 2088, 1402, 1682
2274, 2467, 4696, 4695
2275, 3246, 4473, 4413
2276, 2568, 2573, 1409
2277, 2864, 2863, 1414
2278, 245, 1647, 1451
2279, 668, 669, 3283
2280, 3283, 3285, 3884
2281, 1463, 1651, 1653
2282, 3835, 6918, 5496
2283, 1423, 1474, 1659
2284, 30, 29, 3838
2285, 3938, 5084, 3936
2286, 2856, 25, 3401
2287, 391, 390, 1704
2288, 3826, 31, 30
2289, 31, 3827, 32
2290, 3889, 5031, 3888
2291, 1353, 1512, 1369
2292, 4568, 1711, 1710
2293, 35, 34, 3888
2294, 2307, 1542, 408
2295, 1703, 74, 73
2296, 4478, 3888, 3890
2297, 35, 4478, 36
2298, 673, 674, 3891
2299, 2092, 2281, 2571
2300, 1412, 2586, 2585
2301, 3290, 3292, 3896
2302, 6433, 1657, 1784
2303, 3836, 3835, 3837
2304, 8316, 8325, 8321
2305, 1449, 1646, 1403
2306, 40, 3893, 41
2307, 82, 1671, 1487
2308, 1903, 2084, 1677
2309, 3291, 3292, 3897
2310, 2757, 3283, 4467
2311, 3887, 3286, 3886
2312, 677, 678, 3900
2313, 1420, 3338, 1515
2314, 4491, 3296, 3904
2315, 1689, 629, 1525
2316, 44, 3903, 45
2317, 45, 4495, 46
2318, 1691, 152, 1527
2319, 3296, 3903, 3904
2320, 2622, 2085, 2138
2321, 3882, 4463, 4465
2322, 1649, 243, 242
2323, 3881, 3882, 3284
2324, 1930, 1661, 2048
2325, 1515, 3338, 3339
2326, 782, 783, 1594
2327, 4482, 3892, 4481
2328, 1938, 2122, 621
2329, 3562, 1818, 2598
2330, 2539, 2526, 2533
2331, 4493, 4494, 2256
2332, 676, 677, 4489
2333, 1689, 1525, 5529
2334, 5488, 5729, 7020
2335, 1472, 1336, 1340
2336, 3907, 3298, 3906
2337, 3906, 49, 48
2338, 7668, 7669, 7670
2339, 1534, 1571, 1979
2340, 4497, 4500, 4498
2341, 7677, 4497, 4499
2342, 1644, 1778, 2034
2343, 1834, 1713, 625
2344, 4463, 4464, 2758
2345, 7887, 7886, 684
2346, 987, 3379, 3995
2347, 1844, 1881, 2903
2348, 1999, 298, 297
2349, 2464, 3453, 3461
2350, 4501, 7876, 6919
2351, 1554, 1583, 1725
2352, 687, 7602, 7613
2353, 7602, 7601, 7293
2354, 1905, 1755, 1628
2355, 7602, 7606, 7603
2356, 2025, 1767, 2093
2357, 1772, 1773, 1641
2358, 50, 3300, 51
2359, 1926, 2041, 2589
2360, 7876, 7866, 7869
2361, 1779, 1925, 2496
2362, 7886, 7878, 7879
2363, 1739, 1871, 2437
2364, 7605, 7619, 7618
2365, 2282, 552, 1458
2366, 3301, 3909, 3300
2367, 6928, 4542, 6927
2368, 53, 52, 7547
2369, 7595, 7591, 55
2370, 399, 1446, 2775
2371, 51, 3909, 52
2372, 1507, 6979, 1348
2373, 652, 8122, 651
2374, 7588, 6200, 7959
2375, 4580, 3939, 4576
2376, 7576, 7574, 7564
2377, 696, 6152, 695
2378, 815, 8118, 814
2379, 7166, 6199, 6200
2380, 1505, 6988, 1346
2381, 7590, 7591, 7200
2382, 1435, 6924, 158
2383, 7585, 7165, 7586
2384, 326, 325, 2409
2385, 693, 694, 7166
2386, 1616, 2896, 2437
2387, 2119, 1809, 2621
2388, 7817, 7165, 7585
2389, 1934, 1797, 1675
2390, 6197, 6199, 695
2391, 6143, 5962, 6144
2392, 6153, 6147, 6110
2393, 6145, 6177, 6143
2394, 1826, 1827, 1707
2395, 1833, 1832, 465
2396, 6150, 6145, 6147
2397, 1036, 2473, 2471
2398, 5040, 5500, 5878
2399, 943, 1815, 942
2400, 7601, 6413, 7572
2401, 7548, 7545, 6687
2402, 2285, 1460, 559
2403, 1839, 1838, 147
2404, 1929, 1660, 2046
2405, 1728, 1559, 3481
2406, 1395, 4, 3
2407, 6501, 2259, 6496
2408, 2303, 1336, 1472
2409, 810, 811, 1366
2410, 2299, 1334, 1470
2411, 99, 98, 3302
2412, 3302, 6446, 7310
2413, 650, 6259, 649
2414, 100, 99, 7310
2415, 96, 95, 2392
2416, 8359, 8374, 8459
2417, 1784, 4603, 4604
2418, 810, 1366, 809
2419, 1391, 4526, 1374
2420, 95, 94, 1899
2421, 1370, 1513, 1362
2422, 95, 1899, 2392
2423, 789, 1356, 1372
2424, 96, 2392, 6689
2425, 2866, 2865, 1463
2426, 8530, 8611, 8454
2427, 9412, 9424, 9426
2428, 9451, 9463, 9465
2429, 1773, 718, 719
2430, 1653, 1487, 1463
2431, 9214, 9210, 9212
2432, 1487, 83, 82
2433, 1488, 88, 87
2434, 7220, 1610, 1503
2435, 1318, 1330, 1310
2436, 804, 805, 1326
2437, 722, 723, 1777
2438, 87, 1539, 1488
2439, 1318, 801, 802
2440, 1466, 1539, 86
2441, 1487, 1653, 83
2442, 1597, 1314, 796
2443, 1431, 6928, 635
2444, 89, 88, 1540
2445, 1716, 1838, 1839
2446, 6511, 6510, 6508
2447, 735, 7297, 7296
2448, 7377, 7381, 7376
2449, 3367, 6489, 2830
2450, 412, 411, 1852
2451, 1798, 93, 92
2452, 2133, 656, 657
2453, 1864, 1863, 1102
2454, 6496, 6502, 6495
2455, 2353, 2350, 2346
2456, 2350, 2355, 1625
2457, 1881, 1743, 2453
2458, 1876, 181, 180
2459, 2348, 2349, 2347
2460, 2893, 3540, 3542
2461, 1798, 92, 2054
2462, 2079, 339, 338
2463, 2054, 1544, 1935
2464, 1782, 4570, 4571
2465, 1643, 1777, 2033
2466, 2491, 724, 725
2467, 2046, 1660, 1426
2468, 2035, 714, 715
2469, 1776, 722, 1777
2470, 1488, 1540, 88
2471, 136, 3244, 137
2472, 2342, 2338, 2292
2473, 2333, 2336, 2335
2474, 1540, 2332, 89
2475, 3328, 2790, 2792
2476, 1905, 1628, 2010
2477, 727, 2344, 2924
2478, 94, 93, 1900
2479, 1206, 1207, 2027
2480, 2349, 2348, 1676
2481, 1322, 1312, 1338
2482, 2389, 1887, 544
2483, 79, 2289, 80
2484, 7346, 6446, 6522
2485, 813, 6257, 812
2486, 3306, 3914, 6692
2487, 1372, 1515, 1364
2488, 65, 64, 3304
2489, 1902, 2469, 2470
2490, 647, 648, 1368
2491, 2770, 3304, 7097
2492, 6267, 7220, 8162
2493, 8409, 8418, 8414
2494, 704, 2638, 2639
2495, 1395, 4548, 1376
2496, 7210, 8158, 6265
2497, 1324, 1314, 1340
2498, 2599, 708, 2600
2499, 6270, 1495, 3000
2500, 647, 1368, 646
2501, 3305, 3913, 3304
2502, 642, 643, 1348
2503, 5504, 5739, 5041
2504, 1720, 2559, 1984
2505, 2470, 3465, 1626
2506, 2975, 3527, 4113
2507, 2385, 1863, 1736
2508, 4690, 5503, 4064
2509, 2381, 1851, 1730
2510, 5503, 5738, 4064
2511, 1903, 69, 1901
2512, 708, 2599, 707
2513, 1902, 1901, 68
2514, 2160, 2084, 2136
2515, 1874, 1875, 1741
2516, 1881, 1844, 1145
2517, 2183, 2640, 2192
2518, 1888, 1887, 1746
2519, 3530, 2000, 4117
2520, 5504, 5741, 700
2521, 6016, 5040, 5878
2522, 1495, 2136, 2198
2523, 76, 1467, 77
2524, 8421, 8436, 8503
2525, 1320, 638, 639
2526, 641, 642, 1328
2527, 1924, 2037, 1778
2528, 1468, 2288, 1416
2529, 9717, 9697, 9716
2530, 75, 1490, 1672
2531, 1772, 718, 1773
2532, 1329, 6981, 1309
2533, 721, 722, 1776
2534, 1921, 2031, 2032
2535, 780, 781, 1946
2536, 1696, 3556, 2060
2537, 78, 77, 2288
2538, 1671, 1414, 1487
2539, 71, 6272, 6271
2540, 805, 806, 1346
2541, 1916, 1917, 1768
2542, 1467, 1672, 1931
2543, 2494, 1794, 1950
2544, 1949, 1489, 1703
2545, 2392, 1899, 1752
2546, 2011, 1754, 1040
2547, 713, 1778, 712
2548, 2371, 2370, 2831
2549, 1772, 2396, 717
2550, 718, 1772, 717
2551, 1701, 3560, 2064
2552, 1794, 1489, 1951
2553, 715, 716, 1774
2554, 2034, 2035, 1923
2555, 2106, 1929, 1790
2556, 1676, 1798, 1935
2557, 2034, 1778, 713
2558, 1438, 4710, 4129
2559, 2035, 1774, 2036
2560, 6271, 73, 72
2561, 1950, 2068, 2069
2562, 1950, 1794, 1951
2563, 2909, 3462, 3463
2564, 1278, 1354, 1370
2565, 1391, 163, 162
2566, 1494, 1935, 1544
2567, 2126, 2156, 2180
2568, 648, 1388, 1368
2569, 8, 7, 2412
2570, 711, 2493, 710
2571, 1952, 2190, 2191
2572, 2112, 1930, 2110
2573, 175, 1955, 176
2574, 2493, 2494, 2495
2575, 19, 18, 2071
2576, 1898, 1958, 1831
2577, 1961, 1959, 1692
2578, 1710, 1833, 1959
2579, 1692, 5082, 1961
2580, 3331, 4569, 3330
2581, 5082, 1692, 1962
2582, 1710, 1961, 1960
2583, 2117, 2116, 1692
2584, 6992, 4042, 4564
2585, 1965, 1963, 1695
2586, 1712, 1835, 1963
2587, 1695, 5114, 1965
2588, 3334, 4585, 3333
2589, 5114, 1695, 1966
2590, 1712, 1965, 1964
2591, 2121, 2120, 1695
2592, 6980, 4126, 4128
2593, 1969, 1967, 1697
2594, 1714, 1837, 1967
2595, 1697, 5144, 1969
2596, 3337, 4601, 3336
2597, 5144, 1697, 1970
2598, 1714, 1969, 1968
2599, 2124, 2123, 1697
2600, 5155, 4602, 6985
2601, 1973, 1971, 1700
2602, 1716, 1839, 1971
2603, 3460, 5185, 1973
2604, 3340, 4618, 3339
2605, 1973, 1700, 3460
2606, 1716, 1973, 1972
2607, 3450, 3455, 1749
2608, 4136, 4134, 4132
2609, 2129, 821, 822
2610, 2073, 1975, 1841
2611, 2074, 1570, 817
2612, 1978, 1976, 1842
2613, 1718, 1977, 1840
2614, 1842, 1976, 1977
2615, 2515, 2531, 2543
2616, 2145, 2168, 2170
2617, 2075, 1571, 1143
2618, 1981, 1979, 1843
2619, 1719, 1980, 1844
2620, 1843, 1979, 1980
2621, 1843, 2551, 2553
2622, 2147, 2171, 2173
2623, 2132, 658, 659
2624, 2077, 1982, 1846
2625, 2078, 1572, 654
2626, 1985, 1983, 1847
2627, 1720, 1984, 1845
2628, 1847, 1983, 1984
2629, 2559, 2561, 1847
2630, 2149, 2174, 2176
2631, 1705, 3360, 5195
2632, 2563, 1986, 1848
2633, 2645, 1030, 1031
2634, 2576, 1987, 2204
2635, 1989, 1988, 341
2636, 2422, 1988, 1856
2637, 340, 339, 2974
2638, 2577, 5197, 2972
2639, 2975, 4113, 1824
2640, 2975, 1824, 1706
2641, 980, 2080, 1569
2642, 1991, 1858, 5249
2643, 1992, 1860, 2081
2644, 1858, 1991, 1992
2645, 458, 457, 1995
2646, 2591, 2590, 1993
2647, 2423, 1994, 456
2648, 1995, 1994, 1862
2649, 1862, 2976, 2579
2650, 1995, 1993, 458
2651, 1997, 299, 298
2652, 1865, 3574, 1996
2653, 299, 1997, 1996
2654, 1999, 1997, 298
2655, 2154, 2889, 2887
2656, 1943, 2082, 1813
2657, 2000, 297, 296
2658, 1997, 1999, 1866
2659, 4279, 4818, 4278
2660, 2000, 3530, 1866
2661, 2823, 2001, 1617
2662, 2582, 2001, 3360
2663, 2003, 2002, 500
2664, 2450, 2002, 1877
2665, 499, 498, 2983
2666, 2981, 2583, 1742
2667, 3507, 497, 496
2668, 2958, 3503, 3504
2669, 3919, 2268, 2780
2670, 2584, 2005, 2265
2671, 2159, 2182, 2135
2672, 2640, 2183, 2638
2673, 2007, 1677, 6272
2674, 69, 2007, 70
2675, 2009, 2008, 1043
2676, 1755, 2008, 1904
2677, 1044, 1759, 2009
2678, 1631, 2009, 1759
2679, 1628, 2085, 2010
2680, 1401, 1445, 2614
2681, 1755, 2011, 1041
2682, 1754, 2011, 1905
2683, 2127, 2087, 1821
2684, 1907, 1629, 2137
2685, 1646, 1450, 2014
2686, 2015, 2013, 1908
2687, 2089, 2014, 1404
2688, 1908, 2013, 2014
2689, 2015, 1908, 2090
2690, 1630, 2803, 2804
2691, 2474, 1758, 1049
2692, 2803, 2016, 1909
2693, 2018, 2017, 1046
2694, 1759, 2017, 1910
2695, 1047, 1757, 2018
2696, 2090, 1757, 2015
2697, 2477, 1760, 886
2698, 1911, 2371, 2831
2699, 2091, 2020, 1763
2700, 1636, 1912, 2020
2701, 1762, 2021, 879
2702, 1765, 2021, 1912
2703, 2140, 2022, 1636
2704, 2163, 1455, 2092
2705, 1765, 2023, 877
2706, 1764, 2023, 1913
2707, 2025, 2024, 1202
2708, 1766, 2024, 1914
2709, 1203, 1767, 2025
2710, 2093, 1767, 1638
2711, 1917, 2026, 1205
2712, 1767, 2026, 1916
2713, 1769, 2027, 1207
2714, 1917, 2027, 1918
2715, 1770, 2028, 1209
2716, 1769, 2028, 1919
2717, 2287, 1413, 2286
2718, 1639, 1919, 2029
2719, 1212, 2030, 1211
2720, 2030, 1920, 6273
2721, 720, 2031, 719
2722, 2031, 1921, 2867
2723, 721, 1776, 2032
2724, 2399, 1776, 2398
2725, 2490, 1777, 723
2726, 2033, 1922, 2868
2727, 714, 2034, 713
2728, 1644, 2034, 1923
2729, 715, 1774, 2035
2730, 2036, 1774, 1642
2731, 2096, 2036, 1642
2732, 1923, 2035, 2036
2733, 1778, 2037, 712
2734, 2493, 2037, 1924
2735, 1760, 2038, 885
2736, 2039, 2038, 1925
2737, 2588, 1925, 1779
2738, 2039, 1761, 883
2739, 2041, 2040, 881
2740, 1762, 2040, 1926
2741, 882, 1761, 2041
2742, 2589, 1761, 1633
2743, 1373, 2042, 1422
2744, 1786, 1927, 2042
2745, 2099, 8128, 2098
2746, 2100, 2165, 2101
2747, 1374, 2044, 1424
2748, 1788, 1928, 2044
2749, 2103, 8135, 2102
2750, 2104, 2168, 2105
2751, 1375, 2046, 1426
2752, 1790, 1929, 2046
2753, 2107, 8142, 2106
2754, 2108, 2171, 2109
2755, 1376, 2048, 1428
2756, 1792, 1930, 2048
2757, 2111, 8149, 2110
2758, 2112, 2174, 2113
2759, 1923, 2036, 2097
2760, 1416, 1931, 2050
2761, 1795, 2051, 388
2762, 1541, 2051, 1932
2763, 1542, 2052, 409
2764, 1796, 2052, 1933
2765, 1797, 2053, 547
2766, 1543, 2053, 1934
2767, 1544, 2054, 91
2768, 1798, 2054, 1935
2769, 1551, 2055, 250
2770, 1803, 2055, 1936
2771, 460, 459, 2590
2772, 6275, 2177, 2186
2773, 2057, 1805, 2116
2774, 2118, 2057, 1804
2775, 619, 2058, 620
2776, 2058, 1884, 2119
2777, 2059, 1809, 2120
2778, 2122, 2059, 1808
2779, 1941, 4125, 1940
2780, 4125, 1529, 3553
2781, 2062, 2061, 1265
2782, 2499, 2061, 1942
2783, 2991, 1267, 1939
2784, 2062, 3555, 2596
2785, 2063, 1813, 2123
2786, 2125, 2063, 1812
2787, 1946, 4131, 1945
2788, 4131, 1531, 3557
2789, 2066, 2065, 776
2790, 2500, 2065, 1947
2791, 2995, 778, 1944
2792, 2066, 3559, 2598
2793, 1573, 2067, 568
2794, 1819, 2067, 1948
2795, 2068, 1820, 2998
2796, 1950, 1951, 2068
2797, 2999, 2198, 2193
2798, 709, 2600, 708
2799, 2180, 2156, 2070
2800, 2070, 1952, 2127
2801, 1830, 1709, 2071
2802, 1709, 3488, 4083
2803, 2604, 3001, 3002
2804, 2603, 2605, 2072
2805, 2532, 6438, 1841
2806, 1840, 819, 2130
2807, 1840, 2074, 818
2808, 1570, 2074, 1977
2809, 1844, 2075, 1144
2810, 1571, 2075, 1980
2811, 3570, 4148, 2609
2812, 5851, 5714, 5850
2813, 2077, 1846, 2611
2814, 1845, 656, 2133
2815, 1845, 2078, 655
2816, 1572, 2078, 1984
2817, 4113, 2079, 338
2818, 2974, 2079, 1990
2819, 1860, 2080, 981
2820, 1569, 2080, 1992
2821, 1860, 1734, 2613
2822, 6439, 2613, 1734
2823, 2134, 1943, 302
2824, 2179, 2188, 2636
2825, 2083, 497, 3507
2826, 2983, 2083, 2004
2827, 1753, 2084, 1903
2828, 2084, 2006, 2136
2829, 2624, 1628, 1904
2830, 2086, 2085, 1401
2831, 2086, 2010, 2085
2832, 2614, 2086, 1401
2833, 2127, 1821, 2070
2834, 2087, 2012, 2088
2835, 2088, 1682, 1508
2836, 2137, 2088, 2012
2837, 2623, 3013, 1404
2838, 2139, 2089, 1631
2839, 1910, 2090, 1908
2840, 2018, 1757, 2090
2841, 2278, 2091, 1763
2842, 2163, 2140, 1408
2843, 2281, 1455, 2280
2844, 2571, 2573, 2570
2845, 2394, 2859, 2395
2846, 2093, 1638, 2094
2847, 2283, 2284, 1411
2848, 2141, 2629, 2164
2849, 1770, 1640, 2095
2850, 2615, 2095, 1640
2851, 2096, 1642, 2618
2852, 1416, 2050, 2097
2853, 1923, 2097, 1644
2854, 1416, 2097, 2096
2855, 2099, 2098, 1786
2856, 2098, 2043, 2100
2857, 1373, 4515, 4516
2858, 8130, 8125, 1390
2859, 1678, 6901, 6905
2860, 2101, 1684, 1421
2861, 3017, 3018, 2632
2862, 2166, 1516, 1553
2863, 2103, 2102, 1788
2864, 2102, 2045, 2104
2865, 1374, 4526, 4527
2866, 8137, 8132, 1392
2867, 6421, 4086, 1679
2868, 2105, 1685, 1423
2869, 3019, 3020, 2633
2870, 2169, 1518, 1555
2871, 2107, 2106, 1790
2872, 2106, 2047, 2108
2873, 1375, 4537, 4538
2874, 8144, 8139, 1394
2875, 2146, 4091, 3517
2876, 2109, 1686, 1425
2877, 3021, 3022, 2634
2878, 2172, 1520, 1557
2879, 2111, 2110, 1792
2880, 2110, 2049, 2112
2881, 1376, 4548, 4549
2882, 8151, 8146, 1396
2883, 4098, 4100, 3524
2884, 2113, 1687, 1427
2885, 3023, 3024, 2635
2886, 2175, 1522, 1559
2887, 2115, 1937, 461
2888, 6275, 2114, 2056
2889, 2590, 2115, 460
2890, 2114, 2115, 2056
2891, 2116, 1805, 2186
2892, 1692, 2116, 2151
2893, 1804, 2057, 2117
2894, 2116, 2117, 2057
2895, 464, 2118, 1804
2896, 462, 2118, 463
2897, 2203, 2195, 2200
2898, 2152, 2187, 2201
2899, 2187, 2178, 1809
2900, 1695, 2120, 2153
2901, 1808, 2059, 2121
2902, 2120, 2121, 2059
2903, 623, 2122, 1808
2904, 621, 2122, 622
2905, 1998, 3574, 3573
2906, 1697, 2123, 2155
2907, 1812, 2063, 2124
2908, 2123, 2124, 2063
2909, 305, 2125, 1812
2910, 303, 2125, 304
2911, 2180, 2189, 2126
2912, 2646, 2205, 2645
2913, 1952, 2191, 2642
2914, 2471, 1035, 1036
2915, 2129, 1975, 821
2916, 2606, 2072, 2605
2917, 2601, 2129, 822
2918, 2128, 2129, 2072
2919, 1975, 2130, 820
2920, 1840, 2130, 2073
2921, 2132, 1982, 658
2922, 5852, 2076, 5851
2923, 2607, 2132, 659
2924, 2131, 2132, 2076
2925, 1982, 2133, 657
2926, 1845, 2133, 2077
2927, 1998, 2134, 301
2928, 1943, 2134, 2082
2929, 1753, 2157, 2135
2930, 2135, 2157, 2159
2931, 2136, 2006, 2184
2932, 2193, 2198, 2184
2933, 2137, 2012, 2472
2934, 2162, 2137, 1629
2935, 2138, 2623, 2622
2936, 2085, 1628, 2624
2937, 1910, 2139, 1631
2938, 2014, 2139, 1908
2939, 2020, 2140, 1636
2940, 1408, 2140, 2091
2941, 1410, 2629, 1457
2942, 2630, 2164, 2629
2943, 1678, 6419, 6901
2944, 5249, 1858, 2612
2945, 1517, 2101, 2143
2946, 2143, 2101, 2165
2947, 3491, 3492, 3493
2948, 3472, 2170, 2144
2949, 1519, 2105, 2145
2950, 2145, 2105, 2168
2951, 4094, 4092, 2960
2952, 3476, 2173, 2146
2953, 1521, 2109, 2147
2954, 2147, 2109, 2171
2955, 2966, 3524, 4102
2956, 3480, 2176, 2148
2957, 1523, 2113, 2149
2958, 2149, 2113, 2174
2959, 6275, 2591, 2593
2960, 2593, 2594, 5967
2961, 2151, 2116, 2186
2962, 3015, 3014, 2151
2963, 2152, 2178, 2187
2964, 3552, 2201, 2987
2965, 2178, 2153, 2120
2966, 2986, 3551, 3552
2967, 2427, 2435, 2426
2968, 1697, 2155, 1970
2969, 2155, 2123, 2188
2970, 3429, 2886, 3428
2971, 2180, 2070, 1491
2972, 2190, 2126, 2181
2973, 2914, 1753, 1902
2974, 3465, 4690, 5242
2975, 4065, 2158, 2159
2976, 2638, 704, 705
2977, 1626, 2159, 2157
2978, 2182, 2159, 2158
2979, 6270, 2160, 1495
2980, 2084, 2160, 1677
2981, 2192, 2182, 2183
2982, 707, 2627, 706
2983, 2185, 2162, 1629
2984, 2088, 2162, 1402
2985, 1455, 2163, 1408
2986, 2022, 2163, 2092
2987, 2164, 2630, 2631
2988, 2094, 2141, 2164
2989, 2043, 3018, 3017
2990, 2165, 2142, 2167
2991, 2166, 1553, 331
2992, 1517, 2143, 2166
2993, 1532, 4701, 5248
2994, 1516, 2143, 2167
2995, 2045, 3020, 3019
2996, 2168, 2144, 2170
2997, 2169, 1555, 172
2998, 1519, 2145, 2169
2999, 1978, 2945, 2946
3000, 1518, 2145, 2170
3001, 2047, 3022, 3021
3002, 2171, 2146, 2173
3003, 2172, 1557, 490
3004, 1521, 2147, 2172
3005, 2964, 2960, 2963
3006, 1520, 2147, 2173
3007, 2049, 3024, 3023
3008, 2174, 2148, 2176
3009, 2175, 1559, 13
3010, 1523, 2149, 2175
3011, 2970, 2966, 2969
3012, 1522, 2149, 2176
3013, 1805, 2114, 6275
3014, 6791, 3015, 2150
3015, 2187, 1809, 2119
3016, 2178, 2152, 3551
3017, 2636, 1813, 2082
3018, 3428, 2179, 3429
3019, 1932, 2196, 1491
3020, 2196, 1673, 2189
3021, 6399, 2202, 2207
3022, 2637, 1032, 1033
3023, 2158, 6440, 2182
3024, 2135, 2182, 2006
3025, 2638, 2183, 6440
3026, 705, 706, 2640
3027, 2006, 2182, 2192
3028, 2184, 2161, 2193
3029, 2194, 2185, 1629
3030, 1627, 2086, 2641
3031, 6275, 2186, 1805
3032, 2151, 2186, 2177
3033, 2200, 1744, 2203
3034, 2187, 2119, 2199
3035, 2636, 2188, 1813
3036, 2155, 2188, 2179
3037, 2204, 1673, 2576
3038, 6896, 2202, 2204
3039, 2126, 2190, 2156
3040, 2637, 2191, 2190
3041, 1033, 1034, 2191
3042, 2191, 1034, 2642
3043, 2161, 2184, 2192
3044, 2192, 2184, 2006
3045, 2628, 2193, 2161
3046, 2997, 2998, 2193
3047, 1756, 2194, 1629
3048, 1906, 1754, 2643
3049, 3026, 2201, 2195
3050, 2199, 2201, 2187
3051, 1491, 2196, 2180
3052, 1673, 2196, 1932
3053, 2189, 2204, 2202
3054, 3990, 1611, 3988
3055, 2184, 2198, 2136
3056, 2193, 2998, 2999
3057, 2200, 2119, 1884
3058, 2199, 2195, 2201
3059, 2119, 2200, 2199
3060, 1884, 1744, 2200
3061, 2644, 3026, 3027
3062, 2595, 2986, 4124
3063, 2189, 1673, 2204
3064, 6277, 6278, 6279
3065, 2206, 1744, 1883
3066, 2203, 1620, 3027
3067, 1987, 1611, 2204
3068, 1611, 3990, 6896
3069, 2646, 1031, 1032
3070, 2126, 6399, 2181
3071, 1745, 2206, 1883
3072, 1620, 2203, 2206
3073, 2207, 2197, 6279
3074, 2207, 2205, 6399
3075, 6322, 6316, 6323
3076, 6305, 6306, 6289
3077, 2648, 3032, 3033
3078, 6400, 7281, 6463
3079, 370, 369, 3034
3080, 3034, 3035, 6119
3081, 5968, 5786, 5605
3082, 361, 4712, 4163
3083, 5889, 5594, 3044
3084, 4158, 3583, 3586
3085, 5266, 3048, 3049
3086, 6113, 6114, 6043
3087, 3619, 352, 3060
3088, 3597, 3052, 3051
3089, 994, 3602, 993
3090, 3603, 3058, 3057
3091, 1076, 1077, 7704
3092, 3062, 3064, 3620
3093, 3068, 3069, 5283
3094, 6564, 7444, 3627
3095, 1085, 3633, 1084
3096, 3080, 438, 3074
3097, 3654, 1090, 3652
3098, 3083, 2669, 3085
3099, 1092, 1093, 3091
3100, 3091, 3092, 4239
3101, 3659, 451, 450
3102, 3660, 3097, 3096
3103, 5904, 5300, 5898
3104, 3100, 3102, 3665
3105, 7106, 3112, 3674
3106, 3107, 2680, 3111
3107, 2683, 3117, 3119
3108, 3679, 4815, 3120
3109, 3123, 3124, 4275
3110, 4682, 3433, 4048
3111, 927, 928, 3128
3112, 3129, 4284, 3128
3113, 2690, 3131, 3132
3114, 6861, 6859, 6858
3115, 6018, 5963, 5751
3116, 863, 5547, 5753
3117, 2693, 5352, 3142
3118, 209, 208, 3140
3119, 202, 201, 3147
3120, 2696, 3147, 3148
3121, 205, 204, 4301
3122, 5349, 5341, 5348
3123, 198, 197, 3153
3124, 3153, 3154, 4318
3125, 4327, 4328, 3725
3126, 3715, 3158, 3157
3127, 3738, 509, 3736
3128, 3729, 1157, 1158
3129, 1156, 3171, 1155
3130, 504, 3396, 505
3131, 5409, 3180, 5411
3132, 1163, 1164, 3183
3133, 2714, 3190, 3191
3134, 1167, 1168, 3192
3135, 3196, 3197, 7473
3136, 7286, 8018, 8015
3137, 525, 524, 3198
3138, 6968, 3198, 3199
3139, 1261, 3405, 1260
3140, 3201, 610, 3202
3141, 2723, 3206, 6444
3142, 6697, 6695, 6696
3143, 2390, 3209, 3766
3144, 5825, 5420, 4938
3145, 3214, 3215, 2727
3146, 603, 602, 3217
3147, 4379, 4380, 3797
3148, 3226, 595, 3221
3149, 4385, 3232, 3800
3150, 3229, 2732, 3231
3151, 2736, 3235, 3237
3152, 1242, 7728, 1241
3153, 8046, 8043, 8044
3154, 588, 587, 3238
3155, 3409, 772, 3407
3156, 3240, 134, 3241
3157, 3250, 2744, 3249
3158, 3828, 3829, 3250
3159, 3255, 3256, 2747
3160, 127, 126, 3258
3161, 4444, 4445, 3867
3162, 3862, 3261, 3260
3163, 4452, 3869, 4448
3164, 3267, 3269, 3870
3165, 751, 7086, 750
3166, 3277, 3279, 3876
3167, 3283, 3284, 4467
3168, 3827, 4476, 32
3169, 39, 38, 3291
3170, 3293, 4487, 3291
3171, 43, 42, 3297
3172, 41, 4483, 42
3173, 7671, 682, 7676
3174, 47, 46, 3299
3175, 49, 4503, 50
3176, 7887, 7964, 8073
3177, 2769, 3302, 3303
3178, 6414, 7298, 6504
3179, 3304, 3306, 7097
3180, 2915, 4506, 5501
3181, 1361, 1381, 2261
3182, 1112, 2261, 1381
3183, 1362, 1382, 2262
3184, 1275, 2262, 1382
3185, 1363, 1383, 2263
3186, 949, 2263, 1383
3187, 1364, 1384, 2264
3188, 786, 2264, 1384
3189, 4511, 4509, 5135
3190, 319, 3915, 4510
3191, 4522, 4520, 5175
3192, 160, 3916, 4521
3193, 4533, 4531, 5073
3194, 478, 3917, 4532
3195, 4544, 4542, 5103
3196, 1, 3918, 4543
3197, 1764, 1635, 2572
3198, 2563, 2564, 2568
3199, 2270, 323, 322
3200, 1373, 1422, 2270
3201, 2271, 164, 163
3202, 1374, 1424, 2271
3203, 2272, 482, 481
3204, 1375, 1426, 2272
3205, 2273, 5, 4
3206, 1376, 1428, 2273
3207, 1401, 2274, 1445
3208, 398, 2274, 1446
3209, 400, 399, 2775
3210, 1404, 1450, 2275
3211, 240, 2276, 241
3212, 1407, 2276, 1453
3213, 2091, 2278, 1408
3214, 237, 2277, 238
3215, 1763, 1453, 2278
3216, 2279, 2278, 1453
3217, 238, 2279, 239
3218, 2278, 2279, 2277
3219, 235, 1456, 2280
3220, 2281, 2280, 1456
3221, 1456, 1409, 2573
3222, 1455, 2281, 2092
3223, 2282, 1457, 553
3224, 1458, 1410, 2282
3225, 555, 554, 2284
3226, 1411, 1459, 2283
3227, 1411, 2284, 2141
3228, 2284, 2283, 555
3229, 558, 557, 2776
3230, 1412, 1460, 2285
3231, 561, 560, 2777
3232, 1413, 1462, 2286
3233, 2585, 1460, 1412
3234, 2029, 1413, 2287
3235, 1416, 2288, 1467
3236, 78, 2288, 1468
3237, 79, 1468, 2289
3238, 2619, 2620, 1468
3239, 2806, 2808, 1054
3240, 2308, 1538, 2311
3241, 1934, 2497, 1493
3242, 2268, 1193, 1194
3243, 2814, 2816, 728
3244, 2333, 1540, 2336
3245, 2790, 3321, 2793
3246, 2819, 2356, 2357
3247, 246, 2294, 247
3248, 1405, 2294, 1451
3249, 2371, 1405, 2370
3250, 1509, 2819, 3325
3251, 2296, 1456, 234
3252, 2565, 2296, 1511
3253, 1333, 2297, 1353
3254, 1417, 2297, 1469
3255, 4565, 5522, 5523
3256, 6993, 5083, 6991
3257, 1334, 2299, 1354
3258, 1418, 2299, 1470
3259, 4581, 5527, 5528
3260, 2300, 4573, 3334
3261, 1335, 2301, 1355
3262, 1419, 2301, 1471
3263, 4597, 5535, 5536
3264, 2302, 4590, 3337
3265, 1336, 2303, 1356
3266, 1420, 2303, 1472
3267, 4614, 5541, 5542
3268, 2304, 4606, 3340
3269, 2378, 2379, 3372
3270, 1793, 2487, 2841
3271, 2800, 3342, 2802
3272, 1948, 2501, 1702
3273, 407, 2307, 408
3274, 2308, 2307, 1538
3275, 2311, 1538, 3346
3276, 1492, 1542, 2308
3277, 2309, 3345, 2314
3278, 2313, 2312, 2290
3279, 2312, 2310, 2309
3280, 2310, 2312, 2313
3281, 3346, 1538, 1448
3282, 2309, 2310, 2311
3283, 2309, 2314, 2312
3284, 2290, 2312, 2476
3285, 2319, 2808, 2317
3286, 1492, 2313, 2318
3287, 3346, 2803, 3345
3288, 1909, 2474, 2475
3289, 2329, 1056, 6415
3290, 2324, 1933, 2316
3291, 2318, 2317, 2320
3292, 2320, 2322, 2316
3293, 2319, 2317, 2290
3294, 2320, 2317, 2315
3295, 2317, 2318, 2313
3296, 1933, 2318, 2316
3297, 2290, 2476, 2918
3298, 2319, 1053, 1054
3299, 2315, 6416, 2322
3300, 2318, 2320, 2316
3301, 2807, 6416, 2806
3302, 6415, 1056, 1057
3303, 2315, 2322, 2320
3304, 2322, 2321, 2323
3305, 2321, 2325, 2323
3306, 1674, 2326, 1852
3307, 1933, 2324, 1674
3308, 2322, 2324, 2316
3309, 2327, 2328, 2329
3310, 2325, 1612, 2809
3311, 2325, 2326, 2323
3312, 2326, 2325, 2809
3313, 3349, 3348, 1058
3314, 3347, 2330, 2327
3315, 2328, 2321, 2329
3316, 2328, 2327, 2330
3317, 6416, 2329, 2321
3318, 1056, 2329, 2807
3319, 3348, 3347, 2327
3320, 6448, 6457, 2820
3321, 1197, 1198, 2484
3322, 2919, 2920, 2482
3323, 89, 2332, 90
3324, 2333, 2332, 1540
3325, 1465, 2334, 2336
3326, 1494, 1544, 2333
3327, 2400, 1643, 2402
3328, 2338, 2337, 2292
3329, 2337, 2335, 2334
3330, 2335, 2337, 2338
3331, 1465, 2336, 1540
3332, 2334, 2335, 2336
3333, 2334, 2339, 2337
3334, 2292, 2337, 2492
3335, 2344, 2816, 2342
3336, 1494, 2338, 2343
3337, 1465, 2402, 2869
3338, 1922, 2490, 2491
3339, 2354, 730, 6417
3340, 2349, 1935, 2341
3341, 2343, 2342, 2345
3342, 2345, 2347, 2341
3343, 2344, 2342, 2292
3344, 2345, 2342, 2340
3345, 2342, 2343, 2338
3346, 1935, 2343, 2341
3347, 2292, 2492, 2924
3348, 2344, 727, 728
3349, 2340, 6418, 2347
3350, 2343, 2345, 2341
3351, 2815, 6418, 2814
3352, 6417, 730, 731
3353, 2340, 2347, 2345
3354, 2347, 2346, 2348
3355, 2346, 2350, 2348
3356, 1676, 2351, 1900
3357, 1935, 2349, 1676
3358, 2347, 2349, 2341
3359, 2352, 2353, 2354
3360, 2350, 1625, 2817
3361, 2350, 2351, 2348
3362, 2351, 2350, 2817
3363, 3352, 3351, 732
3364, 3350, 2355, 2352
3365, 2353, 2346, 2354
3366, 2353, 2352, 2355
3367, 6418, 2354, 2346
3368, 730, 2354, 2815
3369, 3351, 3350, 2352
3370, 6489, 6498, 2830
3371, 248, 2356, 249
3372, 1510, 2794, 2357
3373, 2357, 3325, 2819
3374, 1551, 2819, 1509
3375, 3030, 3031, 3579
3376, 6284, 3375, 6288
3377, 2330, 3353, 1612
3378, 6462, 6480, 6459
3379, 5220, 5221, 5223
3380, 1096, 1097, 3660
3381, 2821, 3963, 2361
3382, 1683, 1936, 2498
3383, 2850, 4006, 3389
3384, 4010, 4011, 3132
3385, 4627, 2874, 3972
3386, 1705, 2582, 3360
3387, 3133, 3134, 3694
3388, 5192, 5547, 864
3389, 3003, 3980, 2824
3390, 3362, 3363, 186
3391, 2439, 2442, 2443
3392, 2366, 2445, 2447
3393, 1152, 3174, 4637
3394, 5206, 4025, 5203
3395, 3206, 3207, 3765
3396, 3316, 8153, 8152
3397, 2355, 3367, 1625
3398, 6503, 6521, 6500
3399, 1632, 2019, 2831
3400, 2372, 2370, 1405
3401, 2478, 2792, 3327
3402, 2371, 3326, 2794
3403, 1405, 1451, 2372
3404, 2372, 1451, 1647
3405, 1780, 2373, 1407
3406, 1649, 2373, 1650
3407, 1441, 5248, 6907
3408, 6419, 1678, 8129
3409, 2952, 2950, 2951
3410, 6420, 1679, 8136
3411, 2962, 2960, 2961
3412, 6422, 1680, 8143
3413, 2968, 2966, 2967
3414, 6423, 1681, 8150
3415, 1722, 2378, 1573
3416, 2379, 2378, 1721
3417, 2840, 2379, 1721
3418, 2379, 2305, 2842
3419, 383, 3374, 3987
3420, 1729, 2843, 1611
3421, 1730, 2809, 2844
3422, 6533, 2359, 6482
3423, 3380, 989, 990
3424, 3613, 3059, 3610
3425, 2882, 3999, 3998
3426, 3056, 4175, 4174
3427, 3417, 4040, 4673
3428, 4676, 2384, 4674
3429, 1736, 2884, 2849
3430, 1100, 4001, 1099
3431, 1739, 2896, 2850
3432, 3390, 3389, 2362
3433, 224, 3392, 4017
3434, 1740, 2851, 1617
3435, 6796, 6793, 6797
3436, 4341, 4877, 5675
3437, 542, 3399, 4028
3438, 1746, 2854, 1621
3439, 1747, 2906, 2855
3440, 2390, 3767, 3209
3441, 4075, 4078, 4080
3442, 3250, 3829, 3830
3443, 1752, 2817, 2858
3444, 6691, 2369, 6523
3445, 1926, 2393, 1634
3446, 1780, 1407, 2393
3447, 1411, 2094, 2395
3448, 1768, 2586, 2587
3449, 2094, 1638, 2395
3450, 2860, 1638, 1916
3451, 2396, 1772, 2397
3452, 716, 2396, 1774
3453, 2862, 2397, 1772
3454, 1775, 1642, 2397
3455, 2398, 1643, 2400
3456, 1652, 2867, 2399
3457, 1776, 2399, 2032
3458, 1652, 2399, 2398
3459, 2033, 2402, 1643
3460, 1539, 2403, 1465
3461, 1652, 2398, 2401
3462, 2400, 2401, 2398
3463, 2334, 2869, 2339
3464, 2403, 2402, 1465
3465, 1415, 2403, 1539
3466, 2402, 2403, 2400
3467, 1647, 2404, 1648
3468, 1650, 2404, 1406
3469, 6974, 2405, 1579
3470, 6425, 1781, 1337
3471, 6977, 2406, 1581
3472, 6428, 1782, 1338
3473, 6981, 2407, 1575
3474, 6431, 1783, 1339
3475, 6986, 2408, 1577
3476, 6434, 1784, 1340
3477, 324, 2409, 325
3478, 1658, 2409, 1422
3479, 165, 2410, 166
3480, 1659, 2410, 1424
3481, 483, 2411, 484
3482, 1660, 2411, 1426
3483, 6, 2412, 7
3484, 1661, 2412, 1428
3485, 3466, 4656, 4657
3486, 4912, 4917, 4354
3487, 2414, 2428, 2430
3488, 6436, 2433, 2431
3489, 3563, 3562, 2996
3490, 4396, 4402, 4401
3491, 1986, 2875, 1848
3492, 4630, 3978, 3357
3493, 872, 873, 2567
3494, 3410, 2877, 2417
3495, 4643, 4645, 3416
3496, 7719, 7720, 3415
3497, 1731, 3412, 2879
3498, 2420, 2419, 1613
3499, 1613, 2421, 6439
3500, 1855, 2420, 1734
3501, 6989, 7718, 7719
3502, 4702, 1857, 3525
3503, 1856, 2972, 2882
3504, 2422, 3998, 3383
3505, 455, 454, 4040
3506, 5569, 2976, 2883
3507, 1104, 2424, 1103
3508, 3419, 3418, 1806
3509, 3418, 2424, 1806
3510, 3420, 3426, 2425
3511, 2427, 2426, 1814
3512, 940, 2426, 1868
3513, 2428, 1814, 1698
3514, 2431, 2427, 2414
3515, 2429, 5151, 5149
3516, 2414, 2427, 2428
3517, 1698, 1699, 5152
3518, 2155, 3427, 1970
3519, 1698, 2430, 2428
3520, 3429, 4044, 2886
3521, 2431, 2414, 6436
3522, 2434, 2431, 1615
3523, 2154, 2887, 2432
3524, 2430, 2432, 6436
3525, 2433, 6436, 2887
3526, 2893, 3545, 2892
3527, 2434, 1615, 3547
3528, 1868, 2426, 2435
3529, 2431, 2435, 2427
3530, 1868, 2435, 2434
3531, 3547, 3544, 3543
3532, 5234, 5236, 4683
3533, 1871, 2897, 2437
3534, 3927, 3435, 1683
3535, 2533, 2526, 2530
3536, 2442, 2439, 2440
3537, 2826, 2899, 3438
3538, 2440, 3437, 2438
3539, 1618, 2536, 2442
3540, 2439, 3436, 3437
3541, 2515, 2518, 2521
3542, 2443, 2441, 2445
3543, 1618, 2442, 2440
3544, 2443, 2442, 2441
3545, 2448, 2444, 2445
3546, 2443, 2366, 3438
3547, 2365, 3444, 3442
3548, 2443, 2445, 2366
3549, 2535, 2939, 2441
3550, 2445, 2444, 2447
3551, 2441, 2442, 2536
3552, 2601, 2603, 2072
3553, 3442, 3439, 2444
3554, 3159, 4325, 2702
3555, 2441, 2448, 2445
3556, 2448, 2446, 3445
3557, 2531, 2449, 2540
3558, 2516, 2518, 2515
3559, 1877, 2981, 2902
3560, 2450, 4021, 3395
3561, 1743, 1880, 2451
3562, 2452, 2451, 1880
3563, 3983, 2828, 3365
3564, 3365, 4055, 2452
3565, 2454, 1743, 2451
3566, 1743, 2454, 2453
3567, 4053, 2455, 2456
3568, 3494, 2956, 2954
3569, 2583, 3550, 6797
3570, 3506, 3502, 1878
3571, 4053, 4054, 3446
3572, 2954, 2956, 3495
3573, 3764, 4365, 3205
3574, 4029, 2927, 4030
3575, 1890, 2907, 2458
3576, 3371, 4620, 3370
3577, 3463, 2459, 1748
3578, 2460, 2459, 1623
3579, 3451, 3450, 2460
3580, 1894, 2462, 2910
3581, 3821, 4412, 3244
3582, 4035, 4034, 2928
3583, 2463, 2462, 1891
3584, 142, 2462, 1894
3585, 2459, 2463, 1891
3586, 2910, 2463, 2460
3587, 2911, 3453, 2464
3588, 2465, 145, 144
3589, 3461, 2465, 2464
3590, 1816, 145, 2465
3591, 1894, 2466, 143
3592, 2465, 2466, 2464
3593, 4078, 4081, 4080
3594, 1750, 2913, 2467
3595, 1898, 1831, 2468
3596, 3488, 2937, 4691
3597, 3913, 66, 65
3598, 2914, 2470, 1626
3599, 2469, 3305, 3912
3600, 4505, 2915, 3465
3601, 1907, 2137, 2472
3602, 2127, 1952, 2642
3603, 2012, 2127, 2472
3604, 2642, 2472, 2127
3605, 1756, 2473, 1037
3606, 2471, 2473, 1907
3607, 2475, 2474, 1050
3608, 2016, 2474, 1909
3609, 2917, 1051, 1052
3610, 1909, 2475, 2916
3611, 2917, 2475, 1051
3612, 2290, 2918, 2319
3613, 2478, 2477, 887
3614, 2019, 2477, 1911
3615, 3328, 888, 889
3616, 3327, 2371, 1911
3617, 2631, 2630, 1637
3618, 1198, 2479, 2484
3619, 2783, 2480, 2784
3620, 2781, 2783, 2786
3621, 6437, 1915, 1637
3622, 2481, 2480, 2483
3623, 2480, 2481, 2482
3624, 2481, 1915, 6437
3625, 2291, 2779, 2781
3626, 2291, 2778, 2779
3627, 2481, 2484, 2479
3628, 1197, 2484, 2483
3629, 1766, 2485, 1200
3630, 2479, 2485, 1915
3631, 2489, 1213, 1214
3632, 1793, 6273, 2488
3633, 2486, 2489, 2488
3634, 2840, 2841, 3368
3635, 2486, 1213, 2489
3636, 1793, 2488, 2487
3637, 6447, 1214, 1215
3638, 2921, 2489, 6447
3639, 2491, 2490, 724
3640, 2033, 2490, 1922
3641, 2923, 725, 726
3642, 1922, 2491, 2922
3643, 2923, 2491, 725
3644, 2292, 2924, 2344
3645, 1924, 2494, 2493
3646, 2495, 2494, 1950
3647, 2494, 1924, 6274
3648, 2495, 1950, 2069
3649, 2600, 2495, 2069
3650, 2925, 709, 710
3651, 1632, 1648, 2496
3652, 2496, 1648, 2404
3653, 2497, 2267, 2787
3654, 2497, 2787, 2785
3655, 3324, 3325, 2295
3656, 3927, 2898, 3435
3657, 1942, 2989, 2927
3658, 2499, 4029, 3404
3659, 1947, 2993, 2928
3660, 2500, 4034, 3408
3661, 1536, 3372, 3370
3662, 2800, 2802, 2306
3663, 3471, 2167, 3468
3664, 1825, 2502, 1706
3665, 2142, 3468, 2167
3666, 5246, 4106, 4108
3667, 1725, 3469, 1554
3668, 2975, 1706, 4104
3669, 2949, 1556, 2507
3670, 1827, 2505, 1707
3671, 2170, 3472, 3475
3672, 2515, 2544, 2516
3673, 1726, 3473, 1556
3674, 2546, 2545, 2506
3675, 2510, 2508, 1558
3676, 1829, 2508, 1708
3677, 2173, 3476, 3479
3678, 2553, 2555, 1843
3679, 1727, 3477, 1558
3680, 2959, 3509, 3510
3681, 4066, 1560, 2513
3682, 1830, 2511, 1709
3683, 2176, 3480, 3483
3684, 3521, 2561, 3520
3685, 1728, 3481, 1560
3686, 2513, 2512, 3484
3687, 2519, 2518, 2516
3688, 1842, 1977, 2514
3689, 2515, 2521, 2531
3690, 2516, 2948, 2514
3691, 2517, 6438, 2532
3692, 2543, 2544, 2515
3693, 2128, 2072, 2606
3694, 2518, 2517, 2522
3695, 2519, 2516, 1718
3696, 2522, 2521, 2518
3697, 6438, 1718, 2073
3698, 2517, 2518, 2519
3699, 2524, 2520, 2522
3700, 2520, 2527, 2525
3701, 2520, 2525, 2521
3702, 2521, 2525, 2531
3703, 2524, 2522, 2517
3704, 2520, 2521, 2522
3705, 2532, 2606, 2524
3706, 2535, 2441, 2536
3707, 2532, 2524, 2517
3708, 2524, 2523, 2534
3709, 2527, 2938, 2529
3710, 2531, 2525, 2449
3711, 2533, 1618, 2438
3712, 2940, 2533, 1741
3713, 2524, 2534, 2520
3714, 3489, 3490, 4084
3715, 3007, 2523, 2605
3716, 2529, 2530, 2526
3717, 2938, 2527, 2520
3718, 2530, 2529, 2528
3719, 2530, 2528, 2535
3720, 2530, 1618, 2533
3721, 2537, 2540, 2541
3722, 2542, 2531, 2540
3723, 2517, 2519, 6438
3724, 2532, 1841, 2606
3725, 2438, 1741, 2533
3726, 1741, 1875, 2940
3727, 3008, 2534, 2523
3728, 2528, 2529, 2938
3729, 2528, 2534, 3008
3730, 2448, 2939, 2446
3731, 1618, 2530, 2536
3732, 2535, 2536, 2530
3733, 2949, 2545, 2548
3734, 2546, 2542, 2545
3735, 2538, 2546, 2547
3736, 2945, 1978, 1842
3737, 2541, 3489, 2941
3738, 2526, 2539, 4084
3739, 2541, 2540, 2449
3740, 2542, 2540, 2537
3741, 2539, 2941, 3489
3742, 2941, 2539, 1876
3743, 2542, 2537, 2545
3744, 2542, 2538, 2543
3745, 2542, 2543, 2531
3746, 2543, 2538, 2544
3747, 2946, 2547, 2947
3748, 2544, 2945, 2948
3749, 2548, 2545, 2537
3750, 2507, 2506, 2545
3751, 2547, 2546, 2506
3752, 2542, 2546, 2538
3753, 6530, 2547, 2506
3754, 2950, 6799, 3493
3755, 2549, 2537, 2541
3756, 1707, 2505, 2949
3757, 2549, 2541, 2944
3758, 1707, 2548, 2549
3759, 2947, 1978, 2946
3760, 1978, 2947, 2550
3761, 2955, 1719, 3494
3762, 1843, 1980, 2551
3763, 4089, 3511, 3512
3764, 1981, 1843, 2555
3765, 1719, 2553, 2551
3766, 2556, 2555, 2553
3767, 2556, 3501, 2554
3768, 3515, 3516, 3514
3769, 2556, 2553, 2552
3770, 2555, 2554, 4090
3771, 2556, 2552, 3501
3772, 2554, 2555, 2556
3773, 3499, 3496, 2957
3774, 3509, 2510, 3478
3775, 3513, 3514, 2964
3776, 2964, 2963, 2558
3777, 3012, 3572, 2611
3778, 1847, 1984, 2559
3779, 4068, 4691, 2937
3780, 2560, 3520, 2561
3781, 3572, 2559, 1720
3782, 2965, 3487, 3485
3783, 2970, 3523, 3522
3784, 2970, 2969, 2562
3785, 2564, 2563, 1848
3786, 2565, 2563, 1409
3787, 2566, 2564, 1848
3788, 2568, 2564, 2269
3789, 2296, 2565, 1409
3790, 2971, 1511, 1724
3791, 3410, 2566, 1848
3792, 2567, 2417, 2876
3793, 2574, 2567, 873
3794, 2564, 2569, 2269
3795, 2570, 2568, 2269
3796, 2563, 2568, 1409
3797, 2566, 2569, 2564
3798, 2574, 2569, 2567
3799, 2570, 2269, 2572
3800, 1635, 2092, 2571
3801, 2281, 1456, 2573
3802, 1635, 2571, 2570
3803, 2574, 2572, 2269
3804, 875, 2575, 874
3805, 2570, 2573, 2568
3806, 2573, 2571, 2281
3807, 2574, 2269, 2569
3808, 873, 874, 2574
3809, 1764, 2575, 875
3810, 2574, 2575, 2572
3811, 1795, 2576, 1673
3812, 1850, 1987, 2576
3813, 1989, 2973, 2577
3814, 5198, 5197, 1857
3815, 2503, 4106, 2504
3816, 2881, 1733, 2880
3817, 5576, 2985, 2579
3818, 2977, 2579, 2985
3819, 3531, 1866, 3530
3820, 1737, 3575, 3576
3821, 4704, 4047, 4709
3822, 3539, 3532, 3534
3823, 1823, 2582, 1705
3824, 1873, 2001, 2582
3825, 2003, 2982, 2583
3826, 2583, 2982, 3550
3827, 1797, 2584, 1675
3828, 1888, 2005, 2584
3829, 1639, 2029, 2585
3830, 2287, 2585, 2029
3831, 2587, 2586, 1412
3832, 1918, 2586, 1768
3833, 1412, 2285, 2776
3834, 1768, 2587, 2394
3835, 1761, 2588, 1633
3836, 1925, 2588, 2039
3837, 1926, 2589, 1780
3838, 1761, 2589, 2041
3839, 459, 1993, 2590
3840, 2591, 1993, 1861
3841, 2591, 1861, 2593
3842, 2056, 2590, 2591
3843, 2977, 2985, 1861
3844, 6275, 6276, 2177
3845, 2593, 1861, 2985
3846, 2593, 2592, 6275
3847, 5569, 5226, 1735
3848, 2885, 3424, 6792
3849, 2986, 1966, 2153
3850, 1696, 2060, 2988
3851, 2991, 2062, 1266
3852, 3556, 3578, 2990
3853, 3461, 3453, 3456
3854, 1701, 2064, 2992
3855, 2995, 2066, 777
3856, 3561, 2598, 3559
3857, 2069, 2997, 2599
3858, 2628, 2161, 2627
3859, 2600, 709, 2925
3860, 2599, 2600, 2069
3861, 824, 3001, 823
3862, 2602, 2603, 2604
3863, 823, 3001, 2601
3864, 3440, 3441, 3442
3865, 2604, 2603, 2601
3866, 2605, 2603, 2602
3867, 3002, 824, 825
3868, 3006, 3004, 2901
3869, 3005, 2605, 2602
3870, 2606, 2523, 2524
3871, 2128, 2606, 1841
3872, 2523, 2606, 2605
3873, 661, 4149, 660
3874, 662, 3568, 661
3875, 2076, 2607, 2610
3876, 3570, 3568, 3009
3877, 3568, 3570, 4149
3878, 5463, 5714, 2608
3879, 3570, 2610, 2607
3880, 5851, 2610, 2609
3881, 2611, 1846, 4150
3882, 2561, 3012, 2560
3883, 4111, 2612, 1733
3884, 1992, 2612, 1858
3885, 6439, 1734, 2420
3886, 2081, 1860, 2613
3887, 1445, 396, 6269
3888, 2641, 2614, 1645
3889, 2616, 2615, 1640
3890, 2029, 2615, 1413
3891, 6273, 2616, 1640
3892, 1793, 1670, 2617
3893, 1413, 2617, 1462
3894, 1793, 2617, 2616
3895, 1642, 1775, 2618
3896, 2289, 1468, 2620
3897, 1416, 2096, 2619
3898, 2618, 2619, 2096
3899, 2618, 1775, 2620
3900, 1464, 2620, 1775
3901, 1938, 2621, 1809
3902, 2058, 2119, 2621
3903, 2085, 2622, 1401
3904, 2138, 3013, 2623
3905, 2275, 2623, 1404
3906, 1446, 2622, 2623
3907, 2625, 2624, 1904
3908, 2085, 2624, 2138
3909, 2009, 2625, 1904
3910, 1631, 2089, 3013
3911, 3419, 3422, 3424
3912, 3423, 4681, 4680
3913, 2599, 2627, 707
3914, 2640, 2627, 2161
3915, 2627, 2599, 2628
3916, 2997, 2628, 2599
3917, 1457, 2629, 2141
3918, 2629, 1410, 2630
3919, 1410, 2482, 2630
3920, 6437, 2630, 2482
3921, 1766, 2631, 1637
3922, 2093, 2631, 1914
3923, 2142, 2165, 2632
3924, 3017, 2165, 2100
3925, 2144, 2168, 2633
3926, 3019, 2168, 2104
3927, 2146, 2171, 2634
3928, 3021, 2171, 2108
3929, 2148, 2174, 2635
3930, 3023, 2174, 2112
3931, 3025, 3573, 3574
3932, 3575, 3538, 2888
3933, 2191, 2637, 1033
3934, 2646, 2637, 2181
3935, 2640, 2638, 705
3936, 2183, 2182, 6440
3937, 1626, 5242, 4065
3938, 704, 2639, 5881
3939, 2627, 2640, 706
3940, 2192, 2640, 2161
3941, 1402, 2641, 1645
3942, 1627, 2641, 2185
3943, 1035, 2642, 1034
3944, 2472, 2642, 2471
3945, 2185, 2643, 1627
3946, 1906, 2643, 2194
3947, 6934, 2457, 4662
3948, 2989, 4151, 1811
3949, 2646, 2645, 1031
3950, 2205, 2207, 6279
3951, 2637, 2646, 1032
3952, 6399, 2646, 2181
3953, 6328, 6316, 6320
3954, 3031, 6297, 6294
3955, 416, 415, 3580
3956, 6468, 6478, 6466
3957, 3581, 369, 368
3958, 7256, 7252, 7253
3959, 6076, 6042, 1006
3960, 6909, 4159, 3037
3961, 5605, 5782, 5783
3962, 4735, 5266, 4733
3963, 3039, 4719, 4720
3964, 1002, 3586, 1001
3965, 356, 3591, 357
3966, 4729, 4164, 3054
3967, 2212, 5262, 5592
3968, 996, 997, 3597
3969, 3593, 365, 364
3970, 2655, 6996, 3050
3971, 6084, 6087, 6082
3972, 2210, 6118, 6086
3973, 3047, 999, 3043
3974, 3044, 5594, 2654
3975, 4736, 3598, 3599
3976, 4731, 4732, 5257
3977, 4750, 5280, 5281
3978, 5277, 3380, 3381
3979, 348, 3607, 3058
3980, 346, 3608, 347
3981, 3605, 4742, 2661
3982, 3598, 4736, 3054
3983, 3066, 3062, 6534
3984, 6536, 6535, 6534
3985, 4756, 4754, 2663
3986, 4753, 5283, 4751
3987, 3624, 434, 433
3988, 3070, 3630, 3073
3989, 3627, 3628, 5621
3990, 2666, 4779, 4778
3991, 3629, 3626, 3073
3992, 436, 435, 3626
3993, 3633, 3634, 7000
3994, 4779, 5790, 4778
3995, 7001, 4770, 4771
3996, 3636, 3085, 3635
3997, 3082, 440, 3079
3998, 3645, 2669, 4216
3999, 3644, 3640, 3643
4000, 5289, 7000, 5288
4001, 4221, 4223, 4227
4002, 4229, 4233, 4237
4003, 2672, 3085, 3636
4004, 4209, 4208, 3089
4005, 4205, 4207, 2671
4006, 4213, 3086, 4785
4007, 3655, 1093, 1094
4008, 4783, 3653, 3091
4009, 4230, 4233, 4229
4010, 4648, 2848, 3386
4011, 3664, 3097, 1098
4012, 4651, 4649, 4003
4013, 4231, 4786, 4790
4014, 2674, 3091, 4239
4015, 3104, 3100, 3666
4016, 4247, 3667, 3666
4017, 4255, 4257, 4258
4018, 3671, 4256, 4259
4019, 3107, 3673, 3110
4020, 4268, 3108, 4266
4021, 3110, 5324, 2680
4022, 5315, 5648, 5316
4023, 4260, 5303, 3106
4024, 3113, 3116, 918
4025, 3678, 924, 925
4026, 4266, 3676, 4809
4027, 4828, 2688, 4826
4028, 5325, 3126, 5326
4029, 3124, 290, 289
4030, 3529, 2581, 4114
4031, 3685, 3126, 3684
4032, 4824, 2226, 3689
4033, 5327, 5655, 5328
4034, 3128, 4284, 2689
4035, 4825, 4826, 3691
4036, 6913, 4290, 4291
4037, 3687, 928, 929
4038, 4286, 3130, 3128
4039, 257, 256, 3693
4040, 2227, 6865, 7687
4041, 7076, 222, 221
4042, 3134, 5749, 5747
4043, 5352, 5809, 2692
4044, 3135, 3139, 211
4045, 3140, 3696, 3143
4046, 3143, 4311, 2693
4047, 3698, 3699, 3145
4048, 3699, 7082, 7083
4049, 6139, 6140, 6061
4050, 3702, 4302, 4304
4051, 3703, 201, 200
4052, 4297, 2695, 3146
4053, 3702, 4301, 3700
4054, 4310, 4311, 4308
4055, 838, 4832, 837
4056, 4292, 838, 839
4057, 6194, 6196, 6190
4058, 4300, 6914, 4322
4059, 3708, 197, 196
4060, 4319, 3155, 3153
4061, 3714, 195, 194
4062, 4860, 3718, 5361
4063, 190, 3720, 3158
4064, 3159, 3720, 3721
4065, 3723, 4325, 3159
4066, 3361, 4052, 2824
4067, 3717, 2704, 3716
4068, 3709, 4315, 4317
4069, 3164, 1159, 3167
4070, 3181, 1161, 3179
4071, 4888, 4890, 2705
4072, 5416, 5413, 5822
4073, 5388, 5396, 2707
4074, 3173, 4338, 2708
4075, 3173, 1155, 3733
4076, 3174, 3172, 4339
4077, 3734, 5390, 5394
4078, 5371, 2706, 4334
4079, 514, 513, 4335
4080, 4336, 2706, 5377
4081, 5379, 2710, 5380
4082, 2705, 3164, 3167
4083, 3186, 5688, 2712
4084, 3188, 1165, 1166
4085, 4896, 4349, 4350
4086, 4346, 518, 517
4087, 5819, 5920, 5693
4088, 3186, 2712, 3183
4089, 1168, 3193, 3195
4090, 6063, 3193, 6064
4091, 3752, 528, 527
4092, 7889, 7888, 7304
4093, 7789, 6010, 7785
4094, 7472, 7473, 6668
4095, 3753, 524, 523
4096, 6669, 6807, 7475
4097, 521, 3745, 3750
4098, 4900, 4902, 2719
4099, 609, 3758, 3202
4100, 3203, 3758, 3759
4101, 2720, 3203, 4355
4102, 3783, 3789, 3781
4103, 2722, 3757, 4911
4104, 4934, 4933, 4364
4105, 7306, 540, 539
4106, 7477, 3207, 3206
4107, 574, 3766, 3208
4108, 6672, 6673, 6674
4109, 3774, 1254, 1255
4110, 4370, 4373, 4368
4111, 3777, 3779, 2727
4112, 4359, 3756, 2720
4113, 2727, 3215, 3777
4114, 4375, 4374, 3216
4115, 2735, 5837, 5939
4116, 3234, 601, 600
4117, 3222, 3219, 3795
4118, 3219, 3222, 2729
4119, 5451, 4955, 5709
4120, 7492, 3796, 6678
4121, 5430, 5435, 4946
4122, 3231, 2732, 5838
4123, 597, 3225, 3228
4124, 5703, 5832, 5936
4125, 5838, 2732, 5840
4126, 5700, 5427, 5431
4127, 1252, 3770, 3773
4128, 3781, 3786, 3782
4129, 3783, 2243, 3785
4130, 3218, 2728, 3217
4131, 3807, 591, 590
4132, 3220, 3236, 4389
4133, 3238, 3239, 3809
4134, 1237, 1238, 8004
4135, 7307, 587, 586
4136, 6679, 6811, 7494
4137, 133, 3812, 3241
4138, 3242, 3812, 3813
4139, 2739, 3242, 4393
4140, 4983, 3252, 4434
4141, 2741, 3811, 4689
4142, 4411, 2909, 4963
4143, 3824, 665, 666
4144, 5028, 5025, 5027
4145, 5490, 5491, 5021
4146, 3827, 31, 3826
4147, 4969, 4419, 3832
4148, 3247, 3251, 4419
4149, 767, 768, 3819
4150, 4429, 4400, 4978
4151, 3843, 3845, 2747
4152, 3810, 4394, 2248
4153, 2747, 3256, 3843
4154, 4431, 3257, 2747
4155, 126, 3860, 3258
4156, 3860, 3861, 3259
4157, 3263, 3261, 3864
4158, 3262, 3864, 3865
4159, 4436, 4985, 3252
4160, 4986, 3258, 3259
4161, 5476, 4995, 4996
4162, 3274, 4455, 5006
4163, 3271, 3267, 3871
4164, 3268, 3871, 3872
4165, 7074, 5861, 5863
4166, 3873, 3274, 5011
4167, 5860, 5861, 5858
4168, 4999, 4446, 4997
4169, 3281, 3277, 3877
4170, 6681, 6680, 3877
4171, 751, 7095, 7086
4172, 3271, 2752, 3267
4173, 3881, 669, 670
4174, 4474, 4469, 3285
4175, 3886, 671, 672
4176, 5874, 5875, 5731
4177, 5019, 2254, 3883
4178, 3293, 3898, 4480
4179, 3891, 3892, 3289
4180, 3900, 3902, 4489
4181, 7036, 7035, 5488
4182, 3894, 4484, 4494
4183, 3898, 38, 37
4184, 4486, 3292, 3291
4185, 3901, 6823, 3900
4186, 6821, 6822, 6823
4187, 6831, 6832, 6827
4188, 3905, 4496, 4498
4189, 3894, 4483, 3893
4190, 4491, 2764, 3296
4191, 4501, 7867, 7866
4192, 3908, 6834, 6836
4193, 3905, 4495, 3903
4194, 3907, 2767, 6920
4195, 3908, 4503, 3906
4196, 7545, 6838, 6687
4197, 98, 97, 3910
4198, 6509, 6519, 6507
4199, 3914, 64, 63
4200, 3304, 4504, 3305
4201, 3312, 3313, 6694
4202, 3310, 3309, 3312
4203, 3314, 3309, 3315
4204, 2265, 2266, 2788
4205, 2788, 2266, 3310
4206, 2266, 1621, 3309
4207, 1675, 2584, 2265
4208, 2265, 2788, 2267
4209, 2623, 2775, 1446
4210, 400, 2775, 2275
4211, 2587, 2776, 1459
4212, 558, 2776, 2285
4213, 2287, 2777, 1460
4214, 561, 2777, 2286
4215, 2779, 2778, 1196
4216, 2789, 2782, 2291
4217, 1197, 2779, 1196
4218, 2779, 2483, 2781
4219, 2785, 2787, 2291
4220, 2267, 1675, 2265
4221, 2483, 2783, 2781
4222, 2784, 2786, 2783
4223, 2291, 2782, 2778
4224, 1194, 2782, 2780
4225, 2483, 2480, 2783
4226, 2920, 2784, 2480
4227, 2811, 2784, 2331
4228, 1493, 2785, 2786
4229, 2497, 2785, 1493
4230, 2291, 2781, 2785
4231, 1493, 2786, 2784
4232, 2781, 2786, 2785
4233, 2267, 2497, 1675
4234, 2782, 2789, 2780
4235, 2266, 2005, 1621
4236, 3919, 2780, 4551
4237, 2291, 2787, 2789
4238, 4551, 2787, 2788
4239, 3321, 890, 891
4240, 2792, 2790, 2293
4241, 3322, 891, 892
4242, 3925, 2498, 2926
4243, 2792, 2293, 3324
4244, 2478, 888, 3328
4245, 3321, 2790, 890
4246, 2793, 2791, 3926
4247, 2371, 2794, 1405
4248, 2357, 2794, 2295
4249, 3931, 3929, 3930
4250, 3330, 2795, 3331
4251, 3938, 3936, 3937
4252, 3333, 2796, 3334
4253, 3945, 3943, 3944
4254, 3336, 2797, 3337
4255, 3952, 3950, 3951
4256, 3339, 2798, 3340
4257, 3369, 2306, 2842
4258, 2305, 2921, 6447
4259, 3342, 1217, 1218
4260, 2799, 2800, 2306
4261, 3342, 3343, 2801
4262, 3957, 3344, 3956
4263, 3342, 2800, 1217
4264, 3371, 2802, 2801
4265, 1403, 2805, 1537
4266, 2803, 1630, 2016
4267, 2804, 2803, 2805
4268, 1403, 2015, 2804
4269, 3346, 2805, 2803
4270, 1537, 2805, 1448
4271, 2807, 2806, 1055
4272, 2808, 2806, 2315
4273, 1056, 2807, 1055
4274, 2807, 2329, 6416
4275, 2317, 2808, 2315
4276, 1054, 2808, 2319
4277, 2844, 2809, 1612
4278, 1852, 2809, 1730
4279, 6450, 6449, 6452
4280, 1060, 7278, 7282
4281, 2784, 2811, 1493
4282, 2812, 2811, 2331
4283, 2813, 2812, 2331
4284, 2812, 550, 549
4285, 2919, 2813, 2331
4286, 551, 2813, 1458
4287, 2815, 2814, 729
4288, 2816, 2814, 2340
4289, 730, 2815, 729
4290, 2815, 2354, 6418
4291, 2342, 2816, 2340
4292, 728, 2816, 2344
4293, 2858, 2817, 1625
4294, 1900, 2817, 1752
4295, 6491, 6490, 6493
4296, 734, 7295, 7299
4297, 2356, 2819, 1551
4298, 3325, 2357, 2295
4299, 2330, 3347, 6448
4300, 6532, 2844, 3376
4301, 3968, 3969, 3355
4302, 3323, 3322, 3924
4303, 4627, 3972, 3357
4304, 2363, 3977, 3975
4305, 867, 3973, 866
4306, 3975, 3977, 2823
4307, 3361, 826, 827
4308, 3441, 3004, 2365
4309, 829, 3724, 3726
4310, 3443, 5369, 5370
4311, 3362, 2899, 2826
4312, 6895, 3982, 2826
4313, 2444, 3439, 2447
4314, 3159, 2702, 3158
4315, 3985, 3366, 3984
4316, 2828, 3984, 3365
4317, 3174, 1152, 1153
4318, 2904, 5201, 4025
4319, 2355, 3350, 6489
4320, 6690, 2858, 3402
4321, 1632, 2831, 2370
4322, 1911, 2831, 2019
4323, 6904, 2832, 1385
4324, 2374, 6419, 2833
4325, 1504, 2833, 1799
4326, 1365, 2832, 2833
4327, 1386, 2952, 2951
4328, 2375, 6420, 2835
4329, 1505, 2835, 1800
4330, 1366, 2834, 2835
4331, 1387, 2962, 2961
4332, 2376, 6422, 2837
4333, 1506, 2837, 1801
4334, 1367, 2836, 2837
4335, 1388, 2968, 2967
4336, 2377, 6423, 2839
4337, 1507, 2839, 1802
4338, 1368, 2838, 2839
4339, 1721, 1461, 2840
4340, 2841, 2840, 1461
4341, 1793, 2841, 1461
4342, 2487, 2921, 3368
4343, 3369, 2842, 2305
4344, 2842, 2306, 3370
4345, 2380, 3373, 2843
4346, 3989, 3375, 3988
4347, 3353, 2844, 1612
4348, 3376, 2844, 2820
4349, 4038, 4672, 3414
4350, 3377, 3379, 987
4351, 990, 3996, 3380
4352, 3997, 3381, 3996
4353, 3382, 344, 3383
4354, 4180, 3610, 3608
4355, 452, 3386, 453
4356, 3386, 452, 4245
4357, 5574, 1614, 5763
4358, 3387, 2849, 5761
4359, 4004, 2850, 1616
4360, 2850, 4004, 4006
4361, 2387, 3391, 2851
4362, 4019, 3393, 4018
4363, 3394, 503, 3395
4364, 4026, 3396, 2852
4365, 5556, 4026, 2388
4366, 3737, 4878, 3175
4367, 2389, 3398, 2854
4368, 2854, 3398, 6693
4369, 4621, 3768, 2855
4370, 3767, 5423, 5422
4371, 1895, 3401, 24
4372, 5466, 3831, 3830
4373, 7063, 1750, 4695
4374, 2856, 2857, 2391
4375, 3367, 2858, 1625
4376, 3402, 2858, 2830
4377, 2395, 2859, 1411
4378, 2587, 2859, 2394
4379, 2394, 2860, 1768
4380, 1638, 2860, 2395
4381, 2396, 2861, 1774
4382, 2397, 1642, 2861
4383, 1772, 1641, 2862
4384, 2862, 1641, 2863
4385, 2865, 2863, 1641
4386, 2866, 2863, 2865
4387, 1775, 2864, 1414
4388, 2862, 2864, 2397
4389, 2867, 2865, 1641
4390, 1463, 2865, 1652
4391, 1487, 2866, 1463
4392, 1414, 2863, 2866
4393, 2867, 1641, 1773
4394, 2867, 1921, 2399
4395, 2869, 2868, 2339
4396, 2033, 2868, 2402
4397, 1465, 2869, 2334
4398, 2868, 2869, 2402
4399, 3403, 1262, 3404
4400, 4031, 3405, 2870
4401, 4916, 4920, 4354
4402, 4033, 5209, 3204
4403, 3407, 773, 3408
4404, 4036, 3409, 2872
4405, 5710, 5847, 5455
4406, 3817, 4960, 3243
4407, 2877, 870, 871
4408, 2874, 2416, 3972
4409, 4631, 1986, 1552
4410, 3411, 3410, 2875
4411, 2567, 2876, 872
4412, 2877, 2876, 2417
4413, 3410, 2417, 2566
4414, 2874, 870, 2877
4415, 3413, 3412, 1854
4416, 3415, 2879, 2878
4417, 1731, 2879, 2419
4418, 2878, 4037, 3415
4419, 6439, 2880, 2081
4420, 2881, 2880, 2421
4421, 7722, 7723, 6989
4422, 4700, 4107, 4698
4423, 2882, 4642, 3999
4424, 4647, 3383, 3998
4425, 2423, 3417, 2883
4426, 2384, 4676, 5570
4427, 2849, 2884, 1614
4428, 1736, 2425, 2884
4429, 2885, 3418, 3419
4430, 5764, 2425, 3426
4431, 2155, 3428, 3427
4432, 5539, 5145, 5147
4433, 2890, 2636, 3025
4434, 2891, 2892, 2889
4435, 2636, 2082, 3573
4436, 2887, 2892, 2433
4437, 2890, 2154, 2179
4438, 2891, 2889, 2888
4439, 2154, 2890, 2889
4440, 2179, 2636, 2890
4441, 3535, 2891, 3538
4442, 3531, 2580, 1866
4443, 2889, 2892, 2887
4444, 2892, 2891, 2893
4445, 3535, 3533, 3532
4446, 1738, 3543, 3546
4447, 2894, 3431, 3432
4448, 4046, 3433, 2894
4449, 2895, 4048, 4047
4450, 4050, 5237, 3127
4451, 2850, 2896, 1616
4452, 1739, 2437, 2896
4453, 1803, 2897, 1871
4454, 3435, 2897, 1683
4455, 1616, 2437, 2898
4456, 3435, 2898, 2437
4457, 3436, 2899, 184
4458, 2899, 2439, 3438
4459, 5367, 5369, 4330
4460, 3364, 2447, 4051
4461, 3006, 2446, 3005
4462, 3566, 2602, 2604
4463, 1742, 6794, 4056
4464, 4024, 3395, 4021
4465, 1844, 2903, 1719
4466, 1881, 2453, 2903
4467, 4653, 5553, 5203
4468, 1742, 4056, 2902
4469, 4933, 3449, 1886
4470, 4935, 4934, 2457
4471, 2855, 2906, 1622
4472, 1747, 2458, 2906
4473, 1819, 2907, 1890
4474, 3957, 2907, 1702
4475, 3451, 3457, 2908
4476, 1974, 3460, 3459
4477, 4963, 3464, 1893
4478, 3462, 4059, 4060
4479, 1894, 2910, 1749
4480, 2463, 2910, 2462
4481, 1749, 3455, 3453
4482, 2466, 2911, 2464
4483, 2468, 2912, 1751
4484, 4696, 2912, 1624
4485, 1895, 2913, 1750
4486, 1897, 2467, 2913
4487, 2157, 2914, 1626
4488, 1902, 2470, 2914
4489, 4505, 4506, 2915
4490, 5881, 5879, 5738
4491, 1909, 2916, 2314
4492, 2917, 2916, 2475
4493, 2918, 2917, 1052
4494, 2917, 2476, 2916
4495, 2917, 2918, 2476
4496, 1053, 2918, 1052
4497, 2813, 2919, 1458
4498, 2482, 2920, 2480
4499, 2919, 2331, 2920
4500, 2784, 2920, 2331
4501, 2921, 2305, 3368
4502, 2487, 2489, 2921
4503, 1922, 2922, 2339
4504, 2923, 2922, 2491
4505, 2924, 2923, 726
4506, 2923, 2492, 2922
4507, 2923, 2924, 2492
4508, 727, 2924, 726
4509, 2493, 2925, 710
4510, 2600, 2925, 2495
4511, 3926, 2293, 2793
4512, 3323, 2791, 3322
4513, 2927, 4656, 4030
4514, 4663, 3404, 4029
4515, 3564, 6897, 1818
4516, 4669, 3408, 4034
4517, 6899, 6902, 5247
4518, 3470, 2504, 2930
4519, 3471, 1516, 2167
4520, 2504, 3470, 2503
4521, 1679, 6420, 6421
4522, 3474, 2507, 2932
4523, 3475, 1518, 2170
4524, 2507, 3474, 2506
4525, 3514, 3519, 2964
4526, 3478, 2510, 2934
4527, 3479, 1520, 2173
4528, 3478, 2509, 3509
4529, 3522, 4095, 4099
4530, 3482, 2513, 2936
4531, 3483, 1522, 2176
4532, 2513, 3482, 2512
4533, 3484, 2512, 3485
4534, 2468, 1831, 4693
4535, 2520, 2534, 2938
4536, 2528, 2938, 2534
4537, 2441, 2939, 2448
4538, 3007, 2939, 2535
4539, 1876, 2539, 2940
4540, 2533, 2940, 2539
4541, 2942, 1876, 180
4542, 2942, 2943, 2941
4543, 2943, 2942, 179
4544, 1876, 2942, 2941
4545, 178, 2943, 179
4546, 2943, 1826, 2944
4547, 2549, 2944, 1826
4548, 2941, 2944, 2541
4549, 2948, 2945, 1842
4550, 2544, 2538, 2946
4551, 2544, 2946, 2945
4552, 2538, 2547, 2946
4553, 3491, 4085, 6530
4554, 2375, 2834, 2951
4555, 2514, 2948, 1842
4556, 2516, 2544, 2948
4557, 2545, 2949, 2507
4558, 1707, 2949, 2548
4559, 2947, 2950, 2953
4560, 2947, 2547, 4085
4561, 1386, 2951, 2834
4562, 3493, 2951, 2950
4563, 6257, 2952, 1386
4564, 1442, 2550, 2953
4565, 2950, 2952, 2953
4566, 1442, 2953, 2952
4567, 2956, 2453, 2454
4568, 2957, 2954, 3495
4569, 1719, 2955, 2553
4570, 3496, 2955, 2954
4571, 2456, 3495, 2454
4572, 2455, 4087, 3495
4573, 3550, 3502, 2984
4574, 2955, 3496, 2552
4575, 3498, 2552, 3496
4576, 3503, 3505, 1828
4577, 3511, 2959, 2557
4578, 2959, 3504, 4088
4579, 2558, 1981, 3513
4580, 4093, 4092, 4091
4581, 1387, 2961, 2836
4582, 4092, 2961, 2960
4583, 6258, 2962, 1387
4584, 1443, 2558, 2963
4585, 2960, 2962, 2963
4586, 1443, 2963, 2962
4587, 4090, 3513, 1981
4588, 2933, 3518, 3516
4589, 4099, 4095, 4096
4590, 1847, 2561, 3521
4591, 2562, 1985, 3523
4592, 4103, 4102, 4100
4593, 1388, 2967, 2838
4594, 4102, 2967, 2966
4595, 6259, 2968, 1388
4596, 1444, 2562, 2969
4597, 2966, 2968, 2969
4598, 1444, 2969, 2968
4599, 1985, 3521, 3522
4600, 4098, 3480, 2148
4601, 2563, 2971, 1986
4602, 1511, 2971, 2565
4603, 2882, 2972, 1732
4604, 1856, 2577, 2972
4605, 340, 2974, 1989
4606, 1857, 2577, 2973
4607, 2079, 2974, 339
4608, 3525, 2974, 1990
4609, 4104, 1706, 4105
4610, 3527, 2975, 2578
4611, 2883, 2976, 1862
4612, 1735, 2579, 2976
4613, 1993, 2977, 1861
4614, 1995, 2579, 2977
4615, 2978, 4122, 3529
4616, 4121, 4114, 3528
4617, 3125, 3123, 4277
4618, 5233, 6994, 6941
4619, 6940, 4119, 4120
4620, 3531, 3533, 1737
4621, 2902, 2981, 1742
4622, 1877, 2583, 2981
4623, 499, 2983, 2003
4624, 3550, 2982, 1878
4625, 2083, 2983, 498
4626, 3549, 2983, 2004
4627, 3502, 3506, 3508
4628, 4053, 6793, 2455
4629, 5576, 2579, 1735
4630, 2593, 2985, 2594
4631, 3551, 2986, 2153
4632, 4127, 5111, 5533
4633, 2201, 3026, 3029
4634, 4153, 2988, 3554
4635, 2060, 4125, 3553
4636, 3554, 2988, 2595
4637, 2927, 2989, 1811
4638, 1942, 2596, 2989
4639, 1810, 3556, 2990
4640, 4155, 3578, 4152
4641, 2991, 2990, 3555
4642, 1266, 1267, 2991
4643, 2064, 4131, 3557
4644, 4141, 4140, 2597
4645, 2928, 2993, 1818
4646, 1947, 2598, 2993
4647, 1817, 3560, 2994
4648, 3560, 1701, 3561
4649, 2995, 2994, 3559
4650, 777, 778, 2995
4651, 4140, 4142, 2992
4652, 3451, 2908, 3450
4653, 2998, 2997, 2069
4654, 2628, 2997, 2193
4655, 2068, 2998, 2069
4656, 1820, 2999, 2998
4657, 3000, 2999, 1820
4658, 2198, 2999, 1495
4659, 1949, 3000, 1820
4660, 3000, 1545, 6270
4661, 3002, 3001, 824
4662, 2601, 3001, 2604
4663, 825, 3003, 3002
4664, 3004, 3567, 4687
4665, 826, 3003, 825
4666, 3567, 3003, 2824
4667, 2604, 3002, 3004
4668, 3567, 3004, 3002
4669, 3006, 3005, 2602
4670, 3005, 2446, 3007
4671, 3006, 2602, 3566
4672, 3006, 2901, 3445
4673, 2939, 3007, 2446
4674, 3008, 2535, 2528
4675, 2523, 3007, 3008
4676, 2535, 3008, 3007
4677, 3822, 3569, 4147
4678, 3822, 663, 664
4679, 1845, 3010, 1720
4680, 2077, 2611, 3010
4681, 5851, 2076, 2610
4682, 5463, 5854, 4082
4683, 3572, 3012, 2561
4684, 4694, 4150, 4076
4685, 1404, 3013, 2089
4686, 2138, 2625, 3013
4687, 3015, 2151, 2177
4688, 3016, 3014, 2626
4689, 2150, 3015, 2177
4690, 2626, 3014, 3015
4691, 4680, 5229, 6790
4692, 3423, 4680, 3421
4693, 2043, 3017, 2100
4694, 2632, 2165, 3017
4695, 2043, 2098, 8128
4696, 1678, 2632, 3018
4697, 2045, 3019, 2104
4698, 2633, 2168, 3019
4699, 2045, 2102, 8135
4700, 1679, 2633, 3020
4701, 2047, 3021, 2108
4702, 2634, 2171, 3021
4703, 2047, 2106, 8142
4704, 1680, 2634, 3022
4705, 2049, 3023, 2112
4706, 2635, 2174, 3023
4707, 2049, 2110, 8149
4708, 1681, 2635, 3024
4709, 3025, 3574, 3575
4710, 2890, 3025, 2888
4711, 2195, 2203, 3027
4712, 4156, 3029, 2644
4713, 4936, 4659, 1620
4714, 2195, 3027, 3026
4715, 3577, 4156, 4157
4716, 4154, 4153, 3554
4717, 2644, 3029, 3026
4718, 3029, 3028, 4154
4719, 6321, 3030, 381
4720, 3031, 3030, 2647
4721, 6299, 6297, 6320
4722, 2358, 3373, 3374
4723, 3032, 416, 3580
4724, 6441, 3032, 2648
4725, 3033, 3580, 6531
4726, 6459, 6480, 6482
4727, 3034, 369, 3581
4728, 6442, 3034, 2649
4729, 3595, 3596, 4168
4730, 6086, 6118, 6122
4731, 1006, 6042, 1005
4732, 3036, 2650, 3037
4733, 6040, 6078, 2650
4734, 5777, 2652, 5775
4735, 4161, 362, 361
4736, 3049, 3594, 4733
4737, 359, 3587, 3590
4738, 4716, 3039, 4714
4739, 5774, 5597, 5773
4740, 5593, 2654, 5594
4741, 5264, 5261, 2653
4742, 360, 359, 3590
4743, 3592, 4165, 3598
4744, 5255, 5257, 4732
4745, 1001, 3044, 3046
4746, 3047, 2654, 3045
4747, 3043, 3046, 2654
4748, 3046, 3043, 1000
4749, 5596, 2654, 5593
4750, 2657, 3052, 3053
4751, 1001, 3046, 1000
4752, 2654, 3046, 3044
4753, 2654, 3047, 3043
4754, 3047, 3045, 3053
4755, 3048, 365, 3593
4756, 3050, 3048, 2655
4757, 4166, 364, 363
4758, 2651, 5783, 4734
4759, 5268, 5269, 6996
4760, 6120, 3035, 6121
4761, 4737, 4738, 4171
4762, 3051, 4737, 3601
4763, 3053, 3052, 998
4764, 3051, 3052, 2657
4765, 3053, 998, 999
4766, 2657, 3053, 3045
4767, 4169, 354, 353
4768, 3054, 4164, 3592
4769, 995, 996, 3601
4770, 4173, 3602, 3055
4771, 5271, 5607, 4742
4772, 5273, 3614, 3616
4773, 2660, 3604, 3057
4774, 3605, 4178, 3604
4775, 3607, 348, 347
4776, 3057, 3058, 2660
4777, 3384, 346, 345
4778, 3059, 3608, 3610
4779, 3606, 351, 350
4780, 3619, 3060, 4194
4781, 3065, 3064, 2662
4782, 3065, 2216, 4197
4783, 6534, 428, 427
4784, 3064, 3062, 2662
4785, 425, 6537, 6539
4786, 7427, 7428, 7426
4787, 6549, 6559, 6544
4788, 3064, 3061, 3620
4789, 6947, 6948, 4756
4790, 3061, 3064, 3065
4791, 6534, 3062, 428
4792, 6545, 3066, 3063
4793, 431, 430, 4198
4794, 4752, 4200, 4751
4795, 3068, 434, 3624
4796, 3070, 3068, 2664
4797, 433, 432, 4199
4798, 3069, 3625, 4751
4799, 3631, 6803, 5282
4800, 3629, 3075, 3072
4801, 4201, 1082, 1083
4802, 5634, 2665, 5628
4803, 437, 436, 3629
4804, 3077, 3072, 2666
4805, 3630, 3070, 6803
4806, 2666, 3072, 3075
4807, 4778, 4777, 3074
4808, 2668, 3079, 3080
4809, 3629, 3072, 437
4810, 3073, 3630, 3632
4811, 5624, 5293, 5626
4812, 5625, 5293, 5624
4813, 3077, 2666, 4778
4814, 438, 3077, 3074
4815, 4203, 1085, 1086
4816, 3628, 4202, 5285
4817, 3080, 3079, 439
4818, 3082, 2668, 3081
4819, 438, 3080, 439
4820, 2668, 3080, 3074
4821, 4767, 3642, 5290
4822, 2669, 3083, 3084
4823, 2668, 3082, 3079
4824, 3082, 3081, 3084
4825, 3084, 3083, 441
4826, 2669, 3635, 3085
4827, 3084, 441, 440
4828, 2669, 3084, 3081
4829, 3088, 3085, 2672
4830, 442, 3646, 443
4831, 4217, 1088, 1089
4832, 4204, 5288, 3634
4833, 3088, 3089, 3651
4834, 3650, 3649, 4780
4835, 3088, 443, 3646
4836, 3089, 3088, 2672
4837, 3638, 4208, 4209
4838, 3089, 3087, 3649
4839, 1091, 1092, 3653
4840, 3654, 3090, 4220
4841, 3091, 1093, 3655
4842, 3091, 2674, 4783
4843, 3663, 3662, 4241
4844, 4238, 3656, 2220
4845, 3658, 449, 448
4846, 3659, 3657, 4798
4847, 3650, 447, 446
4848, 4793, 8154, 4236
4849, 5642, 5295, 5216
4850, 4673, 2848, 4674
4851, 2676, 3661, 3096
4852, 3662, 4246, 3661
4853, 3664, 1098, 1099
4854, 3096, 3097, 2676
4855, 2385, 4001, 1100
4856, 4002, 4003, 4649
4857, 3103, 3102, 2678
4858, 6092, 4250, 3103
4859, 3666, 271, 270
4860, 3102, 3100, 2678
4861, 4801, 269, 7100
4862, 3667, 5297, 3101
4863, 6052, 7121, 7119
4864, 3102, 3099, 3665
4865, 4258, 2679, 4803
4866, 3099, 3102, 3103
4867, 3666, 3100, 271
4868, 6053, 3104, 3101
4869, 274, 273, 4251
4870, 4254, 3671, 3105
4871, 4260, 4256, 4257
4872, 4804, 4805, 5991
4873, 3673, 921, 922
4874, 5318, 2680, 5324
4875, 3677, 922, 923
4876, 3117, 4265, 3118
4877, 3114, 2682, 3113
4878, 3109, 3114, 920
4879, 3673, 3107, 921
4880, 4268, 3110, 3108
4881, 5318, 3111, 2680
4882, 920, 3111, 3109
4883, 4262, 4263, 4808
4884, 6957, 4811, 3675
4885, 3114, 3113, 919
4886, 3116, 3113, 6581
4887, 920, 3114, 919
4888, 2682, 3114, 3109
4889, 5319, 2223, 5322
4890, 4255, 5301, 5302
4891, 6581, 3113, 2682
4892, 3116, 3115, 6567
4893, 3117, 924, 3678
4894, 3117, 2683, 4265
4895, 4265, 6805, 3676
4896, 3108, 3673, 3118
4897, 3690, 3692, 4289
4898, 2683, 3119, 6913
4899, 4269, 283, 282
4900, 3681, 3679, 4816
4901, 4264, 281, 280
4902, 5312, 4812, 5314
4903, 5806, 5910, 5911
4904, 5325, 4276, 4817
4905, 3124, 3123, 290
4906, 3123, 2685, 4277
4907, 289, 288, 4817
4908, 3682, 5886, 4274
4909, 4274, 3683, 4277
4910, 292, 3125, 4818
4911, 3685, 287, 286
4912, 3126, 3685, 4821
4913, 932, 4049, 4050
4914, 4283, 3689, 2226
4915, 3128, 928, 3687
4916, 3128, 2689, 4286
4917, 3688, 929, 930
4918, 4822, 3688, 3686
4919, 4283, 3691, 4286
4920, 4288, 4290, 3692
4921, 3131, 257, 3693
4922, 4015, 2690, 4014
4923, 4016, 2386, 3389
4924, 4009, 2362, 4008
4925, 222, 7076, 5883
4926, 3134, 3133, 2691
4927, 5750, 5746, 5749
4928, 2364, 3391, 3392
4929, 210, 209, 3695
4930, 7107, 3139, 2692
4931, 2692, 3135, 3138
4932, 3695, 3138, 3135
4933, 2229, 4837, 5659
4934, 6651, 6637, 6638
4935, 3695, 3135, 210
4936, 5352, 3138, 3136
4937, 2692, 3139, 3135
4938, 3139, 3137, 6585
4939, 3696, 208, 207
4940, 3142, 3140, 2693
4941, 3705, 207, 206
4942, 3149, 4307, 3150
4943, 5352, 2693, 5351
4944, 3142, 3136, 3695
4945, 3696, 3140, 208
4946, 3141, 4308, 4311
4947, 3144, 4830, 4831
4948, 4833, 6960, 6961
4949, 4295, 841, 842
4950, 4830, 3144, 3697
4951, 203, 202, 4296
4952, 4302, 3702, 3146
4953, 3147, 201, 3703
4954, 3701, 3147, 2696
4955, 3711, 3713, 4320
4956, 4299, 2696, 6914
4957, 3149, 205, 4301
4958, 3149, 2697, 4307
4959, 4306, 3704, 4307
4960, 3141, 3696, 3150
4961, 3151, 4839, 4840
4962, 3719, 3717, 2233
4963, 4294, 4832, 4292
4964, 4839, 3151, 3706
4965, 3153, 197, 3708
4966, 3153, 2700, 4319
4967, 3709, 196, 195
4968, 6806, 3710, 2232
4969, 6806, 3712, 4319
4970, 4321, 4322, 3713
4971, 3728, 3162, 3163
4972, 4855, 3163, 4857
4973, 3716, 3157, 2702
4974, 3162, 3157, 2704
4975, 3720, 190, 189
4976, 3157, 3158, 2702
4977, 3721, 189, 188
4978, 3159, 3721, 3723
4979, 4327, 830, 831
4980, 4866, 3726, 3724
4981, 4332, 832, 833
4982, 5359, 5667, 4850
4983, 3162, 192, 3715
4984, 3163, 3162, 2704
4985, 3719, 4856, 4857
4986, 3163, 3156, 3714
4987, 1160, 3743, 3167
4988, 3166, 3164, 2705
4989, 3743, 1161, 3181
4990, 3181, 4885, 4886
4991, 5385, 2705, 4890
4992, 3166, 2707, 3169
4993, 1160, 3167, 1159
4994, 2705, 3167, 3165
4995, 4333, 512, 511
4996, 3732, 3730, 4873
4997, 3169, 1157, 3729
4998, 2707, 3170, 3171
4999, 4340, 4338, 2235
5000, 3173, 3172, 1154
5001, 2707, 3171, 3169
5002, 3171, 3170, 3733
5003, 1154, 1155, 3173
5004, 3172, 2708, 4339
5005, 4338, 3173, 5393
5006, 2708, 3172, 3173
5007, 4339, 4340, 3735
5008, 3986, 2829, 3366
5009, 507, 4027, 3737
5010, 3738, 3736, 4879
5011, 5372, 5375, 4872
5012, 3168, 3730, 4870
5013, 3177, 4883, 4884
5014, 2713, 3749, 4351
5015, 514, 4335, 4337
5016, 4883, 3177, 3739
5017, 3741, 1162, 1163
5018, 3181, 3179, 2711
5019, 2711, 3179, 3182
5020, 3741, 3182, 3179
5021, 4885, 3181, 2711
5022, 3181, 3165, 3743
5023, 3741, 3179, 1162
5024, 5409, 3182, 3180
5025, 3744, 1164, 1165
5026, 3185, 3183, 2712
5027, 3183, 3744, 3186
5028, 3744, 3188, 3190
5029, 3185, 2712, 5411
5030, 3185, 3180, 3741
5031, 3744, 3183, 1164
5032, 3186, 3184, 5687
5033, 4903, 3187, 4909
5034, 522, 521, 3750
5035, 1166, 1167, 3751
5036, 3188, 3191, 3190
5037, 3188, 3751, 3191
5038, 3751, 3192, 3194
5039, 2714, 5919, 5687
5040, 3190, 3184, 3744
5041, 3751, 3188, 1166
5042, 3189, 5922, 5923
5043, 1168, 1169, 6107
5044, 3194, 3192, 2715
5045, 6064, 6108, 6142
5046, 4907, 2719, 4905
5047, 5922, 3194, 2715
5048, 3194, 3189, 3751
5049, 1168, 3195, 3192
5050, 5924, 3195, 3193
5051, 3196, 528, 3752
5052, 3196, 2716, 7888
5053, 3754, 3755, 4353
5054, 7472, 6668, 2238
5055, 3198, 524, 3753
5056, 3198, 2718, 7475
5057, 4898, 4899, 4352
5058, 4907, 4908, 2719
5059, 6967, 6669, 7475
5060, 6807, 6808, 3755
5061, 2720, 3756, 3201
5062, 3757, 4362, 3756
5063, 3758, 609, 608
5064, 3201, 3202, 2720
5065, 3759, 608, 607
5066, 4358, 4355, 4923
5067, 1258, 4032, 4033
5068, 4927, 4929, 3212
5069, 612, 611, 3763
5070, 3764, 3205, 2722
5071, 3206, 540, 7306
5072, 3206, 2723, 7477
5073, 7477, 7478, 6670
5074, 2368, 3398, 3399
5075, 574, 573, 3766
5076, 3208, 2724, 6673
5077, 3767, 2390, 2855
5078, 3208, 3209, 5422
5079, 6013, 5927, 5926
5080, 6676, 7488, 3210
5081, 2725, 3786, 4376
5082, 1251, 1252, 3773
5083, 1256, 4360, 1255
5084, 3761, 4924, 3762
5085, 3214, 3216, 3793
5086, 4355, 4358, 3760
5087, 3792, 604, 603
5088, 3216, 3214, 2727
5089, 3792, 3214, 604
5090, 3215, 3792, 3217
5091, 3779, 4374, 4375
5092, 3216, 3213, 3775
5093, 3794, 602, 601
5094, 3215, 3217, 2728
5095, 3794, 3217, 602
5096, 3218, 3794, 3234
5097, 3795, 594, 593
5098, 3223, 3219, 2729
5099, 3806, 593, 592
5100, 3235, 4388, 3236
5101, 5452, 3223, 2729
5102, 2731, 3225, 3226
5103, 3795, 3219, 594
5104, 3222, 3220, 4956
5105, 5452, 2729, 5451
5106, 595, 3223, 3221
5107, 4379, 1245, 1246
5108, 5698, 2730, 5830
5109, 3226, 3225, 596
5110, 3228, 3225, 2731
5111, 595, 3226, 596
5112, 2731, 3226, 3221
5113, 2731, 5936, 5832
5114, 2732, 3229, 3230
5115, 5842, 2731, 5832
5116, 597, 3228, 3227
5117, 3230, 3229, 598
5118, 5841, 5832, 5940
5119, 597, 3230, 598
5120, 2732, 3230, 3227
5121, 3234, 3231, 2735
5122, 599, 3798, 600
5123, 4381, 1248, 1249
5124, 4380, 5427, 3797
5125, 4953, 4951, 4384
5126, 3800, 3232, 3799
5127, 3234, 600, 3798
5128, 3234, 2735, 5938
5129, 3235, 591, 3807
5130, 3235, 2736, 4388
5131, 4388, 6809, 3805
5132, 3220, 3795, 3236
5133, 4392, 590, 589
5134, 7496, 7756, 7497
5135, 3238, 587, 7307
5136, 3238, 2738, 7494
5137, 7494, 7495, 6679
5138, 6811, 6812, 3808
5139, 2739, 3810, 3240
5140, 3811, 4409, 3810
5141, 3812, 133, 132
5142, 3240, 3241, 2739
5143, 3813, 132, 131
5144, 3816, 3242, 3813
5145, 769, 770, 3818
5146, 4974, 3253, 3839
5147, 136, 135, 3820
5148, 3821, 3244, 2741
5149, 4415, 4414, 2742
5150, 3245, 4414, 4966
5151, 3825, 667, 3884
5152, 667, 668, 3884
5153, 3249, 3251, 3838
5154, 3827, 3826, 4968
5155, 5023, 5026, 4423
5156, 3888, 5031, 3287
5157, 3828, 28, 27
5158, 3251, 3249, 2744
5159, 26, 3829, 27
5160, 3831, 2249, 3833
5161, 3251, 2744, 4420
5162, 3251, 3247, 3826
5163, 3847, 3852, 3848
5164, 3261, 3263, 2749
5165, 4424, 3819, 3840
5166, 4977, 3841, 3839
5167, 129, 3255, 3257
5168, 3816, 3254, 3815
5169, 3858, 128, 127
5170, 3257, 3255, 2747
5171, 3858, 3255, 128
5172, 3256, 3858, 3258
5173, 2747, 3845, 4431
5174, 3859, 3257, 3254
5175, 3860, 126, 125
5176, 3256, 3258, 2748
5177, 3861, 125, 124
5178, 3853, 4437, 3850
5179, 5855, 5723, 2251
5180, 3260, 4988, 3863
5181, 3864, 762, 763
5182, 3260, 3261, 2749
5183, 3865, 763, 764
5184, 3262, 4442, 4443
5185, 3864, 3261, 762
5186, 5856, 3262, 4443
5187, 4444, 123, 122
5188, 4998, 5478, 4997
5189, 4438, 759, 760
5190, 2751, 4448, 3265
5191, 3270, 3269, 2752
5192, 3270, 2252, 3273
5193, 3871, 117, 116
5194, 3269, 3267, 2752
5195, 3871, 4456, 3872
5196, 3268, 3872, 5012
5197, 7072, 5864, 3270
5198, 3269, 3266, 3870
5199, 5485, 4449, 4454
5200, 3266, 3269, 3270
5201, 3871, 3267, 117
5202, 7071, 3271, 3268
5203, 4460, 3275, 3875
5204, 3273, 4459, 3270
5205, 2252, 5860, 5002
5206, 3273, 3272, 4459
5207, 757, 4447, 4455
5208, 5008, 5010, 3274
5209, 119, 4458, 120
5210, 4446, 5476, 4997
5211, 3280, 3279, 2755
5212, 3280, 2253, 4461
5213, 3877, 111, 110
5214, 3279, 3277, 2755
5215, 6684, 6680, 6681
5216, 7775, 7540, 748
5217, 7517, 2755, 7518
5218, 3279, 3276, 3876
5219, 6814, 3878, 4461
5220, 3276, 3279, 3280
5221, 3877, 3277, 111
5222, 3281, 3278, 7520
5223, 114, 113, 4462
5224, 5013, 5012, 3872
5225, 3283, 669, 3881
5226, 3283, 2757, 4474
5227, 3882, 670, 671
5228, 4466, 3883, 2254
5229, 4466, 3885, 4474
5230, 3825, 3824, 666
5231, 4475, 672, 673
5232, 3887, 5014, 3286
5233, 34, 33, 3889
5234, 3890, 3888, 5032
5235, 5018, 5730, 5866
5236, 2762, 3291, 4487
5237, 4481, 674, 675
5238, 4464, 3286, 5014
5239, 40, 39, 3897
5240, 4484, 3894, 3290
5241, 3291, 38, 3898
5242, 3291, 2762, 4486
5243, 6820, 3895, 4486
5244, 3893, 3897, 3290
5245, 36, 4478, 4480
5246, 3899, 2255, 6820
5247, 3294, 5036, 5037
5248, 5017, 6973, 5038
5249, 4488, 678, 679
5250, 7667, 5036, 3902
5251, 44, 43, 4490
5252, 4496, 3905, 3296
5253, 3297, 42, 4483
5254, 3904, 3297, 2765
5255, 48, 47, 4502
5256, 6834, 3908, 3298
5257, 3299, 46, 4495
5258, 3907, 3299, 2767
5259, 3300, 50, 4503
5260, 3300, 2768, 7545
5261, 7572, 6413, 7568
5262, 6688, 7547, 3909
5263, 3302, 98, 3910
5264, 6446, 3302, 2769
5265, 3303, 3910, 6689
5266, 6500, 6521, 6523
5267, 3304, 64, 3914
5268, 3304, 2770, 4504
5269, 6839, 3911, 4504
5270, 2469, 66, 3913
5271, 62, 7627, 63
5272, 6149, 7158, 7163
5273, 6693, 3315, 2854
5274, 3312, 3309, 3307
5275, 3309, 3310, 2266
5276, 4551, 3308, 3919
5277, 7480, 7485, 6670
5278, 3922, 3920, 3921
5279, 3920, 3313, 3307
5280, 3310, 3312, 3308
5281, 1192, 3923, 3313
5282, 3923, 2268, 6694
5283, 3315, 3309, 1621
5284, 3314, 3311, 3317
5285, 2854, 3315, 1621
5286, 3311, 3314, 3315
5287, 3317, 3319, 3316
5288, 3922, 1190, 1191
5289, 7486, 3319, 3311
5290, 3317, 3316, 3921
5291, 3311, 6693, 7486
5292, 6695, 6697, 6700
5293, 3311, 3319, 3317
5294, 8153, 3318, 3320
5295, 7484, 7482, 6698
5296, 1190, 8152, 6697
5297, 3322, 3321, 891
5298, 2793, 3321, 2791
5299, 3354, 3322, 892
5300, 3924, 2361, 3323
5301, 4552, 2898, 3927
5302, 3323, 3925, 3926
5303, 3325, 2293, 2926
5304, 3326, 3324, 2295
5305, 2293, 3325, 3324
5306, 2926, 1509, 3325
5307, 2794, 3326, 2295
5308, 3326, 2371, 3327
5309, 2478, 3327, 1911
5310, 3327, 2792, 3324
5311, 2790, 3328, 889
5312, 2478, 3328, 2792
5313, 3329, 1417, 3931
5314, 3329, 2795, 3330
5315, 3331, 2795, 3928
5316, 1361, 3330, 3934
5317, 3932, 4556, 4559
5318, 1381, 1361, 3934
5319, 3332, 1418, 3938
5320, 3332, 2796, 3333
5321, 3334, 2796, 3935
5322, 1362, 3333, 3941
5323, 3939, 4573, 4576
5324, 1382, 1362, 3941
5325, 3335, 1419, 3945
5326, 3335, 2797, 3336
5327, 3337, 2797, 3942
5328, 1363, 3336, 3948
5329, 3946, 4590, 4593
5330, 1383, 1363, 3948
5331, 3338, 1420, 3952
5332, 3338, 2798, 3339
5333, 3340, 2798, 3949
5334, 1364, 3339, 3955
5335, 3953, 4606, 4609
5336, 1384, 1364, 3955
5337, 2800, 3341, 1216
5338, 6447, 3341, 2799
5339, 3343, 3342, 1218
5340, 2802, 3342, 2801
5341, 6933, 4623, 1219
5342, 3962, 5187, 4622
5343, 2458, 3957, 3956
5344, 3343, 3961, 2801
5345, 3346, 3345, 2309
5346, 1909, 3345, 2803
5347, 2311, 3346, 2309
5348, 2805, 3346, 1448
5349, 2327, 6415, 3348
5350, 6448, 3347, 2810
5351, 1058, 3348, 1057
5352, 2810, 3347, 3348
5353, 6456, 1058, 1059
5354, 2810, 3348, 3349
5355, 2352, 6417, 3351
5356, 6489, 3350, 2818
5357, 732, 3351, 731
5358, 2818, 3350, 3351
5359, 6497, 732, 733
5360, 2818, 3351, 3352
5361, 6448, 3353, 2330
5362, 2844, 3353, 2820
5363, 892, 893, 3354
5364, 3968, 3354, 893
5365, 6841, 4626, 895
5366, 3965, 3967, 3963
5367, 867, 868, 3356
5368, 3971, 3356, 868
5369, 3974, 3970, 2363
5370, 2822, 3356, 3971
5371, 3975, 3358, 3974
5372, 2851, 4018, 1617
5373, 3978, 2363, 3970
5374, 2416, 2875, 3979
5375, 2001, 2823, 3360
5376, 3360, 2823, 3977
5377, 4331, 827, 828
5378, 5369, 4686, 2825
5379, 2899, 3362, 185
5380, 3363, 3362, 2826
5381, 6895, 3364, 3982
5382, 4324, 3722, 2827
5383, 2447, 3439, 4051
5384, 3982, 3364, 2827
5385, 4055, 3365, 2367
5386, 3983, 2452, 1880
5387, 2828, 1150, 3985
5388, 5552, 5205, 5204
5389, 6489, 3367, 2355
5390, 2858, 3367, 2830
5391, 2840, 3368, 2379
5392, 3368, 2841, 2487
5393, 6447, 3369, 2305
5394, 2306, 3369, 2799
5395, 2306, 2802, 3371
5396, 1536, 3370, 2501
5397, 2306, 3371, 3370
5398, 3961, 3371, 2801
5399, 2378, 3372, 1536
5400, 2379, 2842, 3372
5401, 384, 3987, 2380
5402, 3989, 3373, 2358
5403, 3373, 2380, 3987
5404, 3579, 3374, 383
5405, 6293, 6295, 6291
5406, 6280, 6282, 6277
5407, 3376, 2820, 6457
5408, 6533, 6532, 2359
5409, 3994, 988, 989
5410, 3379, 3377, 2845
5411, 2845, 3377, 3378
5412, 3377, 988, 3994
5413, 3412, 3413, 2878
5414, 3379, 1854, 3995
5415, 3996, 990, 991
5416, 3378, 3380, 2846
5417, 3997, 991, 992
5418, 4193, 4748, 5279
5419, 344, 343, 3383
5420, 3384, 3382, 2847
5421, 3998, 2422, 2882
5422, 2847, 3382, 3383
5423, 4181, 2383, 3611
5424, 3608, 3059, 3607
5425, 3386, 3385, 453
5426, 4040, 3385, 2848
5427, 4245, 452, 451
5428, 4800, 4000, 4648
5429, 3387, 4002, 4001
5430, 2385, 2849, 3387
5431, 3967, 1616, 2898
5432, 6840, 6844, 6841
5433, 4009, 4010, 2362
5434, 2386, 2850, 3389
5435, 4016, 3132, 3693
5436, 255, 4016, 256
5437, 225, 4017, 2387
5438, 4019, 3391, 2364
5439, 3391, 2387, 4017
5440, 3694, 3392, 224
5441, 5745, 5748, 5549
5442, 5191, 5546, 5190
5443, 503, 502, 3395
5444, 3396, 3394, 2852
5445, 4021, 2450, 2902
5446, 2852, 3394, 3395
5447, 4026, 2852, 4654
5448, 506, 505, 5207
5449, 4878, 7064, 4880
5450, 3737, 3736, 508
5451, 543, 4028, 2389
5452, 6693, 3398, 2368
5453, 3398, 2389, 4028
5454, 3765, 3399, 542
5455, 3956, 3959, 1622
5456, 3400, 5696, 5418
5457, 24, 3401, 25
5458, 2857, 2856, 3401
5459, 3402, 2830, 6498
5460, 6691, 6690, 2369
5461, 1262, 1263, 3404
5462, 3405, 3403, 2870
5463, 4029, 2499, 2927
5464, 2870, 3403, 3404
5465, 4031, 2870, 4664
5466, 1259, 1260, 5208
5467, 5209, 5211, 4925
5468, 1258, 4033, 1257
5469, 773, 774, 3408
5470, 3409, 3407, 2872
5471, 4034, 2500, 2928
5472, 2872, 3407, 3408
5473, 4036, 2872, 4670
5474, 4958, 4406, 4671
5475, 1848, 2875, 3410
5476, 3411, 2875, 2416
5477, 2874, 3411, 2416
5478, 2877, 3410, 3411
5479, 3413, 1854, 3379
5480, 2879, 3412, 2878
5481, 2845, 4038, 3379
5482, 4037, 3414, 2418
5483, 3413, 4038, 3414
5484, 3992, 3993, 4672
5485, 4645, 4646, 4640
5486, 4640, 4646, 2418
5487, 4642, 4643, 3416
5488, 3414, 4638, 2418
5489, 455, 4040, 2423
5490, 2384, 2883, 3417
5491, 3419, 1806, 1693
5492, 3420, 3418, 2885
5493, 1693, 3422, 3419
5494, 2885, 3419, 3424
5495, 2885, 6792, 3426
5496, 3420, 2425, 1864
5497, 1693, 3423, 3422
5498, 6788, 2150, 6789
5499, 1693, 1694, 3423
5500, 3422, 3421, 3424
5501, 3423, 1528, 4681
5502, 3421, 3422, 3423
5503, 6788, 3424, 3421
5504, 5885, 5575, 5965
5505, 5766, 5965, 3425
5506, 5575, 2594, 5768
5507, 2885, 3426, 3420
5508, 3425, 5763, 5764
5509, 3428, 2155, 2179
5510, 5147, 2886, 4044
5511, 3429, 2179, 2154
5512, 2886, 3427, 3428
5513, 2432, 4044, 2154
5514, 2429, 4044, 2432
5515, 3540, 3537, 3532
5516, 4045, 3546, 3548
5517, 3432, 3431, 936
5518, 3433, 3431, 2894
5519, 937, 3432, 936
5520, 1738, 3546, 1869
5521, 4046, 2894, 2436
5522, 933, 934, 4682
5523, 5237, 5239, 6912
5524, 932, 4050, 931
5525, 2897, 3435, 2437
5526, 3927, 1683, 2498
5527, 183, 3436, 184
5528, 3436, 1874, 3437
5529, 2438, 3437, 1874
5530, 2439, 3437, 2440
5531, 2443, 3438, 2439
5532, 6895, 3438, 2366
5533, 3440, 3442, 2444
5534, 5671, 4684, 2900
5535, 3445, 3440, 2448
5536, 3441, 3440, 2901
5537, 3004, 3441, 2901
5538, 2365, 3442, 3441
5539, 4052, 2365, 4687
5540, 2900, 3439, 3442
5541, 4686, 5369, 3443
5542, 3442, 3444, 2900
5543, 4052, 3444, 2365
5544, 2900, 3444, 3443
5545, 3006, 3445, 2446
5546, 3440, 3445, 2901
5547, 4054, 2456, 1619
5548, 3448, 4056, 6794
5549, 3447, 5204, 5202
5550, 6798, 2904, 3446
5551, 4024, 4023, 2388
5552, 2902, 4022, 4021
5553, 4933, 1886, 3764
5554, 2905, 4935, 4937
5555, 3451, 2460, 1623
5556, 2908, 4146, 3455
5557, 3458, 3451, 1623
5558, 3458, 3457, 3451
5559, 2908, 4145, 4146
5560, 1974, 5185, 3460
5561, 1749, 3453, 2911
5562, 3456, 3453, 3452
5563, 3458, 3462, 3454
5564, 3467, 4035, 6897
5565, 2908, 3455, 3450
5566, 3453, 3455, 3452
5567, 3456, 3452, 3459
5568, 3456, 1700, 3461
5569, 3454, 4057, 3457
5570, 3561, 1701, 4144
5571, 3462, 3458, 1623
5572, 3457, 3458, 3454
5573, 3558, 4146, 4145
5574, 3459, 4141, 4058
5575, 1700, 3456, 3460
5576, 3459, 3460, 3456
5577, 1971, 3461, 1700
5578, 2465, 3461, 1816
5579, 1623, 2459, 3463
5580, 3462, 2909, 4059
5581, 3463, 1748, 3464
5582, 1623, 3463, 3462
5583, 4963, 1893, 3821
5584, 3463, 3464, 2909
5585, 2469, 3912, 2470
5586, 3465, 2915, 4690
5587, 4151, 4157, 1811
5588, 3466, 4662, 4661
5589, 3565, 6897, 3564
5590, 4061, 2461, 4063
5591, 3468, 2142, 6908
5592, 2929, 3470, 3471
5593, 1516, 2930, 3469
5594, 1554, 3469, 2930
5595, 3471, 3470, 2930
5596, 2929, 2503, 3470
5597, 3471, 2930, 1516
5598, 2929, 3471, 3468
5599, 3492, 3472, 2144
5600, 2931, 3474, 3475
5601, 1518, 2932, 3473
5602, 1556, 3473, 2932
5603, 3475, 3474, 2932
5604, 6530, 3474, 2931
5605, 3475, 2932, 1518
5606, 2931, 3475, 3472
5607, 3518, 2146, 3517
5608, 2933, 3478, 3479
5609, 1520, 2934, 3477
5610, 1558, 3477, 2934
5611, 3479, 3478, 2934
5612, 2933, 2509, 3478
5613, 3479, 2934, 1520
5614, 2933, 3479, 3476
5615, 2635, 4100, 2148
5616, 2935, 3482, 3483
5617, 1522, 2936, 3481
5618, 1560, 3481, 2936
5619, 3483, 3482, 2936
5620, 4096, 3482, 2935
5621, 3483, 2936, 1522
5622, 2935, 3483, 3480
5623, 2512, 4095, 3485
5624, 3486, 3484, 2937
5625, 2965, 3520, 3487
5626, 3484, 3485, 4068
5627, 3488, 3486, 2937
5628, 1709, 2511, 4066
5629, 3487, 4070, 4069
5630, 3484, 4068, 2937
5631, 3487, 4069, 4068
5632, 3488, 1831, 4083
5633, 2541, 2449, 3489
5634, 2449, 2525, 3490
5635, 4084, 2527, 2526
5636, 2449, 3490, 3489
5637, 2931, 3472, 3492
5638, 4085, 6799, 2947
5639, 2144, 2633, 4086
5640, 2931, 3492, 3491
5641, 2144, 4086, 3492
5642, 3493, 6421, 2951
5643, 2956, 3494, 2453
5644, 2955, 3494, 2954
5645, 2454, 3495, 2956
5646, 2455, 3495, 2456
5647, 2954, 2957, 3496
5648, 3498, 3496, 3499
5649, 6796, 3500, 2455
5650, 3500, 2984, 3502
5651, 3512, 3498, 3497
5652, 3501, 3498, 3512
5653, 2957, 3495, 4087
5654, 3497, 3498, 3499
5655, 3497, 3499, 3500
5656, 3499, 2957, 4087
5657, 3501, 2557, 2554
5658, 2552, 3498, 3501
5659, 2004, 3505, 3506
5660, 3500, 3502, 3508
5661, 3504, 3503, 1708
5662, 3505, 3503, 2958
5663, 1708, 2508, 4088
5664, 3504, 2959, 3511
5665, 3500, 3508, 3497
5666, 2083, 3507, 2004
5667, 3506, 1878, 3549
5668, 2958, 3506, 3505
5669, 1828, 3507, 496
5670, 3507, 3505, 2004
5671, 2958, 4089, 3506
5672, 3508, 3506, 4089
5673, 3510, 3509, 2509
5674, 4088, 3509, 2959
5675, 3515, 3510, 2509
5676, 2554, 2557, 3510
5677, 3501, 3512, 2557
5678, 3504, 3511, 2958
5679, 3497, 3508, 4089
5680, 2557, 3512, 3511
5681, 3513, 4090, 3514
5682, 2964, 2558, 3513
5683, 3515, 2554, 3510
5684, 2509, 3516, 3515
5685, 3516, 2509, 2933
5686, 2554, 3515, 3514
5687, 2146, 3518, 3476
5688, 3514, 3516, 3519
5689, 2146, 2634, 4091
5690, 2960, 2964, 4094
5691, 3476, 3518, 2933
5692, 3517, 4094, 3519
5693, 3516, 3518, 3519
5694, 3517, 3519, 3518
5695, 3487, 3520, 2560
5696, 3520, 2965, 3521
5697, 3521, 2965, 3522
5698, 1847, 3521, 1985
5699, 2965, 4095, 3522
5700, 2512, 4096, 4095
5701, 3522, 3523, 1985
5702, 2970, 2562, 3523
5703, 4100, 4098, 2148
5704, 2970, 4101, 2966
5705, 4702, 1990, 3527
5706, 2973, 3525, 1857
5707, 4108, 4106, 2503
5708, 4104, 5245, 2975
5709, 3527, 2578, 4112
5710, 3527, 1990, 4113
5711, 3528, 4114, 4115
5712, 2000, 296, 4121
5713, 2978, 294, 4122
5714, 2581, 4706, 4119
5715, 4117, 2000, 3528
5716, 2580, 3531, 1737
5717, 3530, 2980, 3531
5718, 2891, 3535, 3537
5719, 3534, 3533, 3531
5720, 2980, 4118, 4705
5721, 3534, 3531, 2980
5722, 3532, 3537, 3535
5723, 2980, 4705, 3534
5724, 3532, 3533, 3534
5725, 3538, 2891, 2888
5726, 1737, 3533, 3535
5727, 4119, 4118, 4115
5728, 4123, 3548, 4708
5729, 3540, 3532, 3539
5730, 2891, 3537, 2893
5731, 3575, 2888, 3025
5732, 1737, 3535, 3538
5733, 4123, 4708, 3536
5734, 3537, 3540, 2893
5735, 3539, 3541, 3540
5736, 3540, 3541, 3542
5737, 3536, 3541, 3539
5738, 3542, 3541, 3430
5739, 3543, 3542, 3430
5740, 3545, 1615, 2433
5741, 3543, 3430, 3546
5742, 3547, 3543, 1738
5743, 2893, 3542, 3544
5744, 3543, 3544, 3542
5745, 2893, 3544, 3545
5746, 1615, 3545, 3544
5747, 3548, 3546, 3430
5748, 3432, 1869, 3546
5749, 2434, 3547, 1738
5750, 3544, 3547, 1615
5751, 3430, 3541, 4708
5752, 4045, 2436, 2894
5753, 3506, 3549, 2004
5754, 2982, 3549, 1878
5755, 3502, 3550, 1878
5756, 3550, 2984, 6797
5757, 2178, 3551, 2153
5758, 3552, 3551, 2152
5759, 2201, 3552, 2152
5760, 3554, 4124, 2987
5761, 3553, 4128, 4126
5762, 2595, 2988, 4126
5763, 3554, 2595, 4124
5764, 3029, 4154, 2987
5765, 2991, 3555, 2062
5766, 3578, 3555, 2990
5767, 2060, 3556, 1810
5768, 3577, 4151, 3578
5769, 4134, 2597, 4132
5770, 2597, 2992, 4132
5771, 4143, 4145, 3457
5772, 3561, 4144, 2996
5773, 2995, 3559, 2066
5774, 3561, 3559, 2994
5775, 2064, 3560, 1817
5776, 4142, 1701, 2992
5777, 3561, 2996, 3562
5778, 2994, 3560, 3561
5779, 3561, 3562, 2598
5780, 2996, 4057, 3563
5781, 4060, 3454, 3462
5782, 1818, 3562, 3564
5783, 3562, 3563, 3564
5784, 3564, 3563, 3565
5785, 4688, 3454, 4060
5786, 3565, 4688, 4061
5787, 2604, 3004, 3566
5788, 3006, 3566, 3004
5789, 3003, 3567, 3002
5790, 3567, 2824, 4687
5791, 4147, 662, 663
5792, 4148, 3570, 3009
5793, 3009, 3568, 3569
5794, 3568, 662, 4147
5795, 2610, 3570, 2609
5796, 2607, 660, 4149
5797, 2076, 5852, 2131
5798, 4067, 4070, 4073
5799, 2559, 3572, 2561
5800, 2611, 3572, 1720
5801, 1998, 3573, 2082
5802, 3025, 2636, 3573
5803, 1996, 3574, 1998
5804, 3575, 3574, 1865
5805, 3576, 3575, 1865
5806, 3538, 3575, 1737
5807, 1997, 3576, 1865
5808, 1737, 3576, 2580
5809, 2596, 3555, 3578
5810, 2644, 4157, 4156
5811, 3556, 1696, 3578
5812, 4152, 3578, 1696
5813, 3030, 3579, 382
5814, 3374, 3579, 3031
5815, 6531, 3580, 415
5816, 3032, 3580, 3033
5817, 3581, 368, 4168
5818, 3034, 3581, 3035
5819, 3036, 3582, 1004
5820, 3583, 3582, 3037
5821, 4159, 3583, 3037
5822, 3583, 5777, 3586
5823, 3584, 362, 4161
5824, 3584, 3038, 5265
5825, 4712, 4713, 4163
5826, 4722, 4721, 3039
5827, 3586, 1002, 4158
5828, 3586, 3040, 5889
5829, 358, 357, 4162
5830, 3041, 3589, 3590
5831, 4162, 3587, 358
5832, 3588, 4162, 3591
5833, 3041, 5264, 4717
5834, 4714, 4721, 4163
5835, 3041, 3590, 3587
5836, 3590, 3589, 4713
5837, 356, 355, 4165
5838, 3588, 3591, 3042
5839, 3042, 3591, 3592
5840, 3591, 356, 4165
5841, 3593, 364, 4166
5842, 3048, 3593, 3049
5843, 3594, 4166, 3584
5844, 4734, 4167, 4733
5845, 3048, 3595, 366
5846, 3596, 3595, 3050
5847, 6997, 3050, 6996
5848, 3581, 3596, 3035
5849, 3052, 3597, 997
5850, 3601, 3597, 3051
5851, 3598, 354, 4169
5852, 3592, 3598, 3054
5853, 3619, 353, 352
5854, 5280, 4729, 4170
5855, 3601, 3600, 995
5856, 3602, 3600, 3055
5857, 3597, 3601, 996
5858, 4738, 3051, 2657
5859, 4173, 3055, 2659
5860, 4175, 3056, 4176
5861, 3058, 3603, 349
5862, 3606, 3603, 3057
5863, 3614, 2660, 3612
5864, 3605, 3604, 2215
5865, 5271, 4742, 3605
5866, 3060, 3606, 4179
5867, 4178, 3606, 3057
5868, 3060, 351, 3606
5869, 3608, 3607, 347
5870, 3058, 3607, 3059
5871, 346, 3384, 3608
5872, 3610, 3611, 3609
5873, 4187, 4182, 4188
5874, 3613, 2660, 3059
5875, 4180, 3608, 3384
5876, 3613, 3610, 6800
5877, 3611, 4180, 4181
5878, 4182, 3611, 2383
5879, 3615, 3616, 4190
5880, 3604, 3614, 2215
5881, 6800, 3610, 3609
5882, 2660, 3613, 3612
5883, 2660, 3614, 3604
5884, 4190, 3617, 3618
5885, 6800, 3617, 3612
5886, 4748, 4746, 4747
5887, 3612, 3617, 3614
5888, 4193, 5278, 3615
5889, 6800, 3618, 3617
5890, 3616, 3614, 3617
5891, 4182, 3609, 3611
5892, 3618, 6910, 4192
5893, 4194, 3060, 2661
5894, 4169, 3619, 3599
5895, 3620, 429, 3062
5896, 3623, 3620, 3061
5897, 3067, 6801, 2663
5898, 4197, 6802, 3065
5899, 3622, 431, 4198
5900, 3625, 3622, 3067
5901, 3623, 4198, 3620
5902, 6802, 3623, 3061
5903, 3624, 433, 4199
5904, 3068, 3624, 3069
5905, 3625, 4199, 3622
5906, 4752, 3067, 2663
5907, 3068, 3626, 435
5908, 3073, 3626, 3070
5909, 3627, 1082, 4201
5910, 6564, 3627, 3071
5911, 4201, 4762, 4202
5912, 5629, 5286, 2667
5913, 3626, 3629, 436
5914, 3075, 3629, 3073
5915, 3070, 2664, 6803
5916, 3632, 3630, 3076
5917, 5628, 5624, 5626
5918, 3630, 3631, 5791
5919, 3632, 3076, 4779
5920, 3073, 3632, 3075
5921, 3633, 1085, 4203
5922, 3633, 3078, 5619
5923, 4764, 1086, 1087
5924, 4204, 3086, 4774
5925, 3642, 3643, 4215
5926, 3635, 2219, 3636
5927, 3639, 3636, 2219
5928, 3639, 3638, 3636
5929, 6911, 3639, 3641
5930, 4205, 4766, 4207
5931, 3637, 4205, 3638
5932, 4208, 3087, 3089
5933, 3641, 3639, 2219
5934, 3638, 3639, 3637
5935, 3640, 3641, 3643
5936, 3644, 4210, 3640
5937, 4215, 3643, 3641
5938, 3641, 3640, 6911
5939, 3635, 3645, 2219
5940, 5288, 4765, 5289
5941, 4215, 3641, 2219
5942, 3643, 3642, 3644
5943, 4767, 3644, 3642
5944, 4769, 3644, 4767
5945, 3635, 2669, 3645
5946, 4216, 2669, 3081
5947, 3083, 3646, 442
5948, 3088, 3646, 3085
5949, 3647, 1088, 4217
5950, 4204, 3647, 3086
5951, 3654, 1089, 1090
5952, 4212, 4210, 2670
5953, 3649, 445, 3651
5954, 3649, 3087, 4780
5955, 4780, 4781, 4218
5956, 4795, 4242, 4782
5957, 3088, 3651, 444
5958, 3649, 3651, 3089
5959, 3653, 3652, 1091
5960, 3654, 3652, 3090
5961, 3091, 3653, 1092
5962, 4219, 4783, 4238
5963, 4220, 3090, 2673
5964, 4217, 3654, 3648
5965, 4794, 3655, 1094
5966, 3091, 3655, 3092
5967, 4240, 3656, 4239
5968, 4790, 4787, 4789
5969, 3658, 3657, 449
5970, 3657, 3093, 4798
5971, 448, 447, 4242
5972, 4796, 4243, 2675
5973, 4796, 4244, 4798
5974, 4799, 4800, 4245
5975, 3097, 3660, 1097
5976, 3663, 3660, 3096
5977, 4651, 3661, 2676
5978, 3662, 3661, 2221
5979, 3662, 2221, 5294
5980, 2677, 4240, 4241
5981, 3096, 4246, 3663
5982, 4241, 3662, 2677
5983, 4001, 3664, 1099
5984, 3097, 3664, 3098
5985, 3665, 272, 3100
5986, 3670, 3665, 3099
5987, 3666, 270, 4247
5988, 3104, 3666, 3101
5989, 7102, 7099, 7101
5990, 7125, 911, 7124
5991, 3670, 4252, 3105
5992, 4250, 6804, 3103
5993, 3669, 274, 4251
5994, 3671, 3669, 3105
5995, 3670, 4251, 3665
5996, 6804, 3670, 3099
5997, 4254, 3105, 2679
5998, 4259, 4256, 3106
5999, 4804, 3106, 5304
6000, 278, 4808, 279
6001, 3673, 922, 3677
6002, 3110, 3673, 3108
6003, 3674, 279, 4808
6004, 3675, 3674, 3112
6005, 4812, 6957, 6958
6006, 4813, 4270, 4811
6007, 5310, 5307, 5311
6008, 3108, 3118, 4266
6009, 3117, 3677, 923
6010, 3673, 3677, 3118
6011, 3678, 925, 4289
6012, 3117, 3678, 3119
6013, 3679, 283, 4269
6014, 3679, 3120, 4816
6015, 282, 281, 4270
6016, 4271, 5648, 4814
6017, 4814, 4273, 4816
6018, 4820, 4280, 4819
6019, 4276, 3682, 4275
6020, 5769, 5328, 5587
6021, 3683, 2225, 5250
6022, 4278, 3683, 5252
6023, 3685, 3684, 287
6024, 4817, 3684, 3126
6025, 286, 285, 4280
6026, 4820, 4281, 4821
6027, 4050, 3686, 931
6028, 3686, 3127, 4822
6029, 3688, 3687, 929
6030, 3128, 3687, 3129
6031, 3686, 3688, 930
6032, 4822, 6912, 4282
6033, 3688, 4822, 4823
6034, 4285, 4824, 5331
6035, 3128, 3690, 927
6036, 3692, 3690, 3130
6037, 4825, 3691, 2226
6038, 4288, 3691, 4826
6039, 3692, 3130, 4288
6040, 3678, 3692, 3119
6041, 3693, 256, 4016
6042, 3131, 3693, 3132
6043, 3133, 3694, 223
6044, 3392, 3694, 3134
6045, 3695, 209, 3140
6046, 3138, 3695, 3136
6047, 3696, 207, 3705
6048, 3143, 3696, 3141
6049, 839, 840, 4829
6050, 4833, 4294, 3697
6051, 3698, 841, 4295
6052, 4293, 3698, 3145
6053, 7082, 843, 6009
6054, 5815, 5918, 5662
6055, 3700, 203, 4296
6056, 3702, 3700, 3146
6057, 3701, 4296, 3147
6058, 4298, 4297, 3701
6059, 4302, 3146, 2695
6060, 3149, 3702, 2697
6061, 3703, 200, 4320
6062, 3147, 3703, 3148
6063, 3704, 4835, 4310
6064, 3141, 3150, 4308
6065, 3149, 3705, 206
6066, 3696, 3705, 3150
6067, 835, 836, 4838
6068, 4842, 4314, 3706
6069, 3707, 837, 4832
6070, 4313, 3707, 3152
6071, 3709, 3708, 196
6072, 3153, 3708, 3154
6073, 3714, 3709, 195
6074, 4315, 3709, 3156
6075, 3710, 4318, 4317
6076, 5356, 2701, 5355
6077, 3153, 3711, 198
6078, 3713, 3711, 3155
6079, 6234, 6195, 6217
6080, 3712, 6217, 4321
6081, 4321, 3713, 3155
6082, 3703, 3713, 3148
6083, 3714, 194, 3728
6084, 3709, 3714, 3156
6085, 3158, 3715, 191
6086, 3162, 3715, 3157
6087, 4326, 2702, 4325
6088, 3716, 2233, 3717
6089, 4860, 5361, 4858
6090, 4316, 3156, 4855
6091, 4314, 4848, 3727
6092, 4316, 2701, 4315
6093, 4858, 3719, 2233
6094, 5355, 5359, 4850
6095, 3721, 3720, 189
6096, 3158, 3720, 3159
6097, 3722, 3721, 188
6098, 3721, 3722, 4324
6099, 187, 3722, 188
6100, 3722, 3363, 3982
6101, 3364, 4633, 2827
6102, 4325, 5196, 4326
6103, 3724, 830, 4327
6104, 3724, 3160, 4866
6105, 4328, 831, 832
6106, 4329, 5362, 4863
6107, 4863, 4330, 4866
6108, 2825, 4685, 4331
6109, 4841, 833, 834
6110, 4846, 4848, 4844
6111, 3162, 3728, 193
6112, 3714, 3728, 3163
6113, 3164, 3729, 1158
6114, 3169, 3729, 3166
6115, 3730, 512, 4333
6116, 3730, 3168, 4873
6117, 4345, 510, 3738
6118, 4869, 4334, 2706
6119, 4336, 4873, 4869
6120, 514, 4337, 515
6121, 3171, 3733, 1155
6122, 3170, 3173, 3733
6123, 5393, 5396, 5390
6124, 2707, 5386, 5388
6125, 4877, 3735, 2235
6126, 4342, 3735, 5382
6127, 508, 507, 3737
6128, 3736, 3175, 4879
6129, 3397, 4343, 4878
6130, 3175, 3736, 3737
6131, 4879, 4880, 4344
6132, 3176, 4871, 4345
6133, 517, 516, 4882
6134, 3749, 3746, 4896
6135, 4337, 3740, 515
6136, 4347, 3740, 3178
6137, 3741, 1163, 3183
6138, 3182, 3741, 3180
6139, 5405, 5403, 2236
6140, 4872, 5373, 5371
6141, 3167, 3743, 3165
6142, 1161, 3743, 1160
6143, 3744, 1165, 3188
6144, 3186, 3744, 3184
6145, 4349, 520, 519
6146, 3187, 3747, 3750
6147, 519, 518, 4894
6148, 3748, 3749, 3187
6149, 3747, 3187, 4903
6150, 4900, 4910, 4352
6151, 520, 3748, 3745
6152, 3749, 3748, 3746
6153, 3746, 4349, 4896
6154, 3749, 2713, 4909
6155, 3187, 3750, 3745
6156, 3750, 3747, 4899
6157, 3751, 1167, 3192
6158, 3191, 3751, 3189
6159, 3752, 527, 4353
6160, 3196, 3752, 3197
6161, 3753, 523, 4898
6162, 3198, 3753, 3199
6163, 3198, 3754, 525
6164, 3755, 3754, 3200
6165, 6807, 3755, 3200
6166, 3752, 3755, 3197
6167, 4359, 4355, 4357
6168, 3757, 3756, 2240
6169, 4912, 4911, 3757
6170, 3205, 3763, 4363
6171, 3759, 3758, 608
6172, 3202, 3758, 3203
6173, 3775, 3759, 607
6174, 4942, 4356, 6915
6175, 2726, 4368, 4373
6176, 5425, 5760, 4919
6177, 4033, 3761, 1257
6178, 3761, 3204, 4924
6179, 4924, 4925, 4361
6180, 3762, 4926, 3774
6181, 4362, 3763, 3201
6182, 612, 3763, 3205
6183, 3764, 2722, 4364
6184, 1886, 614, 4365
6185, 3206, 3765, 541
6186, 3399, 3765, 3207
6187, 2390, 3766, 573
6188, 3208, 3766, 3209
6189, 3768, 3767, 2855
6190, 4366, 2242, 4939
6191, 4621, 1622, 3960
6192, 4366, 3768, 3400
6193, 3208, 3769, 575
6194, 7488, 3769, 3210
6195, 1253, 1254, 4367
6196, 3211, 3772, 3773
6197, 3211, 3770, 3771
6198, 3770, 1253, 4367
6199, 4947, 4378, 4949
6200, 3233, 3801, 4950
6201, 3211, 3773, 3770
6202, 1251, 3773, 3772
6203, 3774, 1255, 4360
6204, 3771, 3774, 3212
6205, 3775, 606, 3793
6206, 3759, 3775, 3213
6207, 3787, 3785, 2243
6208, 3776, 2243, 3777
6209, 3780, 3777, 2243
6210, 3780, 3779, 3777
6211, 3778, 3780, 3782
6212, 3782, 3786, 4371
6213, 3778, 4368, 3779
6214, 4374, 3213, 3216
6215, 3782, 3780, 3783
6216, 3779, 3780, 3778
6217, 3783, 3781, 3782
6218, 4376, 4377, 4932
6219, 3783, 3780, 2243
6220, 3781, 4376, 3786
6221, 2728, 3787, 3776
6222, 4377, 3789, 3788
6223, 5836, 2245, 5935
6224, 5438, 7009, 3791
6225, 3787, 2243, 3776
6226, 3790, 3789, 3785
6227, 4926, 4361, 4927
6228, 4928, 6916, 4372
6229, 3218, 5938, 5835
6230, 3784, 3785, 3787
6231, 3788, 3790, 3791
6232, 3788, 4378, 4377
6233, 3783, 3785, 3789
6234, 3790, 3785, 3784
6235, 3791, 3790, 3784
6236, 3788, 3789, 3790
6237, 3791, 5704, 5439
6238, 4953, 4386, 3804
6239, 3217, 3792, 603
6240, 3214, 3792, 3215
6241, 3214, 3793, 605
6242, 3775, 3793, 3216
6243, 3234, 3794, 601
6244, 3217, 3794, 3218
6245, 3795, 593, 3806
6246, 3222, 3795, 3220
6247, 3796, 1245, 4379
6248, 6678, 3796, 3224
6249, 4380, 1246, 4945
6250, 4946, 5431, 5427
6251, 3229, 3798, 599
6252, 3234, 3798, 3231
6253, 3799, 1248, 4381
6254, 4380, 3799, 3232
6255, 4381, 3801, 3803
6256, 3800, 3803, 3804
6257, 4382, 3802, 3801
6258, 3803, 3801, 3233
6259, 4383, 3802, 3772
6260, 3801, 3802, 4950
6261, 3803, 3233, 4951
6262, 3803, 3800, 4381
6263, 5437, 3233, 4950
6264, 4386, 3232, 4385
6265, 5441, 4391, 4954
6266, 4388, 4389, 3236
6267, 3235, 3806, 592
6268, 3795, 3806, 3236
6269, 3807, 590, 4392
6270, 3235, 3807, 3237
6271, 3808, 4392, 3809
6272, 6811, 3808, 3239
6273, 3238, 3809, 588
6274, 3808, 3809, 3239
6275, 4394, 2739, 4393
6276, 3811, 3810, 2248
6277, 5849, 4689, 5240
6278, 3244, 3820, 4410
6279, 3813, 3812, 132
6280, 3241, 3812, 3242
6281, 131, 3814, 3813
6282, 3254, 2746, 4399
6283, 130, 3814, 131
6284, 3254, 3813, 3814
6285, 4404, 4395, 4397
6286, 3816, 4393, 3242
6287, 3254, 3816, 3813
6288, 4393, 3816, 3815
6289, 3818, 3817, 769
6290, 3817, 3243, 4962
6291, 4406, 3818, 770
6292, 4959, 4407, 2740
6293, 4959, 4408, 4962
6294, 3839, 766, 4424
6295, 4409, 3820, 3240
6296, 136, 3820, 3244
6297, 3821, 2741, 4411
6298, 1893, 138, 4412
6299, 4416, 664, 665
6300, 3569, 3822, 3245
6301, 3245, 3822, 3823
6302, 3822, 664, 4416
6303, 666, 667, 3825
6304, 3823, 3824, 3246
6305, 3283, 4474, 3285
6306, 3246, 3824, 3825
6307, 3826, 30, 3838
6308, 3826, 3247, 4968
6309, 4968, 4969, 4417
6310, 5029, 4476, 4970
6311, 3829, 3828, 27
6312, 3249, 3828, 3250
6313, 26, 2856, 3829
6314, 4418, 2856, 2391
6315, 3829, 4418, 3830
6316, 4971, 5465, 5717
6317, 2744, 3250, 3831
6318, 3830, 3831, 3250
6319, 3833, 2744, 3831
6320, 3833, 3832, 4420
6321, 3836, 3833, 2249
6322, 3837, 3832, 3833
6323, 3834, 3836, 4971
6324, 3569, 4967, 3009
6325, 3834, 4415, 6917
6326, 3837, 5497, 3832
6327, 4971, 3836, 5465
6328, 4422, 3836, 3834
6329, 3836, 3837, 3833
6330, 3837, 3835, 5497
6331, 3249, 3838, 29
6332, 3826, 3838, 3251
6333, 766, 767, 4424
6334, 3839, 3253, 4977
6335, 4962, 4408, 4975
6336, 3839, 3840, 4974
6337, 4973, 4427, 4977
6338, 4441, 4442, 3865
6339, 3853, 3851, 2250
6340, 3842, 2250, 3843
6341, 3846, 3843, 2250
6342, 3846, 3845, 3843
6343, 3844, 3846, 3848
6344, 3848, 3852, 4979
6345, 3844, 4428, 3845
6346, 4430, 3254, 3257
6347, 3848, 3846, 3849
6348, 3845, 3846, 3844
6349, 3847, 3848, 3849
6350, 3847, 4433, 4432
6351, 3849, 3846, 2250
6352, 3847, 4432, 3852
6353, 3853, 3842, 2748
6354, 3847, 3849, 3855
6355, 4986, 3853, 2748
6356, 3854, 3856, 3857
6357, 3853, 2250, 3842
6358, 3851, 3850, 3856
6359, 2745, 4425, 4976
6360, 5469, 5471, 5468
6361, 3853, 4986, 4437
6362, 3850, 3851, 3853
6363, 5473, 3850, 4437
6364, 2745, 4435, 4427
6365, 3851, 3855, 3849
6366, 3855, 3854, 4433
6367, 3856, 3850, 5472
6368, 3855, 3856, 3854
6369, 5719, 5474, 2750
6370, 3263, 3262, 5856
6371, 3258, 3858, 127
6372, 3255, 3858, 3256
6373, 3814, 3859, 3254
6374, 129, 3859, 130
6375, 3861, 3860, 125
6376, 3258, 3860, 3259
6377, 3866, 3861, 124
6378, 4998, 4997, 2750
6379, 3261, 3862, 761
6380, 3863, 3862, 3260
6381, 5855, 3260, 2749
6382, 3868, 3863, 3265
6383, 3865, 3864, 763
6384, 3263, 3864, 3262
6385, 4426, 3865, 764
6386, 4441, 3865, 3841
6387, 3866, 123, 4444
6388, 3866, 3264, 5478
6389, 4444, 4989, 4445
6390, 3275, 4990, 4445
6391, 3868, 759, 4438
6392, 3869, 3868, 3265
6393, 3869, 3265, 4448
6394, 3873, 5005, 4455
6395, 3870, 118, 3267
6396, 3875, 3870, 3266
6397, 3871, 116, 4456
6398, 3271, 3871, 3268
6399, 3879, 3872, 115
6400, 5012, 5013, 4457
6401, 3873, 756, 5005
6402, 5011, 3274, 5010
6403, 3874, 120, 4458
6404, 4445, 3874, 3275
6405, 3875, 4458, 3870
6406, 4459, 3875, 3266
6407, 3876, 112, 3277
6408, 3880, 3876, 3276
6409, 3877, 110, 6681
6410, 3281, 3877, 3278
6411, 6818, 2756, 5013
6412, 4461, 6819, 3280
6413, 3879, 114, 4462
6414, 3872, 3879, 3282
6415, 3880, 4462, 3876
6416, 6819, 3880, 3276
6417, 3882, 3881, 670
6418, 3283, 3881, 3284
6419, 3886, 3882, 671
6420, 4463, 3882, 3286
6421, 3883, 4467, 4465
6422, 5020, 4468, 5019
6423, 3283, 3884, 668
6424, 3825, 3884, 3285
6425, 5024, 4473, 5023
6426, 3825, 3285, 4469
6427, 3886, 672, 4475
6428, 3882, 3886, 3286
6429, 3887, 4475, 3891
6430, 3887, 5015, 5014
6431, 3889, 3888, 34
6432, 3888, 3287, 5032
6433, 4476, 3889, 33
6434, 5030, 4477, 2759
6435, 5030, 4479, 5032
6436, 5033, 5034, 4480
6437, 3891, 674, 4481
6438, 3887, 3891, 3289
6439, 5035, 675, 676
6440, 7022, 7019, 7021
6441, 3893, 40, 3897
6442, 3894, 3893, 3290
6443, 4484, 3290, 2761
6444, 3297, 3894, 2765
6445, 7036, 7030, 7032
6446, 3290, 3896, 2761
6447, 4486, 3896, 3292
6448, 7033, 3896, 3895
6449, 3291, 3897, 39
6450, 3897, 3292, 3290
6451, 4480, 3898, 37
6452, 3291, 3898, 3293
6453, 3899, 4487, 5034
6454, 5872, 6015, 5871
6455, 3900, 678, 4488
6456, 3902, 3900, 3295
6457, 6828, 7669, 6826
6458, 7669, 7668, 6824
6459, 7667, 6822, 2763
6460, 5036, 5038, 4482
6461, 3903, 44, 4490
6462, 3905, 3903, 3296
6463, 3904, 4490, 3297
6464, 4492, 4491, 3904
6465, 4496, 3296, 2764
6466, 3299, 3905, 2767
6467, 3906, 48, 4502
6468, 3908, 3906, 3298
6469, 3907, 4502, 3299
6470, 6920, 4500, 7867
6471, 6834, 3298, 2766
6472, 3300, 3908, 2768
6473, 3300, 3909, 51
6474, 6688, 3909, 3301
6475, 6689, 3910, 97
6476, 3302, 3910, 3303
6477, 4505, 3911, 5039
6478, 4505, 2470, 3912
6479, 4504, 3912, 3305
6480, 4505, 3912, 3911
6481, 3304, 3913, 65
6482, 2469, 3913, 3305
6483, 3914, 63, 7627
6484, 3304, 3914, 3306
6485, 4511, 4507, 4508
6486, 3915, 4508, 4510
6487, 4522, 4518, 4519
6488, 3916, 4519, 4521
6489, 4533, 4529, 4530
6490, 3917, 4530, 4532
6491, 4544, 4540, 4541
6492, 3918, 4541, 4543
6493, 2780, 2789, 4551
6494, 6694, 3919, 3308
6495, 3314, 3921, 3307
6496, 1192, 3920, 1191
6497, 3922, 3921, 3316
6498, 3307, 3921, 3920
6499, 3922, 3316, 8152
6500, 3920, 3922, 1191
6501, 1192, 1193, 3923
6502, 2268, 3923, 1193
6503, 3322, 2821, 3924
6504, 2361, 3924, 2821
6505, 3926, 3925, 2926
6506, 3323, 2361, 4552
6507, 3926, 2926, 2293
6508, 3323, 3926, 2791
6509, 2498, 3925, 3927
6510, 3925, 3323, 4552
6511, 3930, 3928, 2795
6512, 2298, 3331, 3928
6513, 3931, 3930, 2795
6514, 4565, 3929, 5058
6515, 2795, 3329, 3931
6516, 3929, 4565, 6929
6517, 1417, 1469, 4554
6518, 5056, 5054, 4555
6519, 3932, 4563, 4567
6520, 5228, 4041, 6992
6521, 3331, 4558, 4560
6522, 1381, 3933, 4561
6523, 4569, 3934, 3330
6524, 1381, 3934, 3933
6525, 3937, 3935, 2796
6526, 2300, 3334, 3935
6527, 3938, 3937, 2796
6528, 4581, 3936, 5088
6529, 2796, 3332, 3938
6530, 3936, 4581, 6930
6531, 1418, 1470, 4571
6532, 5086, 5084, 4572
6533, 4583, 3939, 4580
6534, 5115, 5531, 4577
6535, 3334, 4575, 4578
6536, 6253, 4586, 1438
6537, 4585, 3941, 3333
6538, 1382, 3941, 3940
6539, 3944, 3942, 2797
6540, 2302, 3337, 3942
6541, 3945, 3944, 2797
6542, 4597, 3943, 5120
6543, 2797, 3335, 3945
6544, 3943, 4597, 6931
6545, 1419, 1471, 4588
6546, 5118, 5116, 4589
6547, 4599, 3946, 4596
6548, 5148, 1970, 5146
6549, 3337, 4590, 4594
6550, 6254, 4602, 1439
6551, 4601, 3948, 3336
6552, 1383, 3948, 3947
6553, 3951, 3949, 2798
6554, 2304, 3340, 3949
6555, 3952, 3951, 2798
6556, 4614, 3950, 5160
6557, 2798, 3338, 3952
6558, 3950, 4614, 6932
6559, 1420, 1472, 4604
6560, 5158, 5156, 4605
6561, 4616, 5185, 5186
6562, 1974, 3459, 4058
6563, 3340, 4608, 4611
6564, 6255, 4619, 1440
6565, 4618, 3955, 3339
6566, 1384, 3955, 3954
6567, 2458, 2907, 3957
6568, 3344, 4622, 3959
6569, 4620, 1702, 2501
6570, 3371, 3344, 3957
6571, 3961, 3962, 4622
6572, 4622, 5187, 3958
6573, 3344, 3959, 3956
6574, 4625, 3958, 5187
6575, 3768, 3960, 3400
6576, 1622, 3959, 3960
6577, 3961, 3343, 3962
6578, 3371, 3961, 3344
6579, 1219, 4623, 3343
6580, 4623, 6933, 3962
6581, 3968, 3963, 2821
6582, 3355, 3965, 3963
6583, 3355, 4626, 3965
6584, 3388, 4004, 4005
6585, 3969, 4626, 3355
6586, 3967, 3965, 3964
6587, 6842, 6840, 6841
6588, 3965, 3966, 6846
6589, 3967, 3964, 4005
6590, 2361, 3967, 2898
6591, 3969, 3968, 893
6592, 3963, 3968, 3355
6593, 893, 894, 3969
6594, 4626, 3969, 894
6595, 3971, 3970, 2822
6596, 3978, 3970, 3357
6597, 4627, 868, 869
6598, 3970, 3971, 3357
6599, 4630, 3972, 2416
6600, 4627, 3357, 3971
6601, 2822, 3970, 3974
6602, 866, 3973, 3358
6603, 3358, 3973, 3974
6604, 2822, 3974, 3973
6605, 1617, 4020, 2823
6606, 4018, 3393, 4020
6607, 3976, 3393, 5189
6608, 4629, 5546, 5193
6609, 3978, 3977, 2363
6610, 3360, 3977, 3359
6611, 3357, 3972, 4630
6612, 3977, 3978, 3359
6613, 2875, 4631, 3979
6614, 1822, 4632, 1552
6615, 826, 3361, 3980
6616, 2824, 3980, 3361
6617, 5670, 5669, 4859
6618, 4633, 4634, 2827
6619, 3722, 3982, 2827
6620, 2826, 3982, 3363
6621, 1149, 3983, 1148
6622, 2452, 3983, 3365
6623, 3985, 3984, 2828
6624, 5552, 3984, 3366
6625, 1150, 1151, 3985
6626, 3986, 3985, 1151
6627, 4637, 1151, 1152
6628, 3986, 4637, 4342
6629, 383, 3987, 384
6630, 3373, 3987, 3374
6631, 2843, 3373, 3989
6632, 3990, 3988, 3375
6633, 3989, 2358, 6291
6634, 2843, 3989, 3988
6635, 6282, 6285, 1029
6636, 6277, 6282, 6278
6637, 4747, 3991, 2846
6638, 3992, 3991, 2382
6639, 3992, 2382, 3993
6640, 3378, 3992, 2845
6641, 3618, 6800, 4187
6642, 3414, 3993, 4638
6643, 3380, 3994, 989
6644, 3377, 3994, 3378
6645, 985, 3995, 1854
6646, 987, 3995, 986
6647, 3997, 3996, 991
6648, 3380, 3996, 3381
6649, 4176, 4741, 3602
6650, 5278, 5279, 4749
6651, 1732, 4642, 2882
6652, 4647, 2847, 3383
6653, 4185, 3999, 3416
6654, 4647, 2383, 2847
6655, 4679, 4675, 4677
6656, 4651, 2221, 3661
6657, 4002, 3387, 2360
6658, 3664, 4001, 3098
6659, 4003, 4002, 2360
6660, 3098, 4001, 4002
6661, 4003, 2360, 5551
6662, 4649, 4651, 2676
6663, 4005, 4004, 1616
6664, 4006, 4004, 3388
6665, 3967, 4005, 1616
6666, 6846, 6848, 3964
6667, 3388, 6850, 4008
6668, 3389, 4006, 2362
6669, 6844, 6848, 6846
6670, 6852, 6855, 6849
6671, 3388, 4008, 4006
6672, 6854, 6856, 4007
6673, 4009, 4012, 4011
6674, 3390, 4010, 3132
6675, 2362, 4010, 3390
6676, 4011, 4010, 4009
6677, 4009, 6856, 4012
6678, 3132, 4011, 2690
6679, 4012, 7687, 4014
6680, 2690, 4011, 4012
6681, 2227, 6856, 6854
6682, 6212, 6230, 6232
6683, 6881, 6893, 7692
6684, 3131, 4015, 258
6685, 6871, 7692, 4014
6686, 259, 258, 4652
6687, 2386, 4016, 255
6688, 4016, 3390, 3132
6689, 224, 4017, 225
6690, 3391, 4017, 3392
6691, 2851, 3391, 4019
6692, 4020, 3393, 3976
6693, 4019, 2364, 5745
6694, 2851, 4019, 4018
6695, 3975, 4020, 3976
6696, 1617, 4018, 4020
6697, 2902, 4056, 4022
6698, 4022, 4024, 4021
6699, 4023, 4022, 3448
6700, 4024, 2852, 3395
6701, 4025, 3448, 6795
6702, 4023, 3448, 4025
6703, 4023, 4024, 4022
6704, 4654, 4024, 2388
6705, 5202, 5201, 2904
6706, 2829, 4342, 5382
6707, 5556, 2388, 5206
6708, 4655, 4026, 5754
6709, 5207, 4027, 506
6710, 3737, 4027, 3397
6711, 542, 4028, 543
6712, 3398, 4028, 3399
6713, 1811, 4656, 2927
6714, 4030, 4663, 4029
6715, 4661, 4030, 3466
6716, 4663, 2870, 3404
6717, 4918, 5417, 2413
6718, 4665, 4031, 5695
6719, 5208, 4032, 1259
6720, 4033, 4032, 3406
6721, 3406, 5563, 5212
6722, 3761, 4033, 3204
6723, 1818, 6897, 2928
6724, 4035, 4669, 4034
6725, 4667, 4035, 3467
6726, 4669, 2872, 3408
6727, 4670, 5454, 4036
6728, 4671, 4036, 5456
6729, 3415, 4037, 2418
6730, 2878, 3414, 4037
6731, 3379, 4038, 3413
6732, 2845, 3992, 4672
6733, 2972, 5197, 1732
6734, 5199, 4699, 6990
6735, 3385, 4040, 454
6736, 4673, 4040, 2848
6737, 4042, 1528, 1591
6738, 1437, 4561, 4564
6739, 1591, 1437, 4042
6740, 4561, 1437, 6252
6741, 4558, 3331, 4556
6742, 4567, 6993, 3932
6743, 4044, 2429, 5147
6744, 2154, 4044, 3429
6745, 3546, 4045, 3432
6746, 3548, 2436, 4045
6747, 4047, 4046, 2436
6748, 4048, 4046, 4047
6749, 3548, 4123, 2436
6750, 4115, 4118, 2980
6751, 4048, 5230, 4682
6752, 3433, 4046, 4048
6753, 4682, 4049, 933
6754, 4050, 4049, 3434
6755, 5231, 5238, 3434
6756, 3686, 4050, 3127
6757, 4684, 3439, 2900
6758, 4633, 4051, 3981
6759, 4685, 4052, 3361
6760, 4052, 3443, 3444
6761, 4054, 4053, 2456
6762, 6793, 4053, 3446
6763, 1619, 3447, 4054
6764, 6798, 4054, 3447
6765, 4055, 2367, 5204
6766, 1619, 4055, 3447
6767, 1742, 6797, 6794
6768, 4022, 4056, 3448
6769, 3563, 4057, 3454
6770, 2996, 3457, 4057
6771, 4136, 4132, 3557
6772, 4139, 5186, 4058
6773, 4411, 4059, 2909
6774, 4059, 2461, 4060
6775, 4061, 4060, 2461
6776, 3563, 4688, 3565
6777, 4062, 4964, 5241
6778, 3467, 3565, 4061
6779, 2248, 4394, 4401
6780, 4668, 5215, 4063
6781, 4063, 2461, 4964
6782, 4063, 4062, 4668
6783, 5501, 5503, 2915
6784, 5879, 4064, 5738
6785, 1626, 4065, 2159
6786, 5879, 4065, 4064
6787, 1560, 4066, 2511
6788, 3484, 4066, 2513
6789, 4077, 3571, 5946
6790, 2468, 4693, 4692
6791, 3485, 3487, 4068
6792, 2560, 4070, 3487
6793, 4069, 4067, 4071
6794, 4068, 4069, 4691
6795, 2560, 3012, 4074
6796, 4067, 4069, 4070
6797, 4071, 4067, 4692
6798, 1831, 3488, 4071
6799, 4077, 4076, 3571
6800, 1624, 4692, 4075
6801, 4070, 2560, 4074
6802, 4073, 4072, 4075
6803, 3012, 2611, 4694
6804, 4072, 4073, 4074
6805, 4078, 4072, 4077
6806, 4696, 2467, 2912
6807, 4072, 4074, 4076
6808, 4074, 3012, 4694
6809, 4078, 4077, 3011
6810, 4072, 4076, 4077
6811, 4078, 3011, 4081
6812, 4072, 4078, 4075
6813, 4081, 4082, 7061
6814, 4695, 4079, 7063
6815, 4080, 4079, 4695
6816, 1624, 4075, 4080
6817, 4081, 3011, 5850
6818, 4080, 4081, 4079
6819, 3011, 5946, 5850
6820, 5462, 2608, 5460
6821, 1958, 4083, 1831
6822, 1709, 4083, 2071
6823, 3489, 4084, 2539
6824, 2527, 4084, 3490
6825, 6530, 4085, 2547
6826, 4085, 3491, 6799
6827, 1679, 4086, 2633
6828, 3492, 4086, 3493
6829, 2455, 3500, 4087
6830, 3499, 4087, 3500
6831, 4088, 2510, 3509
6832, 1708, 4088, 3504
6833, 3511, 4089, 2958
6834, 3497, 4089, 3512
6835, 2555, 4090, 1981
6836, 2554, 3514, 4090
6837, 1680, 4093, 2634
6838, 4093, 2376, 4092
6839, 4092, 2376, 2961
6840, 3517, 4091, 4092
6841, 2634, 4093, 4091
6842, 4093, 1680, 6422
6843, 3519, 4094, 2964
6844, 4092, 4094, 3517
6845, 3485, 4095, 2965
6846, 2512, 3482, 4096
6847, 4097, 4096, 2935
6848, 4097, 4099, 4096
6849, 4098, 2935, 3480
6850, 4097, 4101, 4099
6851, 3524, 4097, 4098
6852, 4098, 4097, 2935
6853, 4101, 4097, 3524
6854, 2970, 3522, 4099
6855, 1681, 4103, 2635
6856, 4103, 2377, 4102
6857, 2966, 4101, 3524
6858, 2970, 4099, 4101
6859, 4102, 2377, 2967
6860, 3524, 4100, 4102
6861, 2635, 4103, 4100
6862, 4103, 1681, 6423
6863, 4105, 1706, 2502
6864, 4104, 3526, 5245
6865, 4106, 4105, 2504
6866, 4104, 4105, 3526
6867, 4107, 4108, 4110
6868, 4105, 4106, 3526
6869, 4697, 1733, 4698
6870, 4697, 4698, 4107
6871, 6906, 4110, 4108
6872, 4107, 4700, 5246
6873, 2503, 2929, 6898
6874, 5582, 6899, 5247
6875, 6906, 4108, 2503
6876, 4110, 4109, 4111
6877, 4701, 4111, 4109
6878, 4111, 5249, 2612
6879, 2578, 4700, 5244
6880, 7718, 2421, 1613
6881, 2079, 4113, 1990
6882, 337, 4113, 338
6883, 3529, 4114, 2978
6884, 4115, 4114, 2581
6885, 4115, 2581, 4119
6886, 4117, 2980, 3530
6887, 4120, 4706, 2979
6888, 4709, 6936, 4704
6889, 3528, 4115, 4117
6890, 2980, 4117, 4115
6891, 4703, 4118, 4116
6892, 3539, 4705, 3536
6893, 4706, 2581, 3529
6894, 4118, 4119, 4116
6895, 3683, 5250, 5252
6896, 5238, 5231, 4683
6897, 296, 295, 4121
6898, 2978, 4121, 295
6899, 294, 293, 4122
6900, 4122, 293, 4279
6901, 3536, 4705, 4703
6902, 4047, 2436, 4709
6903, 2986, 3552, 4124
6904, 4124, 3552, 2987
6905, 1940, 4125, 2060
6906, 1529, 4125, 1941
6907, 2988, 3553, 4126
6908, 4129, 4128, 1529
6909, 1529, 1592, 4129
6910, 5533, 5111, 4577
6911, 1529, 4128, 3553
6912, 5533, 6980, 4127
6913, 1592, 1438, 4129
6914, 4586, 4130, 4710
6915, 4575, 3334, 4573
6916, 4130, 4575, 4577
6917, 1945, 4131, 2064
6918, 1531, 4131, 1946
6919, 2992, 3557, 4132
6920, 4135, 4136, 1531
6921, 1531, 1594, 4135
6922, 4133, 4137, 4139
6923, 5183, 4133, 4711
6924, 4058, 2597, 4134
6925, 1594, 1440, 4135
6926, 4619, 4138, 4711
6927, 1531, 4136, 3557
6928, 4133, 4134, 4136
6929, 3953, 4613, 4616
6930, 4058, 4134, 4139
6931, 4608, 3340, 4606
6932, 4608, 4610, 4138
6933, 4133, 4139, 4134
6934, 4139, 4137, 5186
6935, 2597, 4058, 4141
6936, 4140, 3558, 4142
6937, 3452, 4141, 3459
6938, 3558, 4140, 4141
6939, 4142, 3558, 4143
6940, 1701, 4142, 4144
6941, 4145, 4143, 3558
6942, 3457, 2996, 4143
6943, 4142, 4143, 4144
6944, 2996, 4144, 4143
6945, 4146, 3558, 4141
6946, 3457, 4145, 2908
6947, 4141, 3452, 4146
6948, 3455, 4146, 3452
6949, 3822, 4147, 663
6950, 3568, 4147, 3569
6951, 5460, 3009, 4965
6952, 5853, 4148, 2608
6953, 3568, 4149, 661
6954, 2607, 4149, 3570
6955, 5852, 4150, 1846
6956, 4076, 4150, 3571
6957, 3578, 4151, 2596
6958, 4157, 4151, 3577
6959, 4153, 4152, 1696
6960, 4155, 4152, 3028
6961, 2988, 4153, 1696
6962, 4154, 3554, 2987
6963, 3028, 4152, 4154
6964, 4153, 4154, 4152
6965, 3028, 3029, 4156
6966, 3578, 4155, 3577
6967, 3577, 4155, 4156
6968, 3028, 4156, 4155
6969, 1620, 4659, 3027
6970, 4157, 4657, 4656
6971, 1002, 1003, 4158
6972, 3582, 4158, 1003
6973, 3037, 2650, 6909
6974, 5777, 4159, 2652
6975, 4728, 4722, 4725
6976, 2652, 4159, 4160
6977, 4163, 4161, 361
6978, 3584, 4161, 3585
6979, 3591, 4162, 357
6980, 3587, 4162, 3588
6981, 4163, 4713, 4714
6982, 4161, 4163, 3585
6983, 5253, 4732, 4164
6984, 3042, 3592, 4731
6985, 3598, 4165, 355
6986, 3591, 4165, 3592
6987, 3584, 4166, 363
6988, 3593, 4166, 3594
6989, 5783, 5784, 6073
6990, 5268, 5266, 4735
6991, 3595, 4168, 367
6992, 3581, 4168, 3596
6993, 3619, 4169, 353
6994, 3598, 4169, 3599
6995, 4196, 3599, 3619
6996, 5281, 4196, 4195
6997, 5270, 4171, 2214
6998, 3055, 4172, 2659
6999, 4737, 4172, 3601
7000, 4740, 4739, 5615
7001, 4173, 2659, 5787
7002, 5617, 3056, 5618
7003, 4172, 4740, 2659
7004, 5612, 4177, 5607
7005, 3602, 4173, 4175
7006, 4174, 4175, 4173
7007, 992, 4741, 3997
7008, 993, 4741, 992
7009, 5271, 5273, 4743
7010, 5615, 5609, 5613
7011, 3604, 4178, 3057
7012, 4179, 4178, 3605
7013, 3060, 4179, 2661
7014, 4178, 4179, 3606
7015, 4181, 4180, 3384
7016, 3610, 4180, 3611
7017, 3384, 2847, 4181
7018, 2383, 4181, 2847
7019, 4182, 2383, 4184
7020, 3609, 4182, 4187
7021, 4184, 4185, 4183
7022, 4744, 3993, 2382
7023, 4185, 4184, 2383
7024, 4184, 4183, 4188
7025, 3999, 4185, 2383
7026, 4185, 3416, 4640
7027, 4189, 4186, 4188
7028, 4189, 4745, 4186
7029, 4188, 4182, 4184
7030, 4187, 4186, 6910
7031, 4189, 4188, 4183
7032, 4187, 4188, 4186
7033, 4189, 4183, 4639
7034, 4192, 3615, 4190
7035, 3617, 4190, 3616
7036, 3618, 4187, 6910
7037, 4189, 6945, 4745
7038, 4745, 4746, 5276
7039, 3618, 4192, 4190
7040, 4193, 4192, 4191
7041, 4193, 4191, 5276
7042, 5617, 3997, 4176
7043, 4194, 2661, 5608
7044, 4196, 4170, 4736
7045, 5608, 4742, 5272
7046, 5610, 5611, 5589
7047, 3619, 4194, 4196
7048, 4195, 4196, 4194
7049, 4197, 2216, 6949
7050, 4197, 3621, 6802
7051, 3620, 4198, 430
7052, 3622, 4198, 3623
7053, 3622, 4199, 432
7054, 3624, 4199, 3625
7055, 4752, 4754, 4200
7056, 4200, 4753, 4751
7057, 4201, 1083, 4762
7058, 3627, 4201, 3628
7059, 4202, 4762, 3633
7060, 5286, 4763, 5285
7061, 4203, 1086, 4764
7062, 3633, 4203, 3634
7063, 4204, 4764, 3647
7064, 4774, 4213, 2670
7065, 4210, 4225, 3640
7066, 4208, 4205, 2671
7067, 4223, 2673, 4226
7068, 4234, 4206, 4232
7069, 4766, 4205, 3637
7070, 4228, 4232, 4226
7071, 4205, 4208, 3638
7072, 4781, 4208, 2671
7073, 3089, 2672, 4209
7074, 3638, 4209, 2672
7075, 4212, 4213, 4785
7076, 6911, 4225, 4224
7077, 4222, 3648, 3654
7078, 4221, 4211, 4222
7079, 4213, 4212, 2670
7080, 4211, 4224, 4225
7081, 4774, 2670, 4773
7082, 3086, 3648, 4785
7083, 5292, 5290, 4216
7084, 4214, 5291, 5631
7085, 2219, 3645, 4215
7086, 4215, 3645, 5290
7087, 3081, 4775, 4216
7088, 4776, 4777, 4771
7089, 3654, 4217, 1089
7090, 3647, 4217, 3648
7091, 4207, 4206, 4234
7092, 4782, 4218, 4793
7093, 4219, 4228, 4226
7094, 3653, 4784, 3090
7095, 4221, 4220, 2673
7096, 4222, 4220, 4221
7097, 2673, 4223, 4221
7098, 4223, 4766, 4227
7099, 4212, 4785, 4211
7100, 3654, 4220, 4222
7101, 2673, 4784, 4226
7102, 4206, 4207, 4766
7103, 4224, 4766, 6911
7104, 4221, 4227, 4211
7105, 4210, 4212, 4225
7106, 4211, 4225, 4212
7107, 4219, 4238, 4228
7108, 4206, 4223, 4226
7109, 4766, 4223, 4206
7110, 4211, 4227, 4224
7111, 4230, 4228, 2220
7112, 4228, 4230, 4232
7113, 3656, 4786, 2220
7114, 8154, 2671, 4207
7115, 2220, 4786, 4233
7116, 4232, 4230, 4229
7117, 4788, 5296, 5294
7118, 4234, 4229, 4236
7119, 4232, 4229, 4234
7120, 4226, 4232, 4206
7121, 2220, 4233, 4230
7122, 4237, 4233, 7038
7123, 4236, 4229, 4237
7124, 4207, 4234, 8154
7125, 7039, 7037, 7038
7126, 4792, 2675, 4243
7127, 4235, 4791, 4236
7128, 4218, 2671, 8154
7129, 7038, 4233, 4231
7130, 4236, 4237, 4235
7131, 4238, 2220, 4228
7132, 4239, 4238, 2674
7133, 4240, 4239, 3092
7134, 4238, 4239, 3656
7135, 3655, 4794, 3092
7136, 4787, 4240, 2677
7137, 4240, 3092, 4794
7138, 1095, 3663, 4241
7139, 4242, 3650, 4782
7140, 448, 4242, 3658
7141, 4243, 4797, 4795
7142, 3094, 4791, 4792
7143, 5227, 5793, 5577
7144, 4799, 4244, 5578
7145, 451, 3659, 4245
7146, 4245, 3659, 4799
7147, 3661, 4246, 3096
7148, 3662, 3663, 4246
7149, 270, 269, 4247
7150, 4801, 4247, 269
7151, 5978, 5643, 5976
7152, 6131, 4249, 7145
7153, 5298, 4802, 5297
7154, 4248, 5893, 5298
7155, 2222, 5900, 7081
7156, 4250, 3668, 6804
7157, 3665, 4251, 273
7158, 3669, 4251, 3670
7159, 5299, 4252, 3668
7160, 2679, 3105, 4252
7161, 3669, 4253, 275
7162, 4806, 4253, 3671
7163, 4257, 4254, 2679
7164, 4259, 3106, 4804
7165, 4803, 2679, 5299
7166, 5319, 5322, 6577
7167, 3671, 4254, 4256
7168, 4256, 4254, 4257
7169, 4258, 4257, 2679
7170, 4257, 4255, 4260
7171, 6579, 6578, 6569
7172, 916, 6566, 6565
7173, 4262, 4259, 3672
7174, 276, 4806, 277
7175, 4255, 5302, 5303
7176, 3106, 4256, 4260
7177, 4258, 5301, 4255
7178, 5651, 5986, 5989
7179, 4262, 277, 4806
7180, 4262, 3672, 5993
7181, 5990, 5991, 4805
7182, 4263, 7106, 3674
7183, 3674, 4264, 280
7184, 4270, 4264, 3675
7185, 6805, 4265, 2683
7186, 4266, 4265, 3676
7187, 4265, 4266, 3118
7188, 4268, 4266, 4809
7189, 5317, 4809, 4267
7190, 5322, 5802, 5323
7191, 4268, 4809, 5317
7192, 4268, 5324, 3110
7193, 4270, 4269, 282
7194, 3679, 4269, 3680
7195, 4264, 4270, 281
7196, 4811, 4270, 3675
7197, 4271, 4815, 4813
7198, 3121, 4812, 5313
7199, 3679, 4272, 284
7200, 4280, 4272, 3681
7201, 5806, 5911, 5913
7202, 4273, 5910, 4819
7203, 3683, 4274, 2225
7204, 4275, 4274, 2685
7205, 4276, 4275, 3124
7206, 4274, 4275, 3682
7207, 289, 4817, 3124
7208, 2686, 3682, 4276
7209, 4274, 4277, 2685
7210, 4278, 4277, 3683
7211, 4279, 4278, 2979
7212, 4277, 4278, 3125
7213, 4279, 2979, 3529
7214, 4818, 293, 292
7215, 4819, 4280, 3681
7216, 286, 4280, 3685
7217, 5329, 5330, 5327
7218, 2686, 5326, 5328
7219, 7004, 5331, 4282
7220, 4823, 3689, 4284
7221, 3691, 4283, 2226
7222, 4284, 4283, 2689
7223, 4823, 4284, 3129
7224, 4283, 4284, 3689
7225, 5236, 5585, 2687
7226, 5326, 2686, 5325
7227, 4283, 4286, 2689
7228, 4288, 4286, 3691
7229, 5805, 4824, 7046
7230, 5647, 4827, 5308
7231, 4288, 2688, 4290
7232, 4286, 4288, 3130
7233, 3690, 4289, 926
7234, 3678, 4289, 3692
7235, 4291, 4290, 2688
7236, 3119, 3692, 4290
7237, 4287, 4828, 4826
7238, 5647, 6805, 4291
7239, 4292, 839, 4829
7240, 4294, 4292, 3697
7241, 4293, 4829, 3698
7242, 4831, 6959, 2694
7243, 4833, 3697, 3144
7244, 4294, 6961, 3707
7245, 7082, 4295, 842
7246, 3698, 4295, 3699
7247, 3147, 4296, 202
7248, 3700, 4296, 3701
7249, 4298, 3701, 2696
7250, 4298, 4299, 6101
7251, 2696, 4299, 4298
7252, 6101, 4299, 2230
7253, 6914, 2696, 3148
7254, 6101, 2230, 6100
7255, 6188, 6193, 6191
7256, 4299, 4300, 6206
7257, 3700, 4301, 204
7258, 3149, 4301, 3702
7259, 4305, 4302, 2695
7260, 4304, 2697, 3702
7261, 6004, 6002, 6001
7262, 4295, 7082, 3699
7263, 4305, 4304, 4302
7264, 4303, 6060, 4306
7265, 6005, 4305, 2695
7266, 4304, 4305, 4303
7267, 3704, 4306, 2231
7268, 2697, 4304, 4306
7269, 4306, 4307, 2697
7270, 4308, 4307, 3704
7271, 4307, 4308, 3150
7272, 4308, 3704, 4310
7273, 4835, 5332, 4310
7274, 5339, 5343, 4309
7275, 4835, 3704, 2231
7276, 4836, 4311, 4310
7277, 3141, 4311, 3143
7278, 4836, 4310, 4309
7279, 4312, 835, 4838
7280, 4314, 4312, 3706
7281, 4313, 4838, 3707
7282, 6962, 6963, 4840
7283, 4842, 3706, 3151
7284, 4332, 4314, 3727
7285, 4316, 4315, 3156
7286, 4317, 4315, 2701
7287, 3156, 3163, 4855
7288, 4847, 4851, 5666
7289, 3710, 4317, 2701
7290, 3154, 3709, 4317
7291, 4317, 4318, 3154
7292, 6806, 4318, 3710
7293, 6806, 4319, 2700
7294, 4321, 4319, 3712
7295, 200, 199, 4320
7296, 3711, 4320, 199
7297, 4321, 3155, 4319
7298, 4322, 4321, 2699
7299, 4300, 4322, 2699
7300, 3148, 3713, 4322
7301, 2233, 3716, 4326
7302, 5362, 2703, 4863
7303, 2827, 3723, 4324
7304, 3723, 3721, 4324
7305, 3723, 4634, 4636
7306, 4326, 3716, 2702
7307, 4636, 4325, 3723
7308, 4858, 2233, 5360
7309, 4328, 4327, 831
7310, 3724, 4327, 3725
7311, 4332, 4328, 832
7312, 4861, 4328, 3727
7313, 4329, 4864, 4862
7314, 5364, 3161, 5354
7315, 4330, 2703, 5367
7316, 4868, 4330, 5369
7317, 828, 3726, 4331
7318, 4331, 3726, 4868
7319, 4332, 833, 4841
7320, 4328, 4332, 3727
7321, 4345, 4333, 511
7322, 3730, 4333, 3731
7323, 4871, 4334, 4870
7324, 5372, 4872, 5371
7325, 3730, 4335, 513
7326, 4337, 4335, 3732
7327, 5371, 5373, 2706
7328, 5674, 4875, 5380
7329, 3732, 4873, 4875
7330, 4337, 5674, 3740
7331, 5393, 3173, 3170
7332, 2235, 4338, 3734
7333, 4340, 4339, 2708
7334, 4342, 4339, 3735
7335, 4338, 4340, 2708
7336, 2235, 3735, 4340
7337, 7064, 7065, 5756
7338, 5201, 5203, 4025
7339, 3986, 4342, 2829
7340, 4339, 4342, 3174
7341, 5561, 3397, 5560
7342, 5754, 2853, 4655
7343, 5681, 5376, 2709
7344, 4881, 4344, 5376
7345, 510, 4345, 511
7346, 4345, 3738, 4881
7347, 4346, 517, 4882
7348, 4350, 4346, 3739
7349, 4347, 4882, 3740
7350, 5383, 5677, 4884
7351, 5403, 5399, 5401
7352, 4887, 4886, 4348
7353, 4349, 519, 4894
7354, 3748, 4349, 3746
7355, 4350, 4894, 4346
7356, 4895, 3739, 3177
7357, 3739, 4895, 4350
7358, 5414, 4897, 5413
7359, 4352, 4899, 4900
7360, 3753, 4352, 3199
7361, 3754, 4353, 526
7362, 3752, 4353, 3755
7363, 4911, 4912, 4354
7364, 2413, 4663, 4661
7365, 4923, 3203, 3759
7366, 4357, 4355, 3760
7367, 3213, 4356, 4923
7368, 6915, 4356, 3213
7369, 5214, 5565, 5566
7370, 4359, 2240, 3756
7371, 4923, 4355, 3203
7372, 4942, 4358, 4356
7373, 4355, 4359, 2720
7374, 2240, 4359, 4357
7375, 3761, 4360, 1256
7376, 3774, 4360, 3762
7377, 6916, 4928, 4369
7378, 3774, 4926, 3212
7379, 3756, 4362, 3201
7380, 4363, 4362, 3757
7381, 3205, 4363, 2722
7382, 4362, 4363, 3763
7383, 2722, 4911, 4913
7384, 2457, 4934, 4364
7385, 614, 613, 4365
7386, 3205, 4365, 613
7387, 5188, 5419, 5696
7388, 6674, 4939, 2242
7389, 3774, 4367, 1254
7390, 3770, 4367, 3771
7391, 4370, 4368, 3778
7392, 4374, 4368, 2726
7393, 4371, 6916, 4370
7394, 4373, 4369, 5424
7395, 4371, 4370, 3778
7396, 4370, 4369, 4373
7397, 3782, 4371, 3778
7398, 3786, 4372, 6916
7399, 4929, 3786, 2725
7400, 4927, 4361, 4928
7401, 4928, 4941, 4369
7402, 5424, 4943, 4373
7403, 4368, 4374, 3779
7404, 6915, 4374, 2726
7405, 3216, 2727, 4375
7406, 3779, 4375, 2727
7407, 4377, 3781, 3789
7408, 4376, 3781, 4377
7409, 3788, 7009, 4378
7410, 4947, 4948, 4378
7411, 4949, 4378, 7009
7412, 3211, 3771, 4931
7413, 4380, 4379, 1246
7414, 3796, 4379, 3797
7415, 4380, 4945, 3799
7416, 5430, 5428, 5429
7417, 4381, 1249, 3801
7418, 3799, 4381, 3800
7419, 1250, 1251, 4382
7420, 3772, 4382, 1251
7421, 4383, 3772, 4947
7422, 2734, 4384, 5437
7423, 5438, 4952, 2734
7424, 5934, 5831, 4387
7425, 3800, 3804, 4385
7426, 4386, 4385, 3804
7427, 3804, 4951, 4953
7428, 4386, 2733, 5429
7429, 4952, 4384, 2734
7430, 5941, 5701, 5831
7431, 6809, 4388, 2736
7432, 4389, 4388, 3805
7433, 3805, 4391, 5453
7434, 5453, 5449, 4955
7435, 3805, 4954, 4391
7436, 5433, 5703, 5833
7437, 4954, 3805, 2246
7438, 5453, 4955, 4956
7439, 3809, 4392, 589
7440, 3807, 4392, 3808
7441, 4393, 4396, 4394
7442, 4394, 3810, 2739
7443, 4397, 4396, 4393
7444, 5711, 4398, 5847
7445, 4395, 4396, 4397
7446, 4403, 4398, 4402
7447, 4397, 4393, 3815
7448, 4396, 4395, 4402
7449, 3815, 4399, 4397
7450, 4399, 4400, 4404
7451, 4404, 4405, 4395
7452, 5457, 5456, 4957
7453, 3254, 4399, 3815
7454, 4400, 4399, 2746
7455, 4428, 4429, 4978
7456, 4395, 4405, 5459
7457, 4396, 4401, 4394
7458, 5711, 4401, 4398
7459, 4403, 4402, 4395
7460, 4401, 4402, 4398
7461, 4403, 5459, 4961
7462, 5454, 5456, 4036
7463, 4399, 4404, 4397
7464, 4405, 4404, 4400
7465, 4400, 4429, 4980
7466, 2740, 4961, 5459
7467, 771, 4406, 770
7468, 4406, 3409, 4671
7469, 4407, 4960, 4958
7470, 5458, 5456, 5457
7471, 4980, 4405, 4400
7472, 4425, 4974, 4975
7473, 3810, 4409, 3240
7474, 4410, 4409, 3811
7475, 3244, 4410, 2741
7476, 4409, 4410, 3820
7477, 4689, 5241, 2741
7478, 4059, 4411, 2461
7479, 138, 137, 4412
7480, 3244, 4412, 137
7481, 3246, 4471, 4473
7482, 4414, 4413, 2742
7483, 6917, 2742, 5024
7484, 3823, 4414, 3245
7485, 5712, 4971, 5713
7486, 4966, 4967, 3245
7487, 3824, 4416, 665
7488, 3822, 4416, 3823
7489, 5492, 4417, 2743
7490, 4970, 4417, 5495
7491, 2856, 4418, 3829
7492, 2391, 3830, 4418
7493, 4420, 4419, 3251
7494, 4969, 3832, 2743
7495, 3833, 4420, 2744
7496, 4419, 4420, 3832
7497, 3831, 5466, 2249
7498, 5462, 5463, 2608
7499, 3834, 6917, 6918
7500, 3835, 3836, 4422
7501, 3825, 4471, 3246
7502, 5493, 5497, 5026
7503, 3819, 4424, 767
7504, 3839, 4424, 3840
7505, 4975, 3840, 3819
7506, 5471, 4405, 4980
7507, 3839, 4426, 765
7508, 3865, 4426, 3841
7509, 2745, 3852, 4432
7510, 4427, 4436, 4441
7511, 4428, 3844, 4429
7512, 4430, 4428, 2746
7513, 3844, 4979, 4429
7514, 2745, 4976, 3852
7515, 4428, 4430, 3845
7516, 2746, 3254, 4430
7517, 3845, 4430, 4431
7518, 3257, 4431, 4430
7519, 3847, 3855, 4433
7520, 2745, 4432, 4435
7521, 4434, 4433, 3854
7522, 3252, 4441, 4436
7523, 3857, 4981, 3854
7524, 5725, 4983, 4984
7525, 4432, 4433, 4435
7526, 4433, 4434, 4985
7527, 4427, 4435, 4436
7528, 4435, 4433, 4985
7529, 3861, 5478, 5477
7530, 4987, 5718, 5472
7531, 3862, 4438, 760
7532, 3868, 4438, 3863
7533, 4453, 5482, 5475
7534, 3265, 4440, 2751
7535, 4988, 4440, 3863
7536, 5480, 4440, 4439
7537, 4441, 3841, 4977
7538, 4442, 4441, 3252
7539, 4442, 3252, 4443
7540, 3262, 3865, 4442
7541, 4981, 4434, 3854
7542, 4982, 5722, 5723
7543, 4444, 122, 4989
7544, 3866, 4444, 3867
7545, 4445, 4989, 3874
7546, 4990, 3275, 2754
7547, 4992, 3867, 4445
7548, 4995, 4992, 4993
7549, 3868, 4447, 758
7550, 4455, 4447, 3869
7551, 4451, 4448, 2751
7552, 4450, 4452, 4451
7553, 4451, 4454, 4449
7554, 5859, 5860, 5858
7555, 5007, 2753, 5008
7556, 3274, 3873, 4455
7557, 5479, 5000, 4454
7558, 4450, 4451, 4449
7559, 4451, 4452, 4448
7560, 4455, 4452, 4450
7561, 4453, 4454, 5000
7562, 4996, 5719, 5476
7563, 5479, 4451, 2751
7564, 5004, 4994, 5003
7565, 4452, 4455, 3869
7566, 4455, 4450, 5006
7567, 116, 115, 4456
7568, 115, 3872, 4456
7569, 6970, 6971, 6969
7570, 5487, 2753, 5857
7571, 3870, 4458, 119
7572, 3874, 4458, 3875
7573, 4459, 3266, 3270
7574, 4460, 4459, 3272
7575, 5486, 4460, 3272
7576, 2754, 3275, 4460
7577, 7529, 2253, 7532
7578, 4461, 3878, 6819
7579, 3876, 4462, 113
7580, 3879, 4462, 3880
7581, 4464, 4463, 3286
7582, 4465, 4463, 2758
7583, 5018, 4464, 5014
7584, 5729, 5730, 5018
7585, 4465, 2758, 5020
7586, 3284, 3882, 4465
7587, 4466, 2254, 5491
7588, 4467, 4466, 2757
7589, 4465, 4467, 3284
7590, 4466, 4467, 3883
7591, 5869, 5867, 5868
7592, 5494, 5732, 5733
7593, 3885, 5491, 5490
7594, 3825, 4469, 4471
7595, 4470, 5022, 5490
7596, 5023, 4423, 5024
7597, 4469, 4472, 4471
7598, 4471, 4472, 4473
7599, 3885, 4472, 4469
7600, 4473, 2742, 4413
7601, 5490, 5022, 4472
7602, 5022, 5023, 4473
7603, 4466, 4474, 2757
7604, 4469, 4474, 3885
7605, 3891, 4475, 673
7606, 3886, 4475, 3887
7607, 32, 4476, 33
7608, 4476, 3827, 4970
7609, 4477, 5031, 5029
7610, 5495, 5494, 3248
7611, 3888, 4478, 35
7612, 4480, 4478, 3890
7613, 5870, 4479, 2759
7614, 5033, 4479, 5871
7615, 36, 4480, 37
7616, 4480, 3890, 5033
7617, 4481, 675, 5035
7618, 3891, 4481, 3892
7619, 4482, 5035, 4489
7620, 5036, 4482, 3902
7621, 3893, 4483, 41
7622, 3297, 4483, 3894
7623, 4484, 2761, 7031
7624, 2256, 4494, 4485
7625, 7032, 7030, 7031
7626, 7024, 7027, 7028
7627, 6820, 4486, 2762
7628, 3896, 4486, 3895
7629, 5034, 4487, 3293
7630, 6820, 4487, 3899
7631, 6828, 4488, 679
7632, 3900, 4488, 3901
7633, 3900, 4489, 677
7634, 4482, 4489, 3902
7635, 3297, 4490, 43
7636, 3903, 4490, 3904
7637, 4492, 3904, 2765
7638, 4492, 7679, 7680
7639, 2765, 4493, 4492
7640, 6830, 7678, 7679
7641, 4493, 2765, 4494
7642, 7679, 4493, 2256
7643, 3894, 4494, 2765
7644, 4484, 4485, 4494
7645, 3903, 4495, 45
7646, 3299, 4495, 3905
7647, 4499, 4496, 2764
7648, 4498, 2767, 3905
7649, 2256, 7685, 7679
7650, 2763, 6822, 6821
7651, 4499, 4498, 4496
7652, 4500, 4497, 2257
7653, 7677, 4499, 2764
7654, 4498, 4499, 4497
7655, 2257, 7867, 4500
7656, 2767, 4498, 4500
7657, 7868, 7866, 2257
7658, 2766, 3298, 6919
7659, 3299, 4502, 47
7660, 3906, 4502, 3907
7661, 3906, 4503, 49
7662, 3300, 4503, 3908
7663, 6839, 4504, 2770
7664, 3912, 4504, 3911
7665, 2470, 4505, 3465
7666, 3911, 6839, 5039
7667, 4506, 2260, 5500
7668, 5737, 702, 5880
7669, 5508, 5507, 4516
7670, 4511, 2771, 4509
7671, 4510, 4508, 4507
7672, 6922, 6921, 318
7673, 5135, 4509, 4512
7674, 5505, 5506, 5042
7675, 4510, 1397, 319
7676, 2771, 4511, 4508
7677, 4509, 1379, 5538
7678, 5118, 5131, 1667
7679, 5128, 5119, 5124
7680, 5043, 5505, 4513
7681, 5142, 5141, 4513
7682, 5506, 4510, 4507
7683, 4515, 4514, 5043
7684, 1397, 4515, 1389
7685, 4514, 5505, 5043
7686, 5043, 5508, 4516
7687, 2042, 4517, 1786
7688, 1373, 4517, 2042
7689, 5507, 4517, 4516
7690, 5512, 5511, 4527
7691, 4522, 2772, 4520
7692, 4521, 4519, 4518
7693, 6924, 6923, 159
7694, 5175, 4520, 4523
7695, 5509, 5510, 5045
7696, 4521, 1398, 160
7697, 2772, 4522, 4519
7698, 4520, 1380, 5544
7699, 5158, 5171, 1669
7700, 5168, 5159, 5164
7701, 5046, 5509, 4524
7702, 5182, 5181, 4524
7703, 5510, 4521, 4518
7704, 4526, 4525, 5046
7705, 1398, 4526, 1391
7706, 4525, 5509, 5046
7707, 5046, 5512, 4527
7708, 2044, 4528, 1788
7709, 1374, 4528, 2044
7710, 5511, 4528, 4527
7711, 5516, 5515, 4538
7712, 4533, 2773, 4531
7713, 4532, 4530, 4529
7714, 6926, 6925, 477
7715, 5073, 4531, 4534
7716, 5513, 5514, 5048
7717, 4532, 1399, 478
7718, 2773, 4533, 4530
7719, 4531, 1377, 5525
7720, 5056, 5069, 1663
7721, 5066, 5057, 5062
7722, 5049, 5513, 4535
7723, 5080, 5079, 4535
7724, 5514, 4532, 4529
7725, 4537, 4536, 5049
7726, 1399, 4537, 1393
7727, 4536, 5513, 5049
7728, 5049, 5516, 4538
7729, 2046, 4539, 1790
7730, 1375, 4539, 2046
7731, 5515, 4539, 4538
7732, 5520, 5519, 4549
7733, 4544, 2774, 4542
7734, 4543, 4541, 4540
7735, 6928, 6927, 636
7736, 5103, 4542, 4545
7737, 5517, 5518, 5051
7738, 4543, 1400, 1
7739, 2774, 4544, 4541
7740, 4542, 1378, 5530
7741, 5086, 5099, 1665
7742, 5096, 5087, 5092
7743, 5052, 5517, 4546
7744, 5110, 5109, 4546
7745, 5518, 4543, 4540
7746, 4548, 4547, 5052
7747, 1400, 4548, 1395
7748, 4547, 5517, 5052
7749, 5052, 5520, 4549
7750, 2048, 4550, 1792
7751, 1376, 4550, 2048
7752, 5519, 4550, 4549
7753, 2787, 4551, 2789
7754, 3310, 4551, 2788
7755, 2898, 4552, 2361
7756, 3925, 4552, 3927
7757, 1654, 5060, 1781
7758, 5055, 5059, 4555
7759, 1781, 4554, 1469
7760, 3931, 4554, 4553
7761, 5060, 5057, 5059
7762, 4555, 5061, 5064
7763, 4562, 4559, 4556
7764, 4558, 4556, 3932
7765, 4559, 4562, 4557
7766, 4566, 4563, 4557
7767, 4558, 3932, 6993
7768, 4560, 4558, 4043
7769, 4562, 4556, 2298
7770, 4563, 4559, 4557
7771, 4043, 4564, 4561
7772, 4560, 3933, 4569
7773, 3933, 4560, 4561
7774, 4043, 4561, 4560
7775, 6929, 4565, 4562
7776, 4565, 5523, 4562
7777, 5081, 4566, 4557
7778, 4563, 1960, 4567
7779, 4564, 4043, 6992
7780, 1437, 4564, 4042
7781, 3929, 5056, 5058
7782, 4565, 5058, 5522
7783, 4568, 1561, 1711
7784, 4566, 4568, 1960
7785, 1960, 5082, 4567
7786, 4567, 5082, 5083
7787, 1960, 4568, 1710
7788, 1561, 4568, 4566
7789, 4560, 4569, 3331
7790, 3934, 4569, 3933
7791, 1655, 5090, 1782
7792, 5085, 5089, 4572
7793, 1782, 4571, 1470
7794, 3938, 4571, 4570
7795, 5090, 5087, 5089
7796, 4572, 5091, 5094
7797, 4579, 4576, 4573
7798, 4575, 4573, 3939
7799, 4576, 4579, 4574
7800, 4582, 4580, 4574
7801, 4575, 3939, 4577
7802, 4578, 4575, 4130
7803, 4579, 4573, 2300
7804, 4580, 4576, 4574
7805, 5115, 4577, 3939
7806, 5532, 1966, 2986
7807, 4586, 4578, 4130
7808, 4578, 3940, 4585
7809, 6930, 4581, 4579
7810, 4581, 5528, 4579
7811, 5113, 4582, 4574
7812, 4580, 1964, 4583
7813, 3936, 5086, 5088
7814, 4581, 5088, 5527
7815, 4584, 1562, 1713
7816, 4582, 4584, 1964
7817, 1964, 5114, 4583
7818, 5114, 5531, 4583
7819, 1964, 4584, 1712
7820, 1562, 4584, 4582
7821, 4578, 4585, 3334
7822, 3941, 4585, 3940
7823, 1382, 3940, 4586
7824, 4586, 3940, 4578
7825, 1656, 5122, 1783
7826, 5117, 5121, 4589
7827, 1783, 4588, 1471
7828, 3945, 4588, 4587
7829, 5122, 5119, 5121
7830, 4589, 5123, 5126
7831, 4595, 4593, 4590
7832, 4590, 3946, 4592
7833, 4593, 4595, 4591
7834, 4598, 4596, 4591
7835, 3946, 4599, 5148
7836, 6985, 5150, 5154
7837, 4595, 4590, 2302
7838, 4596, 4593, 4591
7839, 4590, 4592, 4594
7840, 3947, 4594, 4592
7841, 6931, 4597, 4595
7842, 4597, 5536, 4595
7843, 5143, 4598, 4591
7844, 4596, 1968, 4599
7845, 3943, 5118, 5120
7846, 4597, 5120, 5535
7847, 4600, 1563, 1715
7848, 4598, 4600, 1968
7849, 1968, 5144, 4599
7850, 3427, 5146, 1970
7851, 1968, 4600, 1714
7852, 1563, 4600, 4598
7853, 4594, 4601, 3337
7854, 3948, 4601, 3947
7855, 1383, 3947, 4602
7856, 4592, 4602, 3947
7857, 1657, 5162, 1784
7858, 5157, 5161, 4605
7859, 1784, 4604, 1472
7860, 3952, 4604, 4603
7861, 5162, 5159, 5161
7862, 4605, 5163, 5166
7863, 4612, 4609, 4606
7864, 4608, 4606, 3953
7865, 4609, 4612, 4607
7866, 4615, 4613, 4607
7867, 4610, 4608, 3953
7868, 4611, 4608, 4138
7869, 4612, 4606, 2304
7870, 4613, 4609, 4607
7871, 4616, 4610, 3953
7872, 4137, 4133, 5183
7873, 4619, 4611, 4138
7874, 4611, 3954, 4618
7875, 6932, 4614, 4612
7876, 4614, 5542, 4612
7877, 5184, 4615, 4607
7878, 4613, 1972, 4616
7879, 3950, 5158, 5160
7880, 4614, 5160, 5541
7881, 4617, 1564, 1717
7882, 4615, 4617, 1972
7883, 5185, 4616, 1972
7884, 4610, 4616, 4137
7885, 1972, 4617, 1716
7886, 1564, 4617, 4615
7887, 4611, 4618, 3340
7888, 3955, 4618, 3954
7889, 1384, 3954, 4619
7890, 4619, 3954, 4611
7891, 3371, 3957, 4620
7892, 1702, 4620, 3957
7893, 1622, 4621, 2855
7894, 3960, 3768, 4621
7895, 3959, 4622, 3958
7896, 3961, 4622, 3344
7897, 6933, 1219, 1220
7898, 3962, 3343, 4623
7899, 1221, 5545, 1220
7900, 5188, 4625, 4624
7901, 3958, 4625, 3960
7902, 4624, 5545, 5188
7903, 895, 4626, 894
7904, 3965, 4626, 3966
7905, 868, 4627, 3971
7906, 2874, 4627, 869
7907, 5745, 5746, 5748
7908, 5191, 5192, 864
7909, 3975, 5194, 3358
7910, 3976, 5189, 5190
7911, 2416, 3979, 4630
7912, 3359, 4630, 3979
7913, 1986, 4631, 2875
7914, 4632, 4631, 1552
7915, 5195, 1822, 1705
7916, 4631, 4632, 3979
7917, 4051, 4633, 3364
7918, 4634, 4633, 3981
7919, 4636, 4634, 5816
7920, 2827, 4634, 3723
7921, 4684, 5671, 5816
7922, 4858, 4859, 4323
7923, 5816, 4634, 3981
7924, 4636, 4635, 5196
7925, 4342, 4637, 3174
7926, 1151, 4637, 3986
7927, 3993, 4639, 4638
7928, 4185, 4640, 4641
7929, 4639, 3993, 4744
7930, 4641, 4639, 4183
7931, 2418, 4638, 4640
7932, 4638, 4639, 4641
7933, 4185, 4641, 4183
7934, 4638, 4641, 4640
7935, 4643, 4642, 1732
7936, 3416, 3999, 4642
7937, 4643, 1732, 5197
7938, 4643, 4039, 4645
7939, 1857, 4112, 5198
7940, 4112, 5199, 5198
7941, 4645, 4039, 4646
7942, 3416, 4645, 4640
7943, 4039, 7722, 7721
7944, 3415, 2418, 4646
7945, 3998, 3999, 4647
7946, 2383, 4647, 3999
7947, 4800, 4648, 3386
7948, 4674, 4648, 4000
7949, 3097, 4649, 2676
7950, 4002, 4649, 3098
7951, 5574, 5573, 5762
7952, 4674, 2384, 4673
7953, 4003, 5551, 5219
7954, 5568, 4650, 5218
7955, 258, 4015, 4652
7956, 4014, 7692, 4015
7957, 5202, 5204, 4653
7958, 5205, 5553, 4653
7959, 4024, 4654, 2852
7960, 2388, 4026, 4654
7961, 4655, 5560, 5207
7962, 3396, 4026, 4655
7963, 4157, 4656, 1811
7964, 3466, 4030, 4656
7965, 4157, 4660, 6935
7966, 6935, 6934, 3466
7967, 4660, 2644, 4659
7968, 4934, 4935, 2905
7969, 4660, 4659, 4658
7970, 2644, 3027, 4659
7971, 4660, 4658, 6935
7972, 2644, 4660, 4157
7973, 3466, 6934, 4662
7974, 4920, 4662, 4915
7975, 4915, 2457, 4913
7976, 4920, 4915, 4354
7977, 4661, 4663, 4030
7978, 4664, 4663, 2413
7979, 4663, 4664, 2870
7980, 2413, 4031, 4664
7981, 4665, 5563, 5208
7982, 3405, 4031, 4665
7983, 5210, 3406, 5212
7984, 5695, 5214, 2871
7985, 3467, 4668, 4667
7986, 4667, 4668, 5455
7987, 4668, 3467, 5215
7988, 5711, 5847, 5710
7989, 4667, 4669, 4035
7990, 4670, 4669, 2415
7991, 4669, 4670, 2872
7992, 5454, 4670, 2415
7993, 4671, 2873, 4958
7994, 3409, 4036, 4671
7995, 3414, 4672, 3993
7996, 2845, 4672, 4038
7997, 2848, 4648, 4674
7998, 3417, 4673, 2384
7999, 4677, 4674, 4000
8000, 4677, 4676, 4674
8001, 4000, 4679, 4677
8002, 4651, 5567, 2221
8003, 4675, 5217, 4676
8004, 1735, 2976, 5569
8005, 3095, 5577, 4679
8006, 4676, 4677, 4675
8007, 5577, 5578, 5227
8008, 4790, 4788, 7039
8009, 3095, 4679, 4000
8010, 4675, 4679, 4678
8011, 4041, 5228, 4680
8012, 4680, 5228, 5229
8013, 4042, 4681, 1528
8014, 4680, 4681, 4041
8015, 5230, 4048, 2895
8016, 4049, 4682, 3434
8017, 5231, 3434, 5230
8018, 6937, 6941, 4704
8019, 3981, 4051, 4684
8020, 3439, 4684, 4051
8021, 4331, 4685, 3361
8022, 4686, 4685, 2825
8023, 3443, 4052, 4686
8024, 4685, 4686, 4052
8025, 4687, 2365, 3004
8026, 2824, 4052, 4687
8027, 3454, 4688, 3563
8028, 4061, 4688, 4060
8029, 5240, 4689, 3811
8030, 4062, 4063, 4964
8031, 5503, 4690, 2915
8032, 5242, 4064, 4065
8033, 4069, 4071, 4691
8034, 3488, 4691, 4071
8035, 4075, 4692, 4067
8036, 2468, 4692, 1624
8037, 1831, 4071, 4693
8038, 4692, 4693, 4071
8039, 4150, 4694, 2611
8040, 4074, 4694, 4076
8041, 7063, 4079, 7060
8042, 2467, 4695, 1750
8043, 1624, 4080, 4696
8044, 4695, 4696, 4080
8045, 4698, 1733, 2881
8046, 4110, 4697, 4107
8047, 5244, 2881, 4699
8048, 4698, 5244, 4700
8049, 2421, 7717, 2881
8050, 4112, 2578, 5243
8051, 2578, 5245, 4700
8052, 4700, 5245, 5246
8053, 4701, 4109, 5582
8054, 4701, 1532, 1991
8055, 3527, 4112, 4702
8056, 1857, 4702, 4112
8057, 6936, 4703, 6939
8058, 3536, 4703, 6936
8059, 6937, 6939, 6940
8060, 2979, 5252, 4120
8061, 3534, 4705, 3539
8062, 4703, 4705, 4118
8063, 2979, 4706, 3529
8064, 4119, 4706, 4120
8065, 5236, 2687, 5239
8066, 6939, 6937, 4704
8067, 3430, 4708, 3548
8068, 3536, 4708, 3541
8069, 2436, 4123, 4709
8070, 4709, 4123, 6936
8071, 4586, 4710, 1438
8072, 4710, 4130, 5111
8073, 4619, 4711, 1440
8074, 4711, 4138, 5183
8075, 361, 360, 4712
8076, 4713, 4712, 360
8077, 3590, 4713, 360
8078, 4714, 4713, 3589
8079, 4717, 4715, 4716
8080, 4721, 4714, 3039
8081, 2653, 5255, 5260
8082, 5600, 5602, 5599
8083, 4717, 4714, 3589
8084, 4715, 5602, 4719
8085, 4714, 4717, 4716
8086, 3589, 3041, 4717
8087, 5598, 5599, 5781
8088, 2211, 6074, 4727
8089, 4715, 4719, 4716
8090, 4720, 4719, 4718
8091, 5600, 5601, 5778
8092, 4723, 4720, 4726
8093, 4722, 3039, 4720
8094, 3585, 4163, 4721
8095, 4720, 4723, 4722
8096, 2651, 4725, 4723
8097, 4727, 4724, 4726
8098, 2651, 4734, 4725
8099, 5603, 5267, 5890
8100, 4723, 4726, 2651
8101, 4728, 3038, 3585
8102, 4722, 4723, 4725
8103, 4727, 4726, 4720
8104, 4726, 4724, 5784
8105, 5778, 4720, 4718
8106, 2211, 4727, 5779
8107, 4722, 4728, 4721
8108, 3038, 4728, 4725
8109, 4729, 3054, 4736
8110, 5253, 4729, 2658
8111, 4730, 4732, 6995
8112, 5259, 5256, 5258
8113, 3592, 4164, 4731
8114, 4732, 4731, 4164
8115, 4164, 4729, 5253
8116, 5255, 4732, 4730
8117, 4733, 5265, 4734
8118, 4167, 5604, 4733
8119, 5265, 4733, 3594
8120, 4725, 4734, 3038
8121, 5603, 5604, 5267
8122, 5268, 4735, 5603
8123, 4196, 4736, 3599
8124, 4729, 4736, 4170
8125, 4738, 4737, 3051
8126, 4172, 4737, 4171
8127, 5771, 2657, 5770
8128, 2214, 4171, 4738
8129, 5588, 4750, 7040
8130, 5609, 4177, 5613
8131, 4172, 4171, 4740
8132, 5270, 4740, 4171
8133, 3602, 4741, 993
8134, 3997, 4741, 4176
8135, 5271, 3605, 2215
8136, 4742, 4177, 5272
8137, 3615, 5274, 3616
8138, 5274, 4743, 5273
8139, 6945, 4744, 2382
8140, 4639, 4744, 4189
8141, 4189, 4744, 6945
8142, 6910, 4745, 4191
8143, 4747, 2382, 3991
8144, 4747, 2846, 5277
8145, 4747, 5277, 4748
8146, 4747, 4746, 6945
8147, 4748, 5616, 5279
8148, 5276, 4748, 4193
8149, 5618, 3056, 6999
8150, 6998, 5275, 5274
8151, 4195, 5608, 5272
8152, 5590, 5591, 7040
8153, 4752, 4751, 3625
8154, 5284, 4200, 4761
8155, 3067, 4752, 3625
8156, 4752, 2663, 4754
8157, 5282, 4753, 5284
8158, 4753, 5282, 5283
8159, 2663, 6947, 4756
8160, 7700, 7733, 7695
8161, 6549, 6563, 2216
8162, 7697, 7705, 7706
8163, 2663, 6801, 6947
8164, 4760, 4759, 6954
8165, 4759, 4760, 4757
8166, 5628, 5632, 5634
8167, 4759, 4754, 4756
8168, 4757, 7729, 4758
8169, 4756, 6948, 6954
8170, 4757, 4758, 4759
8171, 7695, 4760, 4755
8172, 7706, 7705, 7708
8173, 5632, 5628, 5626
8174, 5628, 2665, 5624
8175, 1083, 1084, 4762
8176, 3633, 4762, 1084
8177, 5629, 5631, 5635
8178, 5638, 5621, 5287
8179, 3647, 4764, 1087
8180, 4203, 4764, 4204
8181, 4773, 3644, 4769
8182, 4769, 4772, 4765
8183, 6911, 4766, 3637
8184, 4227, 4766, 4224
8185, 4215, 5290, 3642
8186, 4769, 4767, 4214
8187, 5292, 4768, 5290
8188, 4214, 4767, 4770
8189, 4772, 4769, 4214
8190, 4769, 4765, 4773
8191, 4767, 4768, 4770
8192, 4771, 4770, 4768
8193, 4775, 4776, 5292
8194, 4771, 2218, 5639
8195, 4214, 7001, 5291
8196, 4772, 2667, 5289
8197, 4774, 4773, 4765
8198, 3644, 4773, 2670
8199, 4774, 4765, 5288
8200, 4213, 4774, 3086
8201, 3081, 2668, 4775
8202, 4776, 4775, 2668
8203, 4776, 2668, 4777
8204, 5292, 4771, 4768
8205, 2668, 3074, 4777
8206, 3074, 3077, 4778
8207, 2666, 3632, 4779
8208, 2218, 4777, 4778
8209, 5640, 4779, 3076
8210, 5640, 5637, 5636
8211, 4781, 4780, 3087
8212, 4782, 4780, 4218
8213, 4208, 4781, 3087
8214, 2671, 4218, 4781
8215, 4782, 3094, 4795
8216, 4780, 4782, 3650
8217, 4238, 4783, 2674
8218, 4784, 4783, 4219
8219, 4226, 4784, 4219
8220, 2673, 3090, 4784
8221, 3648, 4222, 4785
8222, 4211, 4785, 4222
8223, 4787, 4786, 3656
8224, 4233, 4786, 4231
8225, 4240, 4787, 3656
8226, 4787, 2677, 4789
8227, 5294, 2221, 5295
8228, 5795, 5642, 5793
8229, 5296, 2677, 3662
8230, 5796, 7039, 4788
8231, 4787, 4790, 4786
8232, 4788, 4790, 4789
8233, 4792, 4791, 4235
8234, 3094, 4782, 4793
8235, 4792, 4235, 7037
8236, 3094, 4792, 4243
8237, 4236, 4791, 4793
8238, 3094, 4793, 4791
8239, 1095, 4794, 1094
8240, 4240, 4794, 4241
8241, 4243, 4795, 3094
8242, 3658, 4242, 4795
8243, 4796, 2675, 5579
8244, 4797, 4796, 3093
8245, 4795, 4797, 3658
8246, 4796, 4797, 4243
8247, 4796, 4798, 3093
8248, 4799, 4798, 4244
8249, 4799, 3095, 4800
8250, 4798, 4799, 3659
8251, 4000, 4800, 3095
8252, 3386, 4245, 4800
8253, 7100, 269, 268
8254, 5298, 4801, 4248
8255, 3667, 5298, 5297
8256, 7122, 4802, 7045
8257, 7081, 3668, 4250
8258, 5899, 5896, 5645
8259, 5304, 4805, 4804
8260, 3672, 4259, 4804
8261, 4261, 5321, 5323
8262, 5992, 5990, 4805
8263, 4806, 276, 4253
8264, 4262, 4806, 4259
8265, 5646, 4807, 5301
8266, 6575, 6576, 6577
8267, 4262, 4808, 278
8268, 3674, 4808, 4263
8269, 5305, 3676, 6805
8270, 3676, 5305, 4809
8271, 5317, 5803, 4810
8272, 4810, 2223, 5318
8273, 3675, 3112, 6957
8274, 4813, 4811, 3121
8275, 4267, 4809, 5310
8276, 3121, 4811, 4812
8277, 4813, 3121, 5316
8278, 3680, 4270, 4813
8279, 4273, 4814, 2684
8280, 4815, 4814, 3120
8281, 4813, 4815, 3680
8282, 4814, 4815, 4271
8283, 4814, 4816, 3120
8284, 4819, 4816, 4273
8285, 3684, 4817, 288
8286, 5325, 4817, 3126
8287, 4278, 4818, 3125
8288, 293, 4818, 4279
8289, 4819, 3681, 4816
8290, 4820, 4819, 3122
8291, 4820, 3122, 7002
8292, 3685, 4280, 4820
8293, 4820, 4821, 3685
8294, 5326, 4821, 4281
8295, 6912, 4822, 3127
8296, 4823, 4822, 4282
8297, 3688, 4823, 3129
8298, 5331, 4823, 4282
8299, 5331, 4824, 3689
8300, 4285, 5655, 7046
8301, 2226, 5805, 5653
8302, 4826, 4825, 4287
8303, 4287, 4827, 4828
8304, 4826, 2688, 4288
8305, 5912, 5911, 2684
8306, 5315, 2684, 5648
8307, 4827, 4291, 4828
8308, 4291, 2688, 4828
8309, 3698, 4829, 840
8310, 4292, 4829, 4293
8311, 6959, 4293, 3145
8312, 4830, 6959, 4831
8313, 6176, 6173, 6140
8314, 6191, 6207, 6188
8315, 4292, 4832, 838
8316, 3707, 4832, 4294
8317, 4833, 3144, 6189
8318, 4834, 6960, 4833
8319, 4831, 6175, 6187
8320, 6192, 6195, 6209
8321, 5916, 6000, 6002
8322, 4309, 4310, 5332
8323, 4837, 4836, 4309
8324, 4837, 5353, 4836
8325, 4309, 5336, 5339
8326, 6136, 6059, 6096
8327, 3707, 4838, 836
8328, 4312, 4838, 4313
8329, 6962, 4313, 3152
8330, 4839, 6962, 4840
8331, 6218, 4854, 6219
8332, 4316, 5355, 2701
8333, 4312, 4841, 834
8334, 4332, 4841, 4314
8335, 4842, 3151, 4844
8336, 4314, 4842, 4848
8337, 4844, 4849, 4847
8338, 5364, 5365, 4860
8339, 4840, 6964, 4849
8340, 4844, 4843, 4846
8341, 4854, 4852, 4853
8342, 5357, 2701, 5356
8343, 5354, 4846, 4843
8344, 5664, 4861, 3727
8345, 4849, 4844, 3151
8346, 4851, 4847, 4845
8347, 4844, 4848, 4842
8348, 3727, 4848, 4846
8349, 4840, 4849, 3151
8350, 4845, 4847, 4849
8351, 4851, 4853, 4850
8352, 4316, 4856, 5359
8353, 4853, 4851, 4845
8354, 5667, 5666, 4850
8355, 4853, 6964, 4854
8356, 2232, 3710, 5357
8357, 4853, 4845, 6964
8358, 4853, 4852, 5356
8359, 2698, 6220, 4840
8360, 6196, 2698, 4834
8361, 2704, 4857, 3163
8362, 2704, 3717, 4857
8363, 5358, 4856, 3719
8364, 4316, 4855, 4856
8365, 3719, 4857, 3717
8366, 4855, 4857, 4856
8367, 5360, 2233, 4326
8368, 4858, 4323, 4860
8369, 4859, 5360, 5196
8370, 5670, 5368, 5669
8371, 5668, 4323, 5669
8372, 5354, 3161, 5664
8373, 5664, 3727, 4846
8374, 4862, 4861, 3161
8375, 4862, 3161, 6965
8376, 3725, 4328, 4862
8377, 4330, 4863, 2703
8378, 4864, 4863, 3160
8379, 4862, 4864, 3725
8380, 4863, 4864, 4329
8381, 4865, 5362, 6965
8382, 4860, 4323, 5363
8383, 4863, 4866, 3160
8384, 4868, 4866, 4330
8385, 2703, 5368, 5367
8386, 5672, 5671, 4867
8387, 4331, 4868, 2825
8388, 4866, 4868, 3726
8389, 4336, 4869, 2706
8390, 4870, 4869, 3168
8391, 4871, 4870, 3731
8392, 4869, 4870, 4334
8393, 4345, 4871, 3731
8394, 5372, 4871, 3176
8395, 5376, 5375, 3176
8396, 4891, 4887, 3742
8397, 4869, 4873, 3168
8398, 4875, 4873, 4336
8399, 5400, 5398, 3742
8400, 4336, 4876, 4875
8401, 4336, 5377, 4876
8402, 4876, 5380, 4875
8403, 5379, 4876, 4874
8404, 5380, 3178, 5674
8405, 5676, 5675, 4877
8406, 5554, 4341, 5553
8407, 3397, 4878, 3737
8408, 4878, 4343, 7064
8409, 4880, 4879, 3175
8410, 4881, 4879, 4344
8411, 4878, 4880, 3175
8412, 2709, 4344, 4880
8413, 4345, 4881, 3176
8414, 4879, 4881, 3738
8415, 3740, 4882, 516
8416, 4346, 4882, 4347
8417, 5383, 4347, 3178
8418, 4883, 5383, 4884
8419, 5817, 2710, 5406
8420, 5684, 5685, 5410
8421, 4885, 2711, 5403
8422, 4886, 4885, 4348
8423, 4887, 4348, 3742
8424, 3165, 4886, 4888
8425, 3742, 4892, 4891
8426, 3165, 4888, 2705
8427, 4886, 4887, 4888
8428, 4889, 4893, 4891
8429, 5673, 5678, 4889
8430, 2234, 5385, 4890
8431, 4893, 4888, 4887
8432, 5397, 4890, 4889
8433, 3742, 5398, 4892
8434, 4893, 4889, 4890
8435, 4874, 5377, 5378
8436, 4891, 4892, 5673
8437, 4888, 4893, 4890
8438, 4887, 4891, 4893
8439, 4346, 4894, 518
8440, 4349, 4894, 4350
8441, 5414, 4895, 3177
8442, 4896, 4895, 4351
8443, 4895, 4896, 4350
8444, 3749, 4896, 4351
8445, 5408, 5685, 5384
8446, 5408, 5407, 5410
8447, 523, 522, 4898
8448, 4899, 4898, 522
8449, 3750, 4899, 522
8450, 4900, 4899, 3747
8451, 3749, 4909, 3187
8452, 4910, 4900, 2719
8453, 5689, 5690, 4909
8454, 5921, 5691, 5818
8455, 4903, 4900, 3747
8456, 4901, 5692, 4905
8457, 4901, 4902, 4903
8458, 4903, 4902, 4900
8459, 5690, 4901, 4909
8460, 6063, 6012, 5924
8461, 4901, 4905, 4902
8462, 4904, 7113, 4907
8463, 6011, 7111, 5821
8464, 4910, 4908, 6968
8465, 4904, 4907, 4905
8466, 4907, 4906, 4908
8467, 4906, 6966, 4908
8468, 4908, 6966, 6967
8469, 5689, 4909, 2713
8470, 4903, 4909, 4901
8471, 4908, 4910, 2719
8472, 3199, 4352, 4910
8473, 4912, 3757, 2240
8474, 4911, 4354, 4913
8475, 4357, 5425, 4922
8476, 4914, 4917, 4921
8477, 4915, 4913, 4354
8478, 2457, 4364, 4913
8479, 4922, 4921, 4917
8480, 5210, 5212, 4666
8481, 4917, 4916, 4354
8482, 2457, 4915, 4662
8483, 2413, 5417, 4031
8484, 4918, 2413, 4661
8485, 4912, 2240, 4922
8486, 4917, 4914, 5694
8487, 4662, 4918, 4661
8488, 5417, 4918, 4916
8489, 5425, 3760, 5426
8490, 4943, 4942, 4373
8491, 4916, 4918, 4920
8492, 4662, 4920, 4918
8493, 4922, 4917, 4912
8494, 4921, 4919, 5760
8495, 4357, 4922, 2240
8496, 4921, 4922, 4919
8497, 3213, 4923, 3759
8498, 4358, 4923, 4356
8499, 4925, 4924, 3204
8500, 4926, 4924, 4361
8501, 4925, 3204, 5209
8502, 2721, 4361, 4925
8503, 4924, 4926, 3762
8504, 2721, 4928, 4361
8505, 4929, 4927, 4372
8506, 3212, 4926, 4927
8507, 4928, 2721, 4941
8508, 4372, 4927, 4928
8509, 3786, 4929, 4372
8510, 4929, 2725, 4930
8511, 4930, 2725, 4931
8512, 3212, 4930, 3771
8513, 2725, 4376, 4932
8514, 4931, 4932, 4948
8515, 4378, 4932, 4377
8516, 2725, 4932, 4931
8517, 3449, 4933, 2905
8518, 3764, 4364, 4933
8519, 4935, 2457, 4658
8520, 4933, 4934, 2905
8521, 4936, 4658, 4659
8522, 2905, 4937, 3449
8523, 4937, 4936, 1620
8524, 4658, 4936, 4935
8525, 2206, 4937, 1620
8526, 3449, 4937, 1745
8527, 7050, 5826, 5828
8528, 5418, 5420, 4366
8529, 4939, 6674, 5422
8530, 3768, 5423, 3767
8531, 2721, 5211, 5213
8532, 3760, 4942, 5426
8533, 5213, 4941, 2721
8534, 4941, 4940, 5424
8535, 4942, 3760, 4358
8536, 2726, 4373, 4942
8537, 4944, 4943, 4940
8538, 4942, 4943, 5426
8539, 4941, 5213, 4940
8540, 5760, 5425, 4944
8541, 1246, 1247, 4945
8542, 3799, 4945, 1247
8543, 5427, 4380, 5428
8544, 5428, 5430, 4946
8545, 3772, 3211, 4947
8546, 4378, 4948, 4932
8547, 4947, 3211, 4948
8548, 4931, 4948, 3211
8549, 2734, 4383, 4949
8550, 4947, 4949, 4383
8551, 3802, 4383, 4950
8552, 4383, 2734, 5437
8553, 3803, 4951, 3804
8554, 5437, 4951, 3233
8555, 5439, 4952, 3791
8556, 4953, 5440, 4387
8557, 5440, 4953, 4384
8558, 4386, 4953, 4387
8559, 2246, 5707, 5705
8560, 7015, 6678, 7017
8561, 5449, 5709, 4955
8562, 2729, 3222, 4956
8563, 4389, 5453, 3220
8564, 4956, 3220, 5453
8565, 2415, 5455, 5454
8566, 5457, 5848, 4403
8567, 4958, 2873, 5458
8568, 3818, 4406, 4958
8569, 4408, 4959, 2740
8570, 4960, 4959, 3243
8571, 4958, 4960, 3818
8572, 4959, 4960, 4407
8573, 2740, 4407, 4961
8574, 4407, 4958, 5458
8575, 3817, 4962, 3819
8576, 4959, 4962, 3243
8577, 3464, 4963, 2909
8578, 3821, 4411, 4963
8579, 2461, 4411, 4964
8580, 5241, 4411, 2741
8581, 4971, 5712, 3834
8582, 4148, 5460, 2608
8583, 4414, 4415, 4966
8584, 4415, 4965, 4966
8585, 3009, 4967, 4965
8586, 3245, 4967, 3569
8587, 4969, 4968, 3247
8588, 4970, 4968, 4417
8589, 4419, 4969, 3247
8590, 2743, 4417, 4969
8591, 4970, 3248, 5029
8592, 4968, 4970, 3827
8593, 5465, 3836, 2249
8594, 5714, 5463, 4082
8595, 2391, 4972, 5466
8596, 5716, 7058, 7059
8597, 4427, 4973, 2745
8598, 4974, 4973, 3253
8599, 4975, 4974, 3840
8600, 4973, 4974, 4425
8601, 4962, 4975, 3819
8602, 5467, 4975, 4408
8603, 5467, 4976, 4425
8604, 4429, 5470, 5468
8605, 4973, 4977, 3253
8606, 4441, 4977, 4427
8607, 4400, 2746, 4978
8608, 4428, 4978, 2746
8609, 3848, 4979, 3844
8610, 5470, 3852, 4976
8611, 4429, 4979, 5470
8612, 5467, 5469, 5468
8613, 3857, 5720, 4984
8614, 3252, 4983, 4443
8615, 5720, 5718, 5474
8616, 5723, 5722, 2251
8617, 4434, 4981, 4983
8618, 4984, 4983, 4981
8619, 3857, 4984, 4981
8620, 4982, 5723, 5725
8621, 3252, 4985, 4434
8622, 4435, 4985, 4436
8623, 3258, 4986, 2748
8624, 3259, 4437, 4986
8625, 3259, 5477, 4437
8626, 4987, 4998, 5474
8627, 5855, 4988, 3260
8628, 4440, 4988, 4439
8629, 122, 121, 4989
8630, 3874, 4989, 121
8631, 4993, 4990, 2754
8632, 4992, 4446, 4999
8633, 4991, 4993, 4994
8634, 5000, 5480, 5481
8635, 4445, 4990, 4992
8636, 4992, 4990, 4993
8637, 4993, 2754, 4994
8638, 4993, 4991, 4995
8639, 5486, 5002, 5003
8640, 3273, 5002, 3272
8641, 4995, 4991, 4996
8642, 4446, 4992, 4995
8643, 5475, 4991, 4994
8644, 5484, 4996, 5721
8645, 2750, 5474, 4998
8646, 4999, 4997, 3264
8647, 4987, 5473, 5477
8648, 5477, 5478, 4998
8649, 3866, 4999, 3264
8650, 4992, 4999, 3867
8651, 5480, 2751, 4440
8652, 5483, 5480, 4439
8653, 5004, 4454, 4453
8654, 5486, 5003, 2754
8655, 2252, 5002, 3273
8656, 5002, 5001, 5003
8657, 5004, 5003, 5001
8658, 2754, 5003, 4994
8659, 5004, 5001, 5485
8660, 4994, 5004, 4453
8661, 756, 757, 5005
8662, 757, 4455, 5005
8663, 5007, 5006, 4450
8664, 5008, 5006, 5007
8665, 4450, 4449, 5007
8666, 5007, 4449, 7069
8667, 5487, 5010, 5726
8668, 3274, 5006, 5008
8669, 5487, 5009, 5010
8670, 5947, 5487, 5862
8671, 5726, 5008, 2753
8672, 6972, 5011, 5010
8673, 6972, 5009, 6969
8674, 754, 755, 5011
8675, 5013, 3872, 3282
8676, 5012, 4457, 7772
8677, 6818, 5013, 3282
8678, 7769, 5013, 2756
8679, 5015, 3887, 3289
8680, 5015, 5018, 5014
8681, 3289, 5016, 5015
8682, 5015, 5016, 5018
8683, 6973, 3289, 3892
8684, 5016, 2760, 5018
8685, 2760, 5016, 5017
8686, 5016, 3289, 6973
8687, 2760, 5729, 5018
8688, 5869, 4464, 5866
8689, 5020, 5019, 3883
8690, 2254, 5499, 5498
8691, 4465, 5020, 3883
8692, 5020, 2758, 5868
8693, 5021, 5735, 5028
8694, 5734, 3248, 5494
8695, 5022, 4470, 5023
8696, 4473, 4472, 5022
8697, 5027, 5023, 4470
8698, 5027, 5026, 5023
8699, 6917, 5024, 4423
8700, 4473, 5024, 2742
8701, 4470, 5028, 5027
8702, 3248, 4970, 5495
8703, 5493, 5025, 5492
8704, 3832, 5497, 2743
8705, 4470, 5490, 5028
8706, 5026, 5027, 5025
8707, 5735, 2254, 5498
8708, 5029, 5734, 4477
8709, 5029, 3248, 5734
8710, 3889, 4476, 5029
8711, 4479, 5030, 2759
8712, 5031, 5030, 3287
8713, 5029, 5031, 3889
8714, 5030, 5031, 4477
8715, 5030, 5032, 3287
8716, 5033, 5032, 4479
8717, 5033, 3288, 5034
8718, 5032, 5033, 3890
8719, 5034, 3288, 6015
8720, 3293, 4480, 5034
8721, 4489, 5035, 676
8722, 4481, 5035, 4482
8723, 6822, 7667, 3295
8724, 5038, 5036, 3294
8725, 2763, 6827, 6832
8726, 7028, 7019, 7022
8727, 5038, 3294, 7023
8728, 3892, 4482, 5038
8729, 2260, 4506, 5039
8730, 4505, 5039, 4506
8731, 5961, 5960, 2260
8732, 5741, 6068, 6017
8733, 4506, 5502, 5501
8734, 5502, 5504, 5041
8735, 4507, 4511, 5135
8736, 4589, 5121, 5123
8737, 5508, 5043, 4513
8738, 4515, 5043, 4516
8739, 5138, 5128, 5124
8740, 5140, 8127, 5127
8741, 4518, 4522, 5175
8742, 4605, 5161, 5163
8743, 5512, 5046, 4524
8744, 4526, 5046, 4527
8745, 5178, 5168, 5164
8746, 5180, 8134, 5167
8747, 4529, 4533, 5073
8748, 4555, 5059, 5061
8749, 5516, 5049, 4535
8750, 4537, 5049, 4538
8751, 5076, 5066, 5062
8752, 5078, 8141, 5065
8753, 4540, 4544, 5103
8754, 4572, 5089, 5091
8755, 5520, 5052, 4546
8756, 4548, 5052, 4549
8757, 5106, 5096, 5092
8758, 5108, 8148, 5095
8759, 5055, 3931, 4553
8760, 5064, 5069, 4555
8761, 5059, 5055, 4553
8762, 4555, 5054, 5055
8763, 5056, 1663, 5058
8764, 3929, 5054, 5056
8765, 5057, 5060, 5062
8766, 5525, 5068, 4534
8767, 1663, 5521, 5058
8768, 5058, 5521, 5522
8769, 5060, 5059, 4553
8770, 5059, 5057, 5061
8771, 1781, 5060, 4553
8772, 5060, 1654, 5062
8773, 5063, 5061, 5057
8774, 5061, 5063, 5068
8775, 5062, 1654, 5071
8776, 5067, 5072, 5048
8777, 5072, 5063, 5057
8778, 5063, 5072, 5067
8779, 5525, 5064, 5068
8780, 5064, 5070, 5069
8781, 1654, 5075, 5077
8782, 5050, 5079, 8140
8783, 5062, 5071, 5076
8784, 5048, 5066, 5080
8785, 4529, 5067, 5048
8786, 4534, 5063, 5067
8787, 4534, 5068, 5063
8788, 5064, 5061, 5068
8789, 4555, 5069, 5056
8790, 5064, 5525, 5070
8791, 5070, 1377, 1429
8792, 1663, 5069, 5070
8793, 6424, 5075, 1654
8794, 5071, 5065, 5076
8795, 5057, 5066, 5072
8796, 5072, 5066, 5048
8797, 4534, 5067, 5073
8798, 4529, 5073, 5067
8799, 1662, 5074, 1477
8800, 1663, 5070, 5074
8801, 5075, 6974, 6975
8802, 5065, 5071, 5077
8803, 5079, 5076, 5065
8804, 5080, 4535, 5513
8805, 1654, 5077, 5071
8806, 5075, 6975, 5078
8807, 8138, 8139, 8144
8808, 5065, 5077, 5078
8809, 8141, 8139, 8140
8810, 5079, 5050, 5516
8811, 5066, 5076, 5080
8812, 5079, 5080, 5076
8813, 4557, 4562, 5523
8814, 1603, 5081, 1524
8815, 1961, 5082, 1960
8816, 5083, 5082, 1962
8817, 1962, 3016, 5083
8818, 6991, 3016, 5228
8819, 5085, 3938, 4570
8820, 5094, 5099, 4572
8821, 5089, 5085, 4570
8822, 4572, 5084, 5085
8823, 5086, 1665, 5088
8824, 3936, 5084, 5086
8825, 5087, 5090, 5092
8826, 5530, 5098, 4545
8827, 1665, 5526, 5088
8828, 5088, 5526, 5527
8829, 5090, 5089, 4570
8830, 5089, 5087, 5091
8831, 1782, 5090, 4570
8832, 5090, 1655, 5092
8833, 5093, 5091, 5087
8834, 5091, 5093, 5098
8835, 5092, 1655, 5101
8836, 5097, 5102, 5051
8837, 5102, 5093, 5087
8838, 5093, 5102, 5097
8839, 5530, 5094, 5098
8840, 5094, 5100, 5099
8841, 1655, 5105, 5107
8842, 5053, 5109, 8147
8843, 5092, 5101, 5106
8844, 5051, 5096, 5110
8845, 4540, 5097, 5051
8846, 4545, 5093, 5097
8847, 4545, 5098, 5093
8848, 5094, 5091, 5098
8849, 4572, 5099, 5086
8850, 5094, 5530, 5100
8851, 5100, 1378, 1431
8852, 1665, 5099, 5100
8853, 6427, 5105, 1655
8854, 5101, 5095, 5106
8855, 5087, 5096, 5102
8856, 5102, 5096, 5051
8857, 4545, 5097, 5103
8858, 4540, 5103, 5097
8859, 1664, 5104, 1479
8860, 1665, 5100, 5104
8861, 5105, 6977, 6978
8862, 5095, 5101, 5107
8863, 5109, 5106, 5095
8864, 5110, 4546, 5517
8865, 1655, 5107, 5101
8866, 5105, 6978, 5108
8867, 8145, 8146, 8151
8868, 5095, 5107, 5108
8869, 8148, 8146, 8147
8870, 5109, 5053, 5520
8871, 5096, 5106, 5110
8872, 5109, 5110, 5106
8873, 5111, 4127, 4129
8874, 4130, 4577, 5111
8875, 2595, 5112, 5532
8876, 5112, 2595, 6980
8877, 4574, 4579, 5528
8878, 1604, 5113, 1525
8879, 1965, 5114, 1964
8880, 5531, 5114, 1966
8881, 3939, 4583, 5115
8882, 5115, 4583, 5531
8883, 5117, 3945, 4587
8884, 5126, 5131, 4589
8885, 5121, 5117, 4587
8886, 4589, 5116, 5117
8887, 5118, 1667, 5120
8888, 3943, 5116, 5118
8889, 5119, 5122, 5124
8890, 5538, 5130, 4512
8891, 1667, 5534, 5120
8892, 5120, 5534, 5535
8893, 5122, 5121, 4587
8894, 5121, 5119, 5123
8895, 1783, 5122, 4587
8896, 5122, 1656, 5124
8897, 5125, 5123, 5119
8898, 5123, 5125, 5130
8899, 5124, 1656, 5133
8900, 5129, 5134, 5042
8901, 5134, 5125, 5119
8902, 5125, 5134, 5129
8903, 5538, 5126, 5130
8904, 5126, 5132, 5131
8905, 1656, 5137, 5139
8906, 5044, 5141, 8126
8907, 5124, 5133, 5138
8908, 5042, 5128, 5142
8909, 4507, 5129, 5042
8910, 4512, 5125, 5129
8911, 4512, 5130, 5125
8912, 5126, 5123, 5130
8913, 4589, 5131, 5118
8914, 5126, 5538, 5132
8915, 5132, 1379, 1433
8916, 1667, 5131, 5132
8917, 6430, 5137, 1656
8918, 5133, 5127, 5138
8919, 5119, 5128, 5134
8920, 5134, 5128, 5042
8921, 4512, 5129, 5135
8922, 4507, 5135, 5129
8923, 1666, 5136, 1481
8924, 1667, 5132, 5136
8925, 5137, 6981, 6982
8926, 5127, 5133, 5139
8927, 5141, 5138, 5127
8928, 5142, 4513, 5505
8929, 1656, 5139, 5133
8930, 5137, 6982, 5140
8931, 8124, 8125, 8130
8932, 5127, 5139, 5140
8933, 8127, 8125, 8126
8934, 5141, 5044, 5508
8935, 5128, 5138, 5142
8936, 5141, 5142, 5138
8937, 4591, 4595, 5536
8938, 1605, 5143, 1526
8939, 1969, 5144, 1968
8940, 1970, 4599, 5144
8941, 5146, 2886, 5147
8942, 5145, 5154, 5150
8943, 2886, 5146, 3427
8944, 5148, 5146, 5145
8945, 5149, 5147, 2429
8946, 5145, 5146, 5147
8947, 5148, 5145, 5150
8948, 1970, 5148, 4599
8949, 2429, 2430, 5151
8950, 5152, 6984, 5149
8951, 5539, 6984, 5154
8952, 3946, 5150, 4592
8953, 2430, 1698, 5151
8954, 5152, 5151, 1698
8955, 1530, 5152, 1699
8956, 5151, 5152, 5149
8957, 1593, 5153, 1530
8958, 4602, 5155, 1439
8959, 5154, 5145, 5539
8960, 5153, 5155, 6985
8961, 6985, 4602, 4592
8962, 1593, 5155, 5153
8963, 5157, 3952, 4603
8964, 5166, 5171, 4605
8965, 5161, 5157, 4603
8966, 4605, 5156, 5157
8967, 5158, 1669, 5160
8968, 3950, 5156, 5158
8969, 5159, 5162, 5164
8970, 5544, 5170, 4523
8971, 1669, 5540, 5160
8972, 5160, 5540, 5541
8973, 5162, 5161, 4603
8974, 5161, 5159, 5163
8975, 1784, 5162, 4603
8976, 5162, 1657, 5164
8977, 5165, 5163, 5159
8978, 5163, 5165, 5170
8979, 5164, 1657, 5173
8980, 5169, 5174, 5045
8981, 5174, 5165, 5159
8982, 5165, 5174, 5169
8983, 5544, 5166, 5170
8984, 5166, 5172, 5171
8985, 1657, 5177, 5179
8986, 5047, 5181, 8133
8987, 5164, 5173, 5178
8988, 5045, 5168, 5182
8989, 4518, 5169, 5045
8990, 4523, 5165, 5169
8991, 4523, 5170, 5165
8992, 5166, 5163, 5170
8993, 4605, 5171, 5158
8994, 5166, 5544, 5172
8995, 5172, 1380, 1435
8996, 1669, 5171, 5172
8997, 6433, 5177, 1657
8998, 5173, 5167, 5178
8999, 5159, 5168, 5174
9000, 5174, 5168, 5045
9001, 4523, 5169, 5175
9002, 4518, 5175, 5169
9003, 1668, 5176, 1483
9004, 1669, 5172, 5176
9005, 5177, 6986, 6987
9006, 5167, 5173, 5179
9007, 5181, 5178, 5167
9008, 5182, 4524, 5509
9009, 1657, 5179, 5173
9010, 5177, 6987, 5180
9011, 8131, 8132, 8137
9012, 5167, 5179, 5180
9013, 8134, 8132, 8133
9014, 5181, 5047, 5512
9015, 5168, 5178, 5182
9016, 5181, 5182, 5178
9017, 4138, 4610, 5183
9018, 4137, 5183, 4610
9019, 4607, 4612, 5542
9020, 1606, 5184, 1527
9021, 1973, 5185, 1972
9022, 5186, 5185, 1974
9023, 5186, 1974, 4058
9024, 4137, 4616, 5186
9025, 6933, 5187, 3962
9026, 4625, 5187, 4624
9027, 1222, 5421, 1221
9028, 5827, 5419, 5421
9029, 5549, 5548, 5742
9030, 5190, 5189, 4628
9031, 5190, 4628, 5191
9032, 5190, 4629, 5194
9033, 5191, 4628, 5192
9034, 865, 5191, 864
9035, 4628, 5742, 5192
9036, 862, 863, 5753
9037, 865, 866, 5193
9038, 3358, 5193, 866
9039, 5190, 5194, 3976
9040, 4629, 3358, 5194
9041, 3979, 5195, 3359
9042, 1822, 5195, 4632
9043, 4636, 5196, 4325
9044, 4859, 5196, 4635
9045, 1857, 5197, 2577
9046, 4643, 5197, 4644
9047, 4112, 5243, 5199
9048, 5197, 5198, 4644
9049, 6990, 6989, 7723
9050, 5198, 5199, 7723
9051, 5551, 5761, 5573
9052, 4675, 5218, 5217
9053, 2904, 6798, 5202
9054, 5203, 5201, 4653
9055, 3447, 4055, 5204
9056, 4653, 5201, 5202
9057, 5562, 7065, 5561
9058, 4023, 5206, 2388
9059, 5552, 2367, 3984
9060, 5552, 2829, 5205
9061, 5382, 5554, 2829
9062, 4653, 5204, 5205
9063, 4025, 5206, 4023
9064, 5557, 5555, 5556
9065, 5560, 4655, 2853
9066, 4027, 5207, 3397
9067, 5563, 4665, 2871
9068, 4032, 5208, 3406
9069, 5210, 4033, 3406
9070, 5209, 4666, 5211
9071, 4666, 5209, 5210
9072, 4033, 5210, 5209
9073, 5211, 4666, 5213
9074, 4925, 5211, 2721
9075, 2871, 5214, 5212
9076, 5564, 5213, 5565
9077, 5566, 4666, 5212
9078, 4944, 4940, 5564
9079, 5695, 4031, 5417
9080, 5565, 4914, 4921
9081, 3467, 4061, 5215
9082, 4063, 5215, 4061
9083, 5216, 5219, 5218
9084, 5792, 4678, 5642
9085, 4675, 5792, 5218
9086, 5221, 5217, 4650
9087, 5567, 5219, 5216
9088, 4650, 5217, 5218
9089, 4003, 5219, 4651
9090, 5200, 5568, 5219
9091, 5221, 4676, 5217
9092, 5223, 5571, 5224
9093, 5224, 5222, 5223
9094, 5221, 5220, 5570
9095, 5767, 5765, 5575
9096, 5225, 1735, 5226
9097, 5571, 5221, 4650
9098, 5223, 5222, 5225
9099, 5572, 5224, 5571
9100, 5572, 5573, 5224
9101, 5575, 5225, 5222
9102, 5576, 2594, 2985
9103, 5220, 5223, 5226
9104, 5225, 5226, 5223
9105, 5579, 5227, 5578
9106, 5794, 5579, 2675
9107, 6992, 6991, 5228
9108, 5229, 5228, 3016
9109, 3016, 2626, 5229
9110, 6791, 6790, 2626
9111, 5230, 2895, 5231
9112, 3434, 4682, 5230
9113, 5234, 5233, 6944
9114, 5235, 5231, 2895
9115, 5250, 5251, 4707
9116, 4683, 5231, 5234
9117, 4047, 5233, 5235
9118, 6994, 5233, 4047
9119, 5234, 5231, 5235
9120, 5234, 5232, 5236
9121, 4047, 5235, 2895
9122, 5234, 5235, 5233
9123, 6943, 5251, 5583
9124, 5584, 5581, 5585
9125, 5238, 4050, 3434
9126, 5239, 5237, 4683
9127, 4683, 5237, 5238
9128, 4050, 5238, 5237
9129, 5236, 5239, 4683
9130, 5239, 2687, 6912
9131, 3811, 2248, 5240
9132, 4401, 5711, 2248
9133, 4062, 5241, 4689
9134, 4964, 4411, 5241
9135, 3465, 5242, 1626
9136, 4064, 5242, 4690
9137, 5244, 5243, 2578
9138, 5199, 5243, 4699
9139, 2881, 5244, 4698
9140, 5244, 4699, 5243
9141, 5245, 2578, 2975
9142, 5246, 5245, 3526
9143, 4106, 5246, 3526
9144, 4107, 5246, 4108
9145, 5582, 4109, 6899
9146, 5247, 6902, 6904
9147, 5582, 5248, 4701
9148, 6907, 5248, 5247
9149, 4111, 4701, 5249
9150, 1991, 5249, 4701
9151, 5250, 2225, 5251
9152, 5252, 5250, 4707
9153, 2225, 5886, 5586
9154, 5236, 5232, 5583
9155, 5252, 4707, 6938
9156, 5252, 2979, 4278
9157, 2658, 5588, 6995
9158, 4732, 5253, 6995
9159, 5588, 2658, 5280
9160, 7042, 5770, 2657
9161, 5258, 5255, 4730
9162, 5257, 5255, 2653
9163, 5888, 5254, 5887
9164, 5262, 5260, 5256
9165, 5257, 2653, 5261
9166, 5257, 3042, 4731
9167, 5258, 4730, 5888
9168, 5258, 5256, 5260
9169, 5591, 5770, 5887
9170, 2657, 3045, 7042
9171, 5256, 5592, 5262
9172, 4715, 4717, 5264
9173, 5264, 2653, 5263
9174, 3041, 3588, 5261
9175, 5262, 2212, 5773
9176, 5262, 5599, 5598
9177, 2653, 5260, 5263
9178, 5262, 5598, 5260
9179, 5261, 5264, 3041
9180, 4715, 5264, 5263
9181, 3584, 5265, 3594
9182, 3038, 4734, 5265
9183, 3048, 5266, 2655
9184, 4733, 5266, 3049
9185, 5267, 5604, 5782
9186, 6160, 6115, 6117
9187, 2213, 5973, 5268
9188, 5266, 5268, 2655
9189, 5969, 5971, 5785
9190, 2656, 6121, 6997
9191, 5590, 5270, 2214
9192, 4740, 5270, 4739
9193, 5273, 5271, 2215
9194, 5607, 5271, 4743
9195, 5611, 4177, 5609
9196, 4195, 5272, 5610
9197, 3614, 5273, 2215
9198, 5274, 5273, 3616
9199, 6998, 3615, 5278
9200, 6999, 5275, 6998
9201, 5614, 5615, 5613
9202, 5274, 5275, 5612
9203, 4745, 5276, 4191
9204, 4748, 5276, 4746
9205, 3380, 5277, 2846
9206, 5616, 5277, 3381
9207, 5279, 5278, 4193
9208, 5278, 4749, 6998
9209, 5277, 5616, 4748
9210, 5618, 5279, 5617
9211, 4729, 5280, 2658
9212, 5281, 5280, 4170
9213, 4196, 5281, 4170
9214, 5610, 5281, 4195
9215, 3631, 5282, 2217
9216, 5283, 5282, 2664
9217, 3068, 5283, 2664
9218, 4751, 5283, 3069
9219, 4200, 5284, 4753
9220, 5788, 5284, 4761
9221, 5285, 5619, 5286
9222, 5285, 4763, 5287
9223, 5619, 5285, 4202
9224, 5620, 5286, 5619
9225, 5622, 5287, 4763
9226, 5638, 5287, 2665
9227, 4774, 5288, 4204
9228, 4765, 4772, 5289
9229, 5620, 5289, 2667
9230, 5289, 5620, 7000
9231, 4216, 5290, 3645
9232, 4767, 5290, 4768
9233, 5625, 5637, 5293
9234, 4214, 5631, 4772
9235, 4775, 5292, 4216
9236, 4771, 5292, 4776
9237, 5641, 5626, 5293
9238, 5622, 2665, 5287
9239, 2221, 5567, 5295
9240, 5296, 4788, 4789
9241, 5792, 5642, 5216
9242, 5295, 5795, 5797
9243, 2677, 5296, 4789
9244, 3662, 5294, 5296
9245, 3667, 4801, 5298
9246, 7121, 7120, 6053
9247, 5976, 7103, 5978
9248, 4802, 5298, 5799
9249, 4252, 5299, 2679
9250, 7081, 5299, 3668
9251, 5899, 5898, 5896
9252, 5300, 5904, 5906
9253, 4258, 5800, 5646
9254, 5302, 5301, 4807
9255, 5321, 5320, 5323
9256, 5302, 4261, 5303
9257, 5992, 5304, 4261
9258, 4255, 5303, 4260
9259, 3106, 5303, 5304
9260, 4261, 5304, 5303
9261, 5307, 5305, 2224
9262, 5305, 5310, 4809
9263, 2224, 5308, 5307
9264, 5313, 4812, 5312
9265, 2224, 5647, 5308
9266, 5307, 5306, 5311
9267, 5649, 5650, 5315
9268, 5307, 5308, 5649
9269, 5311, 5312, 5309
9270, 5309, 5314, 5908
9271, 5307, 5310, 5305
9272, 5310, 5309, 5907
9273, 5312, 5311, 5306
9274, 5310, 5311, 5309
9275, 5312, 5306, 5313
9276, 4812, 2681, 5314
9277, 5313, 5306, 5315
9278, 4813, 5316, 4271
9279, 2681, 5987, 5908
9280, 5309, 5312, 5314
9281, 5306, 5649, 5315
9282, 5308, 5650, 5649
9283, 3121, 5313, 5316
9284, 5315, 5316, 5313
9285, 5803, 5317, 4267
9286, 5324, 5317, 4810
9287, 5319, 5318, 2223
9288, 3111, 5318, 3109
9289, 5320, 5322, 5323
9290, 3109, 5319, 2682
9291, 5321, 4261, 5302
9292, 4807, 6575, 5321
9293, 5302, 4807, 5321
9294, 6575, 4807, 6573
9295, 5322, 2223, 5802
9296, 5322, 5320, 6577
9297, 5651, 5802, 4810
9298, 4261, 5323, 5992
9299, 5317, 5324, 4268
9300, 5318, 5324, 4810
9301, 3126, 4821, 5326
9302, 4276, 5325, 2686
9303, 5329, 5326, 4281
9304, 5329, 5328, 5326
9305, 7002, 5329, 4281
9306, 5805, 2226, 4824
9307, 5655, 5327, 7046
9308, 5581, 5656, 7003
9309, 5329, 7002, 5330
9310, 5328, 5329, 5327
9311, 5330, 5806, 5654
9312, 4287, 4825, 5653
9313, 4823, 5331, 3689
9314, 6912, 7004, 4282
9315, 5335, 5332, 4835
9316, 846, 5661, 5349
9317, 5335, 4835, 5657
9318, 5663, 5662, 7048
9319, 5348, 5341, 5342
9320, 5340, 5342, 5350
9321, 5657, 4835, 2231
9322, 7005, 5337, 5335
9323, 5337, 5332, 5335
9324, 5339, 5336, 5340
9325, 7005, 5335, 5333
9326, 5334, 5336, 5337
9327, 5338, 5339, 5340
9328, 5344, 5345, 5810
9329, 5340, 5336, 5334
9330, 5339, 5338, 5343
9331, 5334, 5342, 5340
9332, 5340, 5350, 5338
9333, 7006, 5348, 5342
9334, 6185, 847, 848
9335, 5337, 7005, 5334
9336, 5350, 5342, 6184
9337, 5345, 5343, 5338
9338, 4837, 5343, 5659
9339, 6169, 6170, 6137
9340, 7467, 6170, 6171
9341, 5810, 5811, 5660
9342, 5345, 5344, 5658
9343, 845, 7048, 844
9344, 847, 5661, 846
9345, 6166, 6185, 6186
9346, 6167, 6165, 6163
9347, 7006, 5342, 5334
9348, 5348, 5346, 5349
9349, 5812, 5349, 5346
9350, 845, 846, 5663
9351, 6184, 5342, 5341
9352, 5350, 5347, 5811
9353, 5351, 2229, 5352
9354, 2693, 4311, 5353
9355, 5809, 5352, 2229
9356, 3138, 5352, 2692
9357, 4837, 5351, 5353
9358, 5353, 5351, 2693
9359, 5365, 5354, 5665
9360, 4860, 5363, 5364
9361, 5359, 5355, 4316
9362, 5356, 5355, 4850
9363, 4853, 5356, 4850
9364, 5356, 4852, 5357
9365, 5357, 4852, 6218
9366, 2701, 5357, 3710
9367, 5361, 5358, 3719
9368, 5359, 5358, 3718
9369, 5358, 5359, 4856
9370, 5366, 3718, 5365
9371, 5196, 5360, 4326
9372, 4858, 5360, 4859
9373, 5358, 5361, 3718
9374, 4858, 5361, 3719
9375, 6965, 5362, 4329
9376, 5668, 5362, 4865
9377, 5668, 5363, 4323
9378, 5364, 5363, 4865
9379, 5364, 4865, 6965
9380, 5364, 5354, 5365
9381, 5665, 5354, 4843
9382, 4860, 5365, 3718
9383, 5665, 5666, 5366
9384, 3718, 5366, 5667
9385, 2703, 5668, 5368
9386, 5369, 5367, 4867
9387, 5368, 5668, 5669
9388, 5367, 5368, 5672
9389, 5369, 4867, 5370
9390, 5369, 2825, 4868
9391, 5671, 5370, 4867
9392, 2900, 3443, 5370
9393, 5372, 5371, 4334
9394, 5678, 4872, 5391
9395, 4871, 5372, 4334
9396, 5372, 3176, 5375
9397, 5673, 5373, 5678
9398, 5673, 5378, 5373
9399, 5758, 5395, 5757
9400, 5679, 5682, 5391
9401, 3176, 4881, 5376
9402, 5375, 5374, 5679
9403, 2709, 5376, 4344
9404, 5374, 5375, 5376
9405, 5378, 5377, 2706
9406, 4876, 5377, 4874
9407, 5373, 5378, 2706
9408, 4874, 5378, 4892
9409, 5398, 4874, 4892
9410, 5398, 5400, 5402
9411, 5379, 5380, 4876
9412, 5677, 5380, 2710
9413, 2235, 3734, 7007
9414, 5755, 5756, 7065
9415, 3735, 4877, 5382
9416, 4877, 4341, 5554
9417, 4347, 5383, 4883
9418, 3178, 5380, 5677
9419, 5406, 5402, 5404
9420, 5405, 5408, 5384
9421, 5386, 5385, 2234
9422, 3166, 2705, 5385
9423, 5388, 5386, 5389
9424, 3166, 5386, 2707
9425, 5387, 5388, 5389
9426, 5681, 5757, 5395
9427, 5389, 5386, 2234
9428, 5390, 5388, 5387
9429, 2234, 5391, 5389
9430, 5679, 5391, 4872
9431, 5394, 5390, 5387
9432, 5393, 5390, 3734
9433, 5397, 2234, 4890
9434, 4872, 5375, 5679
9435, 5394, 5395, 5392
9436, 5381, 5675, 5676
9437, 4338, 5393, 3734
9438, 5396, 3170, 2707
9439, 5394, 5387, 5683
9440, 5394, 5392, 7007
9441, 5391, 5682, 5389
9442, 5680, 5374, 5681
9443, 5390, 5396, 5388
9444, 3170, 5396, 5393
9445, 5678, 5397, 4889
9446, 5391, 2234, 5397
9447, 5400, 3742, 5401
9448, 4874, 5398, 5402
9449, 5399, 5405, 5404
9450, 5406, 5379, 5402
9451, 5401, 3742, 4348
9452, 5402, 5400, 5399
9453, 4348, 4885, 5403
9454, 5399, 5400, 5401
9455, 5404, 5402, 5399
9456, 5402, 5379, 4874
9457, 5403, 5401, 4348
9458, 5409, 5403, 2711
9459, 5399, 5403, 5405
9460, 5406, 5404, 5384
9461, 7008, 5411, 5412
9462, 5384, 5404, 5405
9463, 5384, 5685, 5817
9464, 5379, 5406, 2710
9465, 7008, 5408, 5405
9466, 5407, 5408, 7008
9467, 7008, 5405, 2236
9468, 5693, 5823, 5407
9469, 3182, 5409, 2711
9470, 3180, 3185, 5411
9471, 5410, 4897, 5684
9472, 5408, 5410, 5685
9473, 5411, 2712, 5412
9474, 2236, 5409, 5411
9475, 5688, 3186, 5687
9476, 3184, 3190, 5687
9477, 4351, 4895, 5414
9478, 5416, 5415, 5689
9479, 5414, 3177, 5684
9480, 4351, 5414, 5413
9481, 2713, 5413, 5416
9482, 5691, 5690, 5415
9483, 4897, 5822, 5413
9484, 4897, 5410, 5823
9485, 4916, 5694, 5417
9486, 4914, 5695, 5694
9487, 3400, 4625, 5696
9488, 5418, 4938, 5420
9489, 5421, 5419, 5188
9490, 4938, 5418, 5419
9491, 5697, 5825, 5826
9492, 6675, 7491, 7488
9493, 1221, 5421, 5188
9494, 5925, 5827, 5421
9495, 3208, 5422, 2724
9496, 3767, 5422, 3209
9497, 4366, 5423, 3768
9498, 5422, 5423, 4939
9499, 4941, 5424, 4369
9500, 4943, 5424, 4940
9501, 4922, 5425, 4919
9502, 3760, 5425, 4357
9503, 4943, 4944, 5426
9504, 5425, 5426, 4944
9505, 5428, 4380, 3232
9506, 5436, 5431, 4946
9507, 3232, 4386, 5429
9508, 4946, 5427, 5428
9509, 5429, 2733, 5430
9510, 3232, 5429, 5428
9511, 5434, 5430, 2733
9512, 5435, 5434, 5702
9513, 2730, 5698, 5431
9514, 5431, 5698, 5700
9515, 2733, 5701, 5434
9516, 5841, 5839, 5840
9517, 5433, 5702, 5703
9518, 2244, 5451, 5450
9519, 5701, 2733, 4387
9520, 5434, 6014, 5702
9521, 5434, 5435, 5430
9522, 5436, 5435, 5433
9523, 5450, 5708, 5937
9524, 5436, 2730, 5431
9525, 5437, 4384, 4951
9526, 4383, 5437, 4950
9527, 4949, 7009, 2734
9528, 3791, 4952, 5438
9529, 5704, 3791, 3784
9530, 5831, 5701, 4387
9531, 4384, 4952, 5440
9532, 5934, 4952, 5439
9533, 4954, 5444, 5446
9534, 5445, 4390, 5441
9535, 5444, 4954, 5705
9536, 7724, 1241, 7728
9537, 7724, 7010, 7725
9538, 5445, 5443, 5448
9539, 5705, 4954, 2246
9540, 7011, 5444, 5442
9541, 5446, 5445, 5441
9542, 5448, 7016, 5447
9543, 4954, 5446, 5441
9544, 5446, 5444, 7011
9545, 5708, 2730, 5436
9546, 5448, 5945, 5445
9547, 5448, 5443, 7016
9548, 5447, 5846, 5945
9549, 5441, 5449, 4391
9550, 5709, 5449, 4390
9551, 5447, 5708, 5846
9552, 5447, 5830, 5708
9553, 5451, 2244, 5452
9554, 2729, 4955, 5451
9555, 5936, 2244, 5703
9556, 2731, 3221, 5452
9557, 3805, 5453, 4389
9558, 5449, 5453, 4391
9559, 2415, 4667, 5455
9560, 5456, 5454, 4957
9561, 4062, 5710, 4668
9562, 4957, 5454, 5455
9563, 5848, 4957, 5847
9564, 5456, 2873, 4671
9565, 4403, 4961, 5457
9566, 5458, 5457, 4961
9567, 4407, 5458, 4961
9568, 5456, 5458, 2873
9569, 4395, 5459, 4403
9570, 2740, 5459, 4405
9571, 3009, 5460, 4148
9572, 5460, 4965, 5464
9573, 5461, 5464, 4415
9574, 4971, 4421, 5713
9575, 5464, 5462, 5460
9576, 5461, 5713, 5715
9577, 5462, 5715, 5463
9578, 5854, 4421, 5716
9579, 4415, 5464, 4965
9580, 5462, 5464, 5461
9581, 5466, 5465, 2249
9582, 5465, 5466, 5717
9583, 2391, 5466, 3830
9584, 5466, 4972, 5717
9585, 4975, 5467, 4425
9586, 4408, 2740, 5469
9587, 5468, 4980, 4429
9588, 4976, 5467, 5468
9589, 4408, 5469, 5467
9590, 5471, 2740, 4405
9591, 3852, 5470, 4979
9592, 4976, 5468, 5470
9593, 5468, 5471, 4980
9594, 2740, 5471, 5469
9595, 3856, 5472, 3857
9596, 5473, 5472, 3850
9597, 5477, 5473, 4437
9598, 5472, 5473, 4987
9599, 2750, 5476, 5719
9600, 5720, 4982, 4984
9601, 5482, 5000, 5481
9602, 5475, 5482, 5721
9603, 4997, 5476, 2750
9604, 4995, 5476, 4446
9605, 3861, 5477, 3259
9606, 4987, 5477, 4998
9607, 3866, 5478, 3861
9608, 5478, 3264, 4997
9609, 4451, 5479, 4454
9610, 2751, 5000, 5479
9611, 4439, 5855, 5483
9612, 2751, 5480, 5000
9613, 5481, 2251, 5484
9614, 5482, 4453, 5000
9615, 5484, 5482, 5481
9616, 4991, 5721, 4996
9617, 2251, 5481, 5483
9618, 5480, 5483, 5481
9619, 2251, 5722, 5484
9620, 5724, 5474, 5719
9621, 5004, 5485, 4454
9622, 5859, 5485, 5001
9623, 4460, 5486, 2754
9624, 5002, 5486, 3272
9625, 2753, 5858, 5857
9626, 5862, 5487, 5857
9627, 7020, 2760, 7021
9628, 3288, 5871, 6015
9629, 5730, 5488, 5865
9630, 5870, 5871, 4479
9631, 3885, 5490, 4472
9632, 5028, 5490, 5021
9633, 4466, 5491, 3885
9634, 2254, 5021, 5491
9635, 5493, 5492, 2743
9636, 5492, 5025, 5494
9637, 5497, 5493, 2743
9638, 5025, 5493, 5026
9639, 5025, 5732, 5494
9640, 5732, 5028, 5733
9641, 4417, 5492, 5495
9642, 5494, 5495, 5492
9643, 6918, 3835, 4422
9644, 4423, 5026, 5496
9645, 3835, 5496, 5497
9646, 5026, 5497, 5496
9647, 5499, 2254, 5019
9648, 5873, 2759, 5877
9649, 4468, 5959, 5019
9650, 5499, 5019, 5959
9651, 5500, 5960, 5878
9652, 5501, 5502, 5041
9653, 5502, 4506, 5500
9654, 5501, 5041, 5503
9655, 5040, 5740, 5500
9656, 5504, 700, 5739
9657, 5737, 5503, 5041
9658, 703, 5881, 5880
9659, 5502, 5740, 5504
9660, 700, 5741, 699
9661, 5506, 5505, 4514
9662, 5142, 5505, 5042
9663, 4510, 5506, 4514
9664, 4507, 5042, 5506
9665, 2099, 1786, 5507
9666, 5507, 1786, 4517
9667, 5141, 5508, 4513
9668, 5507, 5508, 5044
9669, 5510, 5509, 4525
9670, 5182, 5509, 5045
9671, 4521, 5510, 4525
9672, 4518, 5045, 5510
9673, 2103, 1788, 5511
9674, 5511, 1788, 4528
9675, 5181, 5512, 4524
9676, 5511, 5512, 5047
9677, 5514, 5513, 4536
9678, 5080, 5513, 5048
9679, 4532, 5514, 4536
9680, 4529, 5048, 5514
9681, 2107, 1790, 5515
9682, 5515, 1790, 4539
9683, 5079, 5516, 4535
9684, 5515, 5516, 5050
9685, 5518, 5517, 4547
9686, 5110, 5517, 5051
9687, 4543, 5518, 4547
9688, 4540, 5051, 5518
9689, 2111, 1792, 5519
9690, 5519, 1792, 4550
9691, 5109, 5520, 4546
9692, 5519, 5520, 5053
9693, 5074, 5521, 1663
9694, 5522, 5521, 1430
9695, 1688, 5522, 1430
9696, 5522, 5524, 5523
9697, 5522, 1688, 5524
9698, 4557, 5523, 5081
9699, 1524, 5081, 5524
9700, 5081, 5523, 5524
9701, 4531, 5525, 4534
9702, 5070, 5525, 1377
9703, 5104, 5526, 1665
9704, 5527, 5526, 1432
9705, 1689, 5527, 1432
9706, 5527, 5529, 5528
9707, 5527, 1689, 5529
9708, 4574, 5528, 5113
9709, 1525, 5113, 5529
9710, 5113, 5528, 5529
9711, 4542, 5530, 4545
9712, 5100, 5530, 1378
9713, 5532, 5531, 1966
9714, 5112, 5533, 5531
9715, 2595, 5532, 2986
9716, 5531, 5532, 5112
9717, 5531, 5533, 4577
9718, 5533, 5112, 6980
9719, 5136, 5534, 1667
9720, 5535, 5534, 1434
9721, 1690, 5535, 1434
9722, 5535, 5537, 5536
9723, 5535, 1690, 5537
9724, 4591, 5536, 5143
9725, 1526, 5143, 5537
9726, 5143, 5536, 5537
9727, 4509, 5538, 4512
9728, 5132, 5538, 1379
9729, 5147, 5149, 5539
9730, 5149, 6984, 5539
9731, 5176, 5540, 1669
9732, 5541, 5540, 1436
9733, 1691, 5541, 1436
9734, 5541, 5543, 5542
9735, 5541, 1691, 5543
9736, 4607, 5542, 5184
9737, 1527, 5184, 5543
9738, 5184, 5542, 5543
9739, 4520, 5544, 4523
9740, 5172, 5544, 1380
9741, 5545, 4624, 6933
9742, 1221, 5188, 5545
9743, 5193, 5546, 865
9744, 5190, 5546, 4629
9745, 5189, 5549, 4628
9746, 5753, 5547, 5192
9747, 5743, 5548, 6072
9748, 5189, 3393, 5549
9749, 5745, 5549, 3393
9750, 5743, 5192, 5742
9751, 5744, 6072, 5548
9752, 5551, 2360, 5761
9753, 5219, 5551, 5200
9754, 2367, 5552, 5204
9755, 2829, 5552, 3366
9756, 5554, 5553, 5205
9757, 5558, 5553, 4341
9758, 2829, 5554, 5205
9759, 5554, 5382, 4877
9760, 5557, 5556, 5206
9761, 5562, 5561, 2853
9762, 5557, 5206, 5203
9763, 5556, 5555, 5754
9764, 5203, 5558, 5557
9765, 4341, 5675, 5559
9766, 5553, 5558, 5203
9767, 5559, 5558, 4341
9768, 5555, 5557, 5559
9769, 5559, 5557, 5558
9770, 5561, 5560, 2853
9771, 3397, 5207, 5560
9772, 5754, 5562, 2853
9773, 3397, 5561, 4343
9774, 5555, 5559, 5562
9775, 5381, 5755, 5559
9776, 5212, 5563, 2871
9777, 3406, 5208, 5563
9778, 4940, 5213, 5564
9779, 5566, 5213, 4666
9780, 5565, 5214, 4914
9781, 5564, 5565, 5760
9782, 5214, 5566, 5212
9783, 5213, 5566, 5565
9784, 5219, 5567, 4651
9785, 5295, 5567, 5216
9786, 5568, 5200, 5572
9787, 5218, 5219, 5568
9788, 5570, 2883, 2384
9789, 5226, 5569, 5220
9790, 5221, 5570, 4676
9791, 5569, 5570, 5220
9792, 5221, 5571, 5223
9793, 5572, 5571, 4650
9794, 5568, 5572, 4650
9795, 5573, 5572, 5200
9796, 5573, 5200, 5551
9797, 1614, 5762, 2849
9798, 5222, 5224, 5574
9799, 5573, 5574, 5224
9800, 5767, 5574, 5763
9801, 5575, 5885, 2594
9802, 1735, 5225, 5576
9803, 5576, 5225, 5768
9804, 4679, 5577, 4678
9805, 5578, 5577, 3095
9806, 4799, 5578, 3095
9807, 5579, 5578, 4244
9808, 4796, 5579, 4244
9809, 5794, 2675, 5580
9810, 5580, 2675, 7037
9811, 5294, 5797, 4788
9812, 5583, 5584, 5585
9813, 5587, 5655, 5656
9814, 6899, 4109, 6898
9815, 5248, 5582, 5247
9816, 6943, 5583, 5232
9817, 5583, 5251, 5584
9818, 2225, 5586, 5251
9819, 5251, 5586, 5584
9820, 2687, 5585, 5581
9821, 5583, 5585, 5236
9822, 5886, 2225, 4274
9823, 2686, 5328, 5769
9824, 5581, 5584, 5587
9825, 5586, 5587, 5584
9826, 4750, 5589, 7040
9827, 6995, 5588, 5254
9828, 4750, 5281, 5610
9829, 4739, 5270, 5590
9830, 5591, 5590, 2214
9831, 5590, 5589, 7043
9832, 2214, 5771, 5591
9833, 5254, 5588, 7040
9834, 7041, 5256, 5259
9835, 2212, 5592, 5593
9836, 7041, 5592, 5256
9837, 7041, 5595, 5596
9838, 3044, 3586, 5889
9839, 2212, 5593, 5594
9840, 5591, 5887, 5254
9841, 2654, 5596, 3045
9842, 7041, 5596, 5593
9843, 3045, 5596, 5595
9844, 5772, 2212, 5594
9845, 5779, 5780, 4160
9846, 5262, 5773, 5599
9847, 5263, 5260, 5598
9848, 5600, 5599, 5597
9849, 5781, 5263, 5598
9850, 5600, 5597, 5601
9851, 5602, 5600, 4718
9852, 5601, 5597, 5776
9853, 5776, 5780, 5601
9854, 4719, 5602, 4718
9855, 4715, 5263, 5781
9856, 5268, 5603, 2213
9857, 5604, 5603, 4735
9858, 4733, 5604, 4735
9859, 5782, 5604, 4167
9860, 5968, 5605, 6033
9861, 6041, 6040, 2650
9862, 5603, 5890, 2213
9863, 5785, 5890, 5786
9864, 5612, 5607, 4743
9865, 4742, 5607, 4177
9866, 4194, 5608, 4195
9867, 4742, 5608, 2661
9868, 4177, 5612, 5613
9869, 5609, 5615, 7043
9870, 5611, 5610, 5272
9871, 5589, 4750, 5610
9872, 4177, 5611, 5272
9873, 5611, 5609, 7043
9874, 5274, 5612, 4743
9875, 5612, 5275, 5613
9876, 5275, 5614, 5613
9877, 5787, 5614, 4174
9878, 6999, 5614, 5275
9879, 5614, 5787, 5615
9880, 4740, 5615, 2659
9881, 5615, 4739, 7043
9882, 3381, 3997, 5616
9883, 5617, 5616, 3997
9884, 3056, 5617, 4176
9885, 5616, 5617, 5279
9886, 6999, 3056, 4174
9887, 4749, 5279, 5618
9888, 3633, 5619, 4202
9889, 5620, 5619, 3078
9890, 5620, 3078, 7000
9891, 2667, 5286, 5620
9892, 3627, 5621, 3071
9893, 5285, 5621, 3628
9894, 5622, 5627, 5625
9895, 5624, 5622, 5625
9896, 4763, 5629, 5627
9897, 5790, 5636, 5789
9898, 5641, 5293, 5640
9899, 2665, 5622, 5624
9900, 5627, 5622, 4763
9901, 5623, 5636, 5637
9902, 2217, 5633, 3631
9903, 5788, 4761, 7729
9904, 4763, 5286, 5629
9905, 5623, 5625, 5627
9906, 5633, 5630, 5632
9907, 7729, 7044, 5788
9908, 5631, 5629, 2667
9909, 5623, 5627, 5629
9910, 7730, 7044, 7729
9911, 6564, 7445, 7714
9912, 4772, 5631, 2667
9913, 5635, 5631, 5291
9914, 5633, 5632, 5626
9915, 5632, 5630, 5634
9916, 3631, 5633, 5626
9917, 5284, 5788, 2217
9918, 5630, 5788, 7044
9919, 1081, 7444, 1080
9920, 5291, 5639, 5789
9921, 5629, 5635, 5623
9922, 5623, 5635, 5636
9923, 5635, 5291, 5789
9924, 5623, 5637, 5625
9925, 5640, 5636, 4779
9926, 2665, 5634, 5638
9927, 7445, 5638, 5634
9928, 5789, 5639, 2218
9929, 7001, 5639, 5291
9930, 5791, 5641, 5640
9931, 5637, 5640, 5293
9932, 5791, 5640, 3076
9933, 5626, 5641, 5791
9934, 4678, 5793, 5642
9935, 5794, 5795, 5793
9936, 6088, 7116, 6045
9937, 7151, 7154, 909
9938, 5894, 5799, 5298
9939, 5895, 5644, 5894
9940, 5900, 5897, 5899
9941, 5801, 5646, 5645
9942, 4258, 5646, 5301
9943, 5801, 5645, 5896
9944, 6805, 5647, 2224
9945, 4827, 5647, 4291
9946, 4814, 5648, 2684
9947, 5316, 5648, 4271
9948, 5307, 5649, 5306
9949, 5650, 5308, 4827
9950, 5914, 5913, 5912
9951, 5315, 5650, 5912
9952, 5803, 5804, 5986
9953, 5986, 5909, 5989
9954, 5327, 5330, 7047
9955, 5652, 5654, 5653
9956, 2226, 5653, 4825
9957, 5652, 7047, 5654
9958, 5806, 5330, 7002
9959, 5653, 5654, 5913
9960, 5656, 5655, 4285
9961, 5587, 5328, 5655
9962, 7003, 5656, 4285
9963, 5587, 5656, 5581
9964, 5657, 6060, 6001
9965, 5335, 5657, 6000
9966, 5996, 5994, 5915
9967, 5809, 2229, 5994
9968, 5345, 5659, 5343
9969, 2229, 5659, 5658
9970, 5660, 6164, 6163
9971, 850, 6137, 6165
9972, 847, 6185, 6168
9973, 5341, 5349, 5661
9974, 5813, 5812, 5346
9975, 5815, 5662, 5813
9976, 846, 5349, 5663
9977, 5663, 5349, 5812
9978, 4861, 5664, 3161
9979, 4846, 5354, 5664
9980, 5666, 5665, 4843
9981, 5365, 5665, 5366
9982, 4847, 5666, 4843
9983, 4850, 5666, 4851
9984, 3718, 5667, 5359
9985, 5666, 5667, 5366
9986, 5362, 5668, 2703
9987, 5668, 4865, 5363
9988, 4323, 4859, 5669
9989, 5670, 4859, 4635
9990, 5671, 5670, 4635
9991, 5367, 5672, 4867
9992, 5816, 5671, 4635
9993, 5671, 2900, 5370
9994, 5368, 5670, 5672
9995, 5671, 5672, 5670
9996, 4891, 5673, 4889
9997, 5378, 5673, 4892
9998, 3740, 5674, 3178
9999, 4875, 5674, 4337
10000, 5676, 4877, 2235
10001, 5559, 5675, 5381
10002, 7007, 5676, 2235
10003, 5759, 5392, 5758
10004, 4884, 5677, 2710
10005, 3178, 5677, 5383
10006, 4872, 5678, 5373
10007, 5397, 5678, 5391
10008, 5374, 5680, 5679
10009, 5389, 5682, 5387
10010, 5374, 5376, 5681
10011, 5680, 5683, 5682
10012, 2709, 7064, 5757
10013, 5395, 5680, 5681
10014, 5679, 5680, 5682
10015, 5680, 5395, 5683
10016, 5394, 5683, 5395
10017, 5387, 5682, 5683
10018, 5414, 5684, 4897
10019, 4884, 5684, 3177
10020, 5684, 4884, 5685
10021, 5817, 5685, 4884
10022, 5819, 5686, 5919
10023, 5686, 5687, 5919
10024, 2714, 5687, 3190
10025, 5688, 5687, 5686
10026, 5688, 5686, 5824
10027, 2712, 5688, 5412
10028, 5416, 5689, 2713
10029, 5689, 5415, 5690
10030, 5691, 5415, 5818
10031, 4905, 5692, 4904
10032, 5922, 5820, 5921
10033, 5821, 5691, 5921
10034, 4901, 5690, 5692
10035, 7067, 5690, 5691
10036, 5407, 5824, 5693
10037, 2237, 5818, 5819
10038, 4917, 5694, 4916
10039, 5695, 4914, 5214
10040, 5695, 2871, 4665
10041, 5694, 5695, 5417
10042, 5188, 5696, 4625
10043, 5418, 5696, 5419
10044, 1225, 7049, 7051
10045, 5829, 5926, 5929
10046, 5830, 5699, 5698
10047, 5700, 5698, 3224
10048, 7017, 5699, 7016
10049, 5698, 5699, 7493
10050, 3796, 5700, 3224
10051, 5427, 5700, 3797
10052, 5934, 4387, 5440
10053, 5701, 5941, 6014
10054, 5703, 5702, 5432
10055, 5435, 5702, 5433
10056, 5703, 5432, 5832
10057, 5703, 2244, 5833
10058, 5834, 5704, 3784
10059, 5836, 5704, 5939
10060, 5942, 5706, 5707
10061, 5444, 5705, 5845
10062, 7499, 7496, 7497
10063, 7764, 7753, 7758
10064, 5707, 2246, 5943
10065, 5707, 5706, 5944
10066, 5937, 5433, 5833
10067, 5846, 5708, 5450
10068, 5846, 5709, 4390
10069, 5451, 5709, 5450
10070, 5710, 4062, 5711
10071, 5455, 4668, 5710
10072, 4062, 5849, 5711
10073, 5711, 5849, 2248
10074, 5461, 4415, 5712
10075, 4415, 3834, 5712
10076, 5713, 4421, 5715
10077, 5712, 5713, 5461
10078, 5850, 5714, 4082
10079, 4148, 5853, 2609
10080, 5715, 5462, 5461
10081, 4421, 5463, 5715
10082, 7059, 4972, 2391
10083, 7061, 5854, 5716
10084, 7058, 5717, 4972
10085, 4971, 5717, 4421
10086, 5472, 5718, 3857
10087, 4987, 5474, 5718
10088, 4996, 5484, 5719
10089, 5484, 5722, 5724
10090, 5718, 5720, 3857
10091, 5720, 5474, 5724
10092, 5475, 5721, 4991
10093, 5484, 5721, 5482
10094, 5855, 2251, 5483
10095, 5724, 5722, 4982
10096, 2749, 5856, 5723
10097, 4983, 5725, 4443
10098, 5724, 4982, 5720
10099, 5484, 5724, 5719
10100, 4982, 5725, 4984
10101, 5725, 5723, 5856
10102, 5008, 5726, 5010
10103, 2753, 5487, 5726
10104, 5861, 2252, 5864
10105, 5948, 7075, 5728
10106, 7768, 7769, 6816
10107, 3878, 6814, 6815
10108, 5017, 7021, 2760
10109, 5730, 5729, 5488
10110, 5488, 7035, 5865
10111, 5730, 5489, 5866
10112, 5870, 5874, 5731
10113, 5872, 5871, 5731
10114, 5025, 5028, 5732
10115, 5028, 5735, 5733
10116, 5958, 5733, 5498
10117, 5877, 4477, 5734
10118, 5494, 5733, 5734
10119, 5877, 5734, 5733
10120, 2254, 5735, 5021
10121, 5733, 5735, 5498
10122, 7177, 7179, 7824
10123, 5741, 6017, 699
10124, 5739, 5737, 5041
10125, 702, 5737, 701
10126, 5503, 5737, 5880
10127, 5881, 5738, 5880
10128, 700, 701, 5739
10129, 5739, 701, 5737
10130, 5500, 5740, 5502
10131, 5740, 5040, 6068
10132, 6068, 5504, 5740
10133, 6068, 6016, 6017
10134, 5549, 5742, 4628
10135, 5743, 5742, 5548
10136, 6032, 6031, 5744
10137, 5743, 5550, 5753
10138, 5752, 5964, 2228
10139, 5744, 6022, 6024
10140, 4019, 5745, 3393
10141, 5745, 2364, 5746
10142, 2364, 3392, 5747
10143, 5746, 2228, 6032
10144, 3392, 3134, 5747
10145, 5749, 3134, 2691
10146, 6032, 5748, 5746
10147, 5548, 5549, 5748
10148, 5750, 5749, 2691
10149, 5746, 5747, 5749
10150, 5883, 5752, 2691
10151, 5746, 5750, 2228
10152, 7079, 6021, 7773
10153, 6026, 7462, 6023
10154, 2691, 5752, 5750
10155, 6018, 5964, 5752
10156, 5743, 5753, 5192
10157, 5753, 5550, 6030
10158, 5556, 5754, 4026
10159, 5562, 5754, 5555
10160, 5755, 5381, 5756
10161, 5562, 5559, 5755
10162, 5676, 5759, 5381
10163, 5756, 5757, 7064
10164, 2709, 5757, 5681
10165, 5758, 5757, 5756
10166, 5759, 5756, 5381
10167, 5395, 5758, 5392
10168, 5759, 5676, 7007
10169, 5756, 5759, 5758
10170, 5564, 5760, 4944
10171, 4921, 5760, 5565
10172, 3387, 5761, 2360
10173, 5762, 5761, 2849
10174, 5574, 5762, 1614
10175, 5761, 5762, 5573
10176, 5764, 5763, 1614
10177, 5765, 5763, 3425
10178, 5764, 1614, 2884
10179, 3425, 5764, 3426
10180, 6792, 5766, 3425
10181, 5767, 5575, 5222
10182, 6789, 3424, 6788
10183, 2592, 5967, 5966
10184, 5574, 5767, 5222
10185, 5763, 5765, 5767
10186, 5576, 5768, 2594
10187, 5225, 5575, 5768
10188, 5586, 5769, 5587
10189, 3682, 2686, 5769
10190, 5771, 2214, 4738
10191, 7041, 7066, 5595
10192, 2657, 5771, 4738
10193, 5591, 5771, 5770
10194, 5775, 2652, 5776
10195, 5774, 5773, 2212
10196, 5774, 2212, 5772
10197, 5599, 5773, 5597
10198, 5775, 5774, 5772
10199, 5776, 5774, 5775
10200, 5772, 3040, 5775
10201, 5777, 5775, 3040
10202, 5776, 2652, 5780
10203, 5597, 5774, 5776
10204, 3586, 5777, 3040
10205, 5777, 3583, 4159
10206, 4720, 5778, 4727
10207, 5600, 5778, 4718
10208, 2211, 5779, 4160
10209, 5778, 5779, 4727
10210, 4160, 5780, 2652
10211, 5601, 5780, 5779
10212, 5599, 5602, 5781
10213, 4715, 5781, 5602
10214, 5783, 5782, 4167
10215, 5782, 5605, 5786
10216, 4734, 5783, 4167
10217, 5783, 2651, 5784
10218, 4726, 5784, 2651
10219, 6074, 6073, 4724
10220, 5267, 5782, 5786
10221, 5969, 5606, 6043
10222, 6075, 5891, 5968
10223, 5785, 5786, 5892
10224, 4173, 5787, 4174
10225, 2659, 5615, 5787
10226, 5630, 5633, 5788
10227, 2217, 5788, 5633
10228, 5790, 5789, 2218
10229, 5635, 5789, 5636
10230, 4778, 5790, 2218
10231, 4779, 5636, 5790
10232, 3630, 5791, 3076
10233, 5626, 5791, 3631
10234, 5218, 5792, 5216
10235, 4678, 5792, 4675
10236, 5577, 5793, 4678
10237, 5794, 5793, 5227
10238, 5579, 5794, 5227
10239, 5794, 5580, 5795
10240, 5796, 5795, 5580
10241, 5642, 5795, 5295
10242, 5796, 5580, 7039
10243, 5797, 5796, 4788
10244, 5295, 5797, 5294
10245, 5796, 5797, 5795
10246, 4248, 7100, 7099
10247, 5895, 5894, 5798
10248, 5894, 5298, 5893
10249, 7045, 5799, 5644
10250, 7081, 5902, 4803
10251, 5646, 5800, 5645
10252, 6571, 6574, 6580
10253, 6571, 6572, 6574
10254, 4810, 5802, 2223
10255, 5989, 5802, 5651
10256, 5804, 5803, 4267
10257, 5651, 4810, 5803
10258, 5907, 5804, 4267
10259, 5908, 5987, 5804
10260, 7046, 4824, 4285
10261, 5653, 5805, 5652
10262, 3122, 5910, 5806
10263, 4273, 5911, 5910
10264, 6059, 6098, 6095
10265, 6595, 6599, 6592
10266, 5658, 5344, 6095
10267, 7777, 5996, 5807
10268, 5994, 2229, 5658
10269, 5809, 5808, 7108
10270, 5811, 5810, 5345
10271, 6096, 5810, 5660
10272, 5350, 5811, 5338
10273, 5347, 5660, 5811
10274, 5346, 7005, 5813
10275, 5663, 5812, 5662
10276, 5998, 5999, 5916
10277, 5662, 5812, 5813
10278, 5998, 5814, 6008
10279, 6007, 6104, 5814
10280, 5999, 5813, 5333
10281, 5815, 5998, 6008
10282, 4636, 5816, 4635
10283, 4684, 5816, 3981
10284, 2710, 5817, 4884
10285, 5384, 5817, 5406
10286, 5415, 5416, 5920
10287, 5921, 5818, 2237
10288, 5818, 5415, 5920
10289, 5824, 5819, 5693
10290, 2715, 3195, 5924
10291, 4904, 7067, 5821
10292, 2715, 5924, 5820
10293, 7111, 5924, 6012
10294, 5823, 5822, 4897
10295, 5920, 5822, 5693
10296, 5407, 5823, 5410
10297, 5822, 5823, 5693
10298, 5688, 5824, 5407
10299, 5819, 5824, 5686
10300, 5826, 5825, 4938
10301, 5825, 5697, 5927
10302, 5827, 5826, 4938
10303, 5826, 1223, 5828
10304, 5419, 5827, 4938
10305, 5421, 1222, 5925
10306, 1223, 1224, 5828
10307, 7051, 7050, 1224
10308, 7049, 7056, 7050
10309, 7739, 7740, 7745
10310, 5708, 5830, 2730
10311, 7016, 5830, 5447
10312, 5836, 5935, 5439
10313, 5840, 2245, 5838
10314, 5832, 5432, 5940
10315, 5841, 3227, 5842
10316, 5450, 5833, 2244
10317, 5436, 5937, 5708
10318, 5835, 3784, 3787
10319, 3234, 5938, 3218
10320, 3218, 5835, 2728
10321, 3784, 5835, 5834
10322, 5439, 5704, 5836
10323, 5704, 5834, 5939
10324, 3231, 5837, 2735
10325, 2245, 5836, 5837
10326, 2245, 5837, 5838
10327, 3231, 5838, 5837
10328, 5702, 6014, 5432
10329, 5839, 5831, 5935
10330, 5841, 2732, 3227
10331, 2245, 5840, 5839
10332, 2732, 5841, 5840
10333, 5842, 3227, 3228
10334, 2731, 5842, 3228
10335, 5832, 5841, 5842
10336, 6809, 6810, 5943
10337, 5843, 6810, 6812
10338, 7755, 5706, 7756
10339, 1240, 7761, 1239
10340, 5707, 5845, 5705
10341, 5442, 5845, 5844
10342, 5709, 5846, 5450
10343, 5945, 5846, 4390
10344, 5848, 4398, 4403
10345, 5455, 5847, 4957
10346, 4957, 5848, 5457
10347, 4398, 5848, 5847
10348, 4689, 5849, 4062
10349, 2248, 5849, 5240
10350, 4081, 5850, 4082
10351, 3011, 4077, 5946
10352, 4150, 5852, 3571
10353, 5853, 5851, 2609
10354, 2131, 5852, 1846
10355, 5852, 5851, 5946
10356, 2608, 5714, 5853
10357, 5851, 5853, 5714
10358, 4421, 5854, 5463
10359, 7061, 5716, 7060
10360, 5855, 4439, 4988
10361, 2749, 5723, 5855
10362, 3263, 5856, 2749
10363, 5725, 5856, 4443
10364, 5007, 7069, 2753
10365, 5862, 5857, 5727
10366, 4449, 5485, 5859
10367, 5727, 5857, 5858
10368, 5860, 5859, 5001
10369, 5859, 5858, 7069
10370, 5002, 5860, 5001
10371, 5860, 2252, 5861
10372, 2252, 3270, 5864
10373, 5858, 5861, 5727
10374, 7073, 7074, 5863
10375, 5947, 5009, 5487
10376, 3271, 7071, 7072
10377, 7768, 7070, 7772
10378, 7072, 3270, 2752
10379, 5861, 5864, 5863
10380, 5956, 2255, 3899
10381, 5730, 5865, 5957
10382, 5867, 5866, 5489
10383, 5018, 5866, 4464
10384, 5867, 5876, 5875
10385, 4468, 5020, 5868
10386, 5869, 2758, 4464
10387, 4468, 5868, 5867
10388, 5867, 5869, 5866
10389, 2758, 5869, 5868
10390, 5874, 2759, 5873
10391, 5871, 5870, 5731
10392, 5731, 5876, 5872
10393, 5871, 3288, 5033
10394, 5489, 5957, 5872
10395, 5865, 2255, 5956
10396, 5498, 5959, 5958
10397, 5875, 5874, 5873
10398, 2759, 5874, 5870
10399, 5873, 5959, 5875
10400, 4468, 5867, 5875
10401, 5876, 5867, 5489
10402, 5872, 5876, 5489
10403, 5731, 5875, 5876
10404, 5877, 5733, 5958
10405, 4477, 5877, 2759
10406, 5960, 5500, 2260
10407, 6066, 6016, 5878
10408, 6440, 5879, 2639
10409, 4065, 5879, 2158
10410, 703, 5880, 702
10411, 5503, 5880, 5738
10412, 704, 5881, 703
10413, 5879, 5881, 2639
10414, 5883, 2691, 3133
10415, 7077, 221, 7078
10416, 222, 5883, 3133
10417, 5883, 5882, 5963
10418, 5884, 6018, 6020
10419, 6022, 6027, 6024
10420, 5966, 5885, 5766
10421, 5967, 5885, 5966
10422, 3682, 5769, 5886
10423, 5586, 5886, 5769
10424, 7066, 5887, 5770
10425, 5888, 5887, 5259
10426, 5258, 5888, 5259
10427, 5888, 4730, 6995
10428, 3040, 5772, 5889
10429, 5594, 5889, 5772
10430, 5786, 5890, 5267
10431, 5972, 5785, 5971
10432, 6035, 5891, 6039
10433, 6038, 5975, 6035
10434, 6034, 5786, 5968
10435, 5975, 6036, 6035
10436, 7099, 5893, 4248
10437, 5894, 5893, 5798
10438, 5895, 5798, 5976
10439, 5799, 5894, 5644
10440, 5976, 6089, 5895
10441, 5895, 6132, 7145
10442, 5899, 5897, 5898
10443, 5300, 5801, 5896
10444, 5897, 6048, 5905
10445, 6582, 5985, 914
10446, 5905, 5903, 5904
10447, 5898, 5905, 5904
10448, 5902, 5645, 5800
10449, 5900, 2222, 6049
10450, 5902, 5900, 5899
10451, 5900, 5902, 7081
10452, 6048, 6051, 5905
10453, 6050, 5982, 6126
10454, 5645, 5902, 5899
10455, 4803, 5902, 5800
10456, 5984, 6056, 5983
10457, 915, 6579, 6582
10458, 5905, 5898, 5897
10459, 5906, 5904, 5903
10460, 6048, 6049, 7119
10461, 5983, 5905, 6051
10462, 5906, 5903, 5985
10463, 6578, 6565, 6569
10464, 5310, 5907, 4267
10465, 5908, 5907, 5309
10466, 2681, 5908, 5314
10467, 5907, 5908, 5804
10468, 5909, 5987, 6058
10469, 5989, 5323, 5802
10470, 4819, 5910, 3122
10471, 5911, 4273, 2684
10472, 2684, 5315, 5912
10473, 5912, 5913, 5911
10474, 5914, 5650, 4827
10475, 5913, 5654, 5806
10476, 5912, 5650, 5914
10477, 5653, 5913, 4287
10478, 4827, 4287, 5914
10479, 4287, 5913, 5914
10480, 6096, 6059, 6095
10481, 5996, 5915, 6098
10482, 5333, 6000, 5916
10483, 6000, 5657, 6001
10484, 6104, 7083, 5814
10485, 6009, 844, 5918
10486, 6008, 5918, 5815
10487, 6009, 5918, 5917
10488, 3189, 5923, 3191
10489, 2237, 5819, 5919
10490, 5920, 5416, 5822
10491, 5818, 5920, 5819
10492, 5922, 5921, 2237
10493, 5821, 5921, 5820
10494, 5923, 2237, 5919
10495, 3194, 5922, 3189
10496, 3191, 5923, 2714
10497, 2237, 5923, 5922
10498, 6065, 6063, 7144
10499, 5821, 5820, 6011
10500, 1222, 1223, 5925
10501, 5826, 5925, 1223
10502, 5420, 5825, 5927
10503, 6676, 6677, 6675
10504, 5930, 5928, 5931
10505, 5926, 5927, 5929
10506, 5928, 7056, 7052
10507, 1227, 7739, 7736
10508, 5930, 5929, 5927
10509, 5929, 5930, 5931
10510, 5927, 5697, 5930
10511, 7056, 5930, 5697
10512, 5928, 7055, 5933
10513, 7935, 7941, 7933
10514, 8086, 7743, 7747
10515, 7491, 7945, 7488
10516, 5928, 7052, 7055
10517, 5932, 7933, 5933
10518, 4952, 5934, 5440
10519, 5935, 5934, 5439
10520, 5839, 5935, 2245
10521, 5934, 5935, 5831
10522, 2731, 5452, 5936
10523, 2244, 5936, 5452
10524, 5433, 5937, 5436
10525, 5450, 5937, 5833
10526, 5939, 5938, 2735
10527, 5835, 5938, 5834
10528, 5939, 5834, 5938
10529, 5836, 5939, 5837
10530, 5940, 5432, 6014
10531, 5841, 5940, 5839
10532, 5831, 5839, 5941
10533, 5941, 5839, 5940
10534, 5943, 5942, 5707
10535, 7498, 5843, 2737
10536, 6809, 5943, 2246
10537, 5942, 5943, 5843
10538, 7756, 5706, 7497
10539, 5845, 5944, 5844
10540, 5445, 5945, 4390
10541, 5447, 5945, 5448
10542, 5852, 5946, 3571
10543, 5850, 5946, 5851
10544, 5862, 5948, 5947
10545, 5947, 5948, 5949
10546, 5948, 5862, 7075
10547, 5949, 5948, 5728
10548, 2756, 6815, 6817
10549, 7095, 7096, 5955
10550, 5947, 5949, 5950
10551, 5950, 5949, 5952
10552, 5954, 5951, 5952
10553, 6971, 752, 753
10554, 5949, 7665, 5954
10555, 5952, 5951, 6970
10556, 5949, 7771, 7665
10557, 2253, 7517, 7524
10558, 5949, 5954, 5952
10559, 5954, 5953, 7089
10560, 7088, 7087, 7085
10561, 7095, 751, 752
10562, 3899, 5034, 6015
10563, 5957, 5956, 5872
10564, 5730, 5957, 5489
10565, 5956, 5957, 5865
10566, 5959, 5498, 5499
10567, 5877, 5958, 5873
10568, 5875, 5959, 4468
10569, 5958, 5959, 5873
10570, 6839, 5961, 2260
10571, 5878, 5960, 7098
10572, 7162, 6692, 7160
10573, 7098, 5961, 7160
10574, 7128, 5962, 6016
10575, 698, 6071, 6112
10576, 5883, 5963, 5752
10577, 7077, 5963, 5882
10578, 5752, 5963, 6018
10579, 5964, 5884, 6022
10580, 3425, 5965, 5765
10581, 5766, 5885, 5965
10582, 6789, 5966, 5766
10583, 5966, 2150, 6276
10584, 2593, 5967, 2592
10585, 2594, 5885, 5967
10586, 6073, 6033, 5605
10587, 5968, 5891, 6034
10588, 5971, 5969, 6043
10589, 5785, 5892, 5969
10590, 5970, 5971, 6043
10591, 6114, 6159, 6043
10592, 5973, 5972, 5974
10593, 5972, 5890, 5785
10594, 5974, 5971, 5970
10595, 5268, 5973, 5269
10596, 2213, 5972, 5973
10597, 5972, 5971, 5974
10598, 5974, 5970, 6082
10599, 5974, 6082, 6087
10600, 5892, 6034, 6036
10601, 5892, 5786, 6034
10602, 7103, 5893, 7099
10603, 6089, 5976, 5643
10604, 7102, 267, 7776
10605, 7118, 7117, 265
10606, 7103, 5976, 5798
10607, 5979, 6125, 6088
10608, 6179, 6210, 6161
10609, 6183, 6047, 6182
10610, 7116, 5978, 5977
10611, 7130, 7138, 6090
10612, 6089, 6124, 6046
10613, 7137, 7156, 7784
10614, 6092, 2222, 4250
10615, 5983, 6051, 5901
10616, 5983, 5901, 6093
10617, 5903, 5905, 5983
10618, 5983, 6093, 5984
10619, 914, 5985, 6057
10620, 5903, 6056, 5985
10621, 5985, 6056, 6057
10622, 5803, 5986, 5651
10623, 5987, 5986, 5804
10624, 6058, 5987, 2681
10625, 5986, 5987, 5909
10626, 6058, 6958, 5988
10627, 4262, 5993, 4263
10628, 5990, 5989, 5909
10629, 5992, 5989, 5990
10630, 6058, 5990, 5909
10631, 5991, 3672, 4804
10632, 5990, 5988, 5991
10633, 5988, 7106, 5993
10634, 5992, 4805, 5304
10635, 5323, 5989, 5992
10636, 3672, 5991, 5993
10637, 5988, 5993, 5991
10638, 5809, 5994, 5808
10639, 5658, 5915, 5994
10640, 6170, 6169, 6172
10641, 6098, 6059, 6138
10642, 5807, 7466, 7777
10643, 5994, 5996, 5808
10644, 213, 6584, 6590
10645, 6586, 7107, 5997
10646, 5999, 5998, 5815
10647, 6007, 5998, 5916
10648, 5813, 5999, 5815
10649, 5333, 5916, 5999
10650, 5335, 6000, 5333
10651, 2231, 6060, 5657
10652, 6004, 6005, 6003
10653, 6000, 6001, 6002
10654, 6001, 6005, 6004
10655, 5916, 6002, 6007
10656, 6103, 2695, 4297
10657, 6007, 5814, 5998
10658, 6005, 6001, 4303
10659, 6003, 6099, 6004
10660, 4305, 6005, 4303
10661, 6103, 6102, 2695
10662, 6061, 6105, 6099
10663, 6141, 3699, 7083
10664, 6004, 6007, 6002
10665, 6007, 6006, 6104
10666, 7083, 6008, 5814
10667, 5918, 6008, 5917
10668, 7082, 6009, 5917
10669, 844, 6009, 843
10670, 7785, 7810, 7143
10671, 5821, 7110, 4904
10672, 5820, 5924, 6011
10673, 3193, 6063, 5924
10674, 7109, 7112, 6010
10675, 5924, 7111, 6011
10676, 5927, 6013, 5420
10677, 6672, 6013, 5926
10678, 5701, 6014, 5434
10679, 5940, 6014, 5941
10680, 5872, 5956, 6015
10681, 3899, 6015, 5956
10682, 6066, 5878, 5736
10683, 6069, 6070, 6112
10684, 5962, 6069, 6016
10685, 698, 699, 6071
10686, 6020, 6018, 5751
10687, 5884, 5964, 6018
10688, 6019, 6020, 6021
10689, 6607, 6244, 6662
10690, 6021, 6020, 5751
10691, 6020, 6019, 7114
10692, 7077, 7773, 5963
10693, 6661, 7453, 7452
10694, 6025, 6022, 5884
10695, 6029, 6024, 6027
10696, 5884, 7114, 6026
10697, 6028, 860, 861
10698, 6025, 6027, 6022
10699, 6024, 6029, 6030
10700, 6026, 6025, 5884
10701, 6025, 6023, 6027
10702, 6657, 6641, 6658
10703, 7115, 7779, 7778
10704, 6023, 6028, 6027
10705, 6027, 6028, 6029
10706, 6028, 6023, 7778
10707, 6029, 6028, 861
10708, 861, 862, 6029
10709, 6030, 6029, 862
10710, 5753, 6030, 862
10711, 6030, 5550, 6072
10712, 6032, 5744, 5548
10713, 2228, 5964, 6031
10714, 6032, 5548, 5748
10715, 2228, 6031, 6032
10716, 6074, 6033, 6073
10717, 6074, 6077, 6033
10718, 6035, 6034, 5891
10719, 6034, 6035, 6036
10720, 6040, 6037, 6039
10721, 6116, 6038, 1007
10722, 6080, 6036, 5975
10723, 5606, 5892, 6036
10724, 6041, 2650, 3036
10725, 6076, 1006, 1007
10726, 6039, 6038, 6035
10727, 6038, 6037, 6042
10728, 6040, 6039, 5891
10729, 6038, 6039, 6037
10730, 6040, 5891, 6075
10731, 6077, 6078, 6040
10732, 1005, 6041, 3036
10733, 6040, 6041, 6037
10734, 6037, 6041, 6042
10735, 1005, 6042, 6041
10736, 6113, 6043, 5606
10737, 6155, 6158, 6114
10738, 6082, 5970, 6085
10739, 7782, 8010, 7129
10740, 7776, 5977, 7102
10741, 265, 7117, 266
10742, 6124, 5643, 5980
10743, 6132, 7147, 7148
10744, 6180, 6162, 6125
10745, 7136, 7135, 906
10746, 6049, 6048, 5897
10747, 6048, 5982, 6050
10748, 5900, 6049, 5897
10749, 6092, 7119, 2222
10750, 7119, 7121, 5982
10751, 6094, 6054, 6093
10752, 6048, 6050, 6051
10753, 6051, 6050, 6135
10754, 7120, 6092, 2678
10755, 6053, 7120, 3104
10756, 5297, 4802, 6053
10757, 7123, 4249, 6091
10758, 6094, 5901, 6135
10759, 911, 912, 7124
10760, 6057, 6055, 913
10761, 6055, 5984, 6093
10762, 5983, 6056, 5903
10763, 6057, 6056, 5984
10764, 6055, 6057, 5984
10765, 914, 6057, 913
10766, 6958, 6058, 2681
10767, 5990, 6058, 5988
10768, 5344, 5810, 6096
10769, 6136, 6138, 6059
10770, 4306, 6060, 2231
10771, 4303, 6001, 6060
10772, 6061, 6099, 6139
10773, 6061, 6173, 6105
10774, 6006, 6105, 6104
10775, 6105, 6106, 6062
10776, 3193, 6107, 6064
10777, 7112, 6065, 6010
10778, 6108, 6064, 6107
10779, 7810, 6142, 1171
10780, 6012, 6063, 6065
10781, 7144, 6063, 6064
10782, 7159, 7128, 6066
10783, 6016, 6066, 7128
10784, 7160, 7157, 5736
10785, 6144, 6148, 6110
10786, 6068, 5741, 5504
10787, 6016, 6068, 5040
10788, 6069, 5962, 6070
10789, 6017, 6016, 6069
10790, 6143, 6070, 5962
10791, 6111, 698, 6070
10792, 699, 6017, 6071
10793, 6017, 6069, 6112
10794, 5743, 6072, 5550
10795, 5744, 6024, 6072
10796, 5783, 6073, 5605
10797, 4724, 6073, 5784
10798, 4727, 6074, 4724
10799, 6077, 6074, 2211
10800, 5968, 6033, 6075
10801, 6075, 6033, 6077
10802, 1007, 6038, 6076
10803, 6042, 6076, 6038
10804, 6078, 6077, 2211
10805, 6075, 6077, 6040
10806, 2211, 4160, 6078
10807, 6909, 6078, 4160
10808, 5606, 6036, 6080
10809, 6156, 1010, 6155
10810, 6115, 6080, 5975
10811, 6080, 6079, 6113
10812, 7129, 6157, 7780
10813, 8009, 7129, 7780
10814, 6114, 6081, 6159
10815, 6084, 6082, 6044
10816, 6081, 6158, 7129
10817, 6085, 7842, 6082
10818, 6044, 7840, 6086
10819, 6084, 2656, 6087
10820, 6159, 6085, 5970
10821, 6085, 6083, 7842
10822, 7256, 6118, 2210
10823, 6122, 6123, 6086
10824, 6997, 6087, 2656
10825, 5269, 5974, 6087
10826, 7116, 6088, 5980
10827, 7118, 6088, 6045
10828, 6089, 5643, 6124
10829, 7146, 6089, 6046
10830, 5980, 6088, 6125
10831, 6090, 6162, 7130
10832, 6091, 6130, 6127
10833, 6127, 6050, 6126
10834, 2678, 6092, 3103
10835, 6092, 6052, 7119
10836, 6094, 6093, 5901
10837, 6055, 6093, 6054
10838, 6127, 6130, 6129
10839, 6127, 6129, 6094
10840, 5658, 6095, 5915
10841, 6096, 6095, 5344
10842, 6096, 6163, 6137
10843, 6138, 6136, 5995
10844, 5995, 6170, 7467
10845, 6601, 6613, 6619
10846, 6098, 5915, 6095
10847, 6098, 6097, 6632
10848, 6004, 6099, 6006
10849, 6139, 6099, 6003
10850, 6003, 6005, 6102
10851, 6174, 6140, 6100
10852, 6139, 6102, 6100
10853, 4298, 6101, 6103
10854, 2695, 6102, 6005
10855, 6101, 6100, 6102
10856, 4298, 6103, 4297
10857, 6102, 6103, 6101
10858, 6006, 6099, 6105
10859, 7083, 6104, 6062
10860, 6106, 6105, 2694
10861, 6104, 6105, 6062
10862, 6959, 6106, 2694
10863, 3145, 3699, 6141
10864, 1168, 6107, 3193
10865, 6108, 6107, 1169
10866, 1169, 1170, 6108
10867, 6142, 6108, 1170
10868, 7810, 7811, 7143
10869, 7144, 6010, 6065
10870, 7158, 7172, 6148
10871, 6145, 6150, 697
10872, 698, 6112, 6070
10873, 6177, 6111, 6070
10874, 6017, 6112, 6071
10875, 6080, 6113, 5606
10876, 6114, 6113, 6079
10877, 6155, 6114, 6079
10878, 6159, 6081, 8010
10879, 5975, 6038, 6116
10880, 6117, 1008, 1009
10881, 1008, 6115, 6116
10882, 6116, 6115, 5975
10883, 6156, 6117, 1009
10884, 6080, 6160, 6079
10885, 2649, 6119, 6118
10886, 6120, 6122, 6119
10887, 3034, 6119, 2649
10888, 6120, 6119, 3035
10889, 6121, 3035, 3596
10890, 6084, 6123, 2656
10891, 6997, 3596, 3050
10892, 2656, 6120, 6121
10893, 6119, 6122, 6118
10894, 6120, 2656, 6123
10895, 6086, 6123, 6084
10896, 6120, 6123, 6122
10897, 6125, 6124, 5980
10898, 6124, 6090, 6046
10899, 6179, 6125, 5979
10900, 7130, 6162, 6047
10901, 7123, 5982, 7121
10902, 6127, 6126, 6091
10903, 6131, 6130, 6091
10904, 6127, 6094, 6135
10905, 6130, 6131, 6128
10906, 7127, 6133, 7152
10907, 6134, 6129, 6128
10908, 7125, 6133, 7127
10909, 6131, 6091, 4249
10910, 6128, 6129, 6130
10911, 7045, 7145, 4249
10912, 7147, 7149, 7148
10913, 6089, 7146, 5895
10914, 7147, 7812, 7156
10915, 6128, 6131, 7148
10916, 7127, 911, 7125
10917, 6128, 7148, 7150
10918, 7125, 6134, 6133
10919, 6051, 6135, 5901
10920, 6127, 6135, 6050
10921, 6096, 6137, 6136
10922, 850, 6169, 6137
10923, 6096, 5660, 6163
10924, 6169, 850, 851
10925, 5995, 7467, 7468
10926, 6098, 6138, 6097
10927, 6102, 6139, 6003
10928, 6140, 6139, 6100
10929, 6174, 6100, 2230
10930, 4831, 2694, 6176
10931, 6062, 6106, 6141
10932, 3145, 6141, 6106
10933, 1171, 6142, 1170
10934, 7144, 6142, 6109
10935, 5962, 7128, 6144
10936, 6145, 6143, 6110
10937, 6148, 6144, 6067
10938, 6110, 6143, 6144
10939, 6145, 6110, 6147
10940, 697, 6111, 6177
10941, 7170, 7176, 7171
10942, 8031, 59, 58
10943, 6154, 6151, 6153
10944, 696, 6147, 6152
10945, 6148, 6067, 7158
10946, 6148, 6146, 6154
10947, 7159, 7157, 7158
10948, 7170, 7172, 7175
10949, 6201, 6202, 6203
10950, 6147, 696, 6150
10951, 6152, 6197, 695
10952, 6153, 6152, 6147
10953, 6198, 6197, 6152
10954, 6154, 6153, 6110
10955, 6153, 6151, 6198
10956, 6148, 6154, 6110
10957, 7171, 6204, 6146
10958, 6156, 6155, 6079
10959, 1010, 1011, 6157
10960, 6156, 6079, 6160
10961, 1010, 6156, 1009
10962, 6157, 1011, 7780
10963, 6158, 6157, 7129
10964, 6114, 6158, 6081
10965, 6155, 6157, 6158
10966, 6085, 6159, 6083
10967, 6043, 6159, 5970
10968, 6115, 6160, 6080
10969, 6156, 6160, 6117
10970, 6179, 6211, 6210
10971, 6215, 6161, 6210
10972, 6090, 6125, 6162
10973, 6180, 6125, 6179
10974, 6164, 5660, 5347
10975, 6163, 6164, 6167
10976, 6166, 6164, 5347
10977, 6165, 6167, 849
10978, 850, 6165, 849
10979, 6137, 6163, 6165
10980, 5347, 6184, 6166
10981, 6168, 5341, 5661
10982, 6186, 6164, 6166
10983, 848, 849, 6167
10984, 847, 6168, 5661
10985, 6184, 6168, 6166
10986, 6647, 6172, 852
10987, 6136, 6170, 5995
10988, 6137, 6170, 6136
10989, 6172, 6169, 851
10990, 6634, 6647, 6648
10991, 6629, 6636, 854
10992, 852, 6172, 851
10993, 6170, 6172, 6171
10994, 6105, 6173, 2694
10995, 6061, 6140, 6173
10996, 6191, 6206, 6207
10997, 6174, 6208, 6140
10998, 2230, 6191, 6208
10999, 4831, 6187, 3144
11000, 6173, 6176, 2694
11001, 6175, 6176, 6140
11002, 6143, 6177, 6070
11003, 697, 6177, 6145
11004, 6202, 7821, 6198
11005, 693, 7166, 7167
11006, 6233, 6221, 6213
11007, 6162, 6180, 6047
11008, 6179, 6161, 6180
11009, 7185, 6182, 6180
11010, 6212, 6238, 6214
11011, 905, 7134, 7139
11012, 7185, 6180, 6161
11013, 6183, 6182, 6181
11014, 7139, 904, 905
11015, 7135, 7134, 7140
11016, 5350, 6184, 5347
11017, 6168, 6184, 5341
11018, 6186, 6185, 848
11019, 6168, 6185, 6166
11020, 848, 6167, 6186
11021, 6164, 6186, 6167
11022, 6140, 6208, 6175
11023, 4833, 6189, 4834
11024, 3712, 2232, 6234
11025, 6187, 6190, 6189
11026, 3144, 6187, 6189
11027, 6175, 6193, 6187
11028, 6190, 6188, 6194
11029, 4834, 6189, 6190
11030, 6206, 6191, 2230
11031, 6188, 6190, 6193
11032, 6194, 6195, 6192
11033, 6192, 6219, 6220
11034, 6187, 6193, 6190
11035, 6208, 6193, 6175
11036, 6195, 6194, 6188
11037, 6196, 6194, 6192
11038, 6188, 6207, 6216
11039, 6234, 2232, 6209
11040, 2698, 6196, 6192
11041, 6190, 6196, 4834
11042, 6152, 6153, 6198
11043, 6199, 6197, 6178
11044, 6202, 6198, 6151
11045, 6178, 6197, 6198
11046, 6178, 7820, 6199
11047, 695, 6199, 694
11048, 7821, 7169, 7820
11049, 7589, 7590, 7561
11050, 6203, 6202, 6151
11051, 7176, 7970, 6203
11052, 6151, 6154, 6204
11053, 6202, 6201, 7821
11054, 7170, 7171, 7172
11055, 7177, 7824, 7174
11056, 6146, 6204, 6154
11057, 6203, 6151, 6204
11058, 6221, 6205, 6213
11059, 261, 7180, 262
11060, 4299, 6206, 2230
11061, 6207, 6206, 4300
11062, 4300, 2699, 6207
11063, 6216, 6207, 2699
11064, 2230, 6208, 6174
11065, 6193, 6208, 6191
11066, 6218, 6209, 2232
11067, 6219, 6209, 6218
11068, 6211, 6179, 5979
11069, 6225, 6205, 6223
11070, 6045, 7117, 7118
11071, 6205, 6210, 6211
11072, 6222, 7181, 6228
11073, 6230, 6212, 6228
11074, 6211, 5979, 7118
11075, 6213, 7118, 6233
11076, 6210, 6225, 6215
11077, 6238, 6212, 6232
11078, 6225, 6210, 6205
11079, 7183, 6215, 6214
11080, 2699, 4321, 6217
11081, 6188, 6216, 6195
11082, 6195, 6216, 6217
11083, 2699, 6217, 6216
11084, 5357, 6218, 2232
11085, 4854, 6218, 4852
11086, 6220, 6219, 4854
11087, 6192, 6209, 6219
11088, 6220, 4854, 6964
11089, 6192, 6220, 2698
11090, 264, 263, 6221
11091, 6214, 6225, 6226
11092, 6224, 6223, 6221
11093, 6224, 262, 7181
11094, 6224, 6221, 263
11095, 6225, 6223, 6222
11096, 262, 6224, 263
11097, 6222, 6223, 6224
11098, 6226, 6225, 6222
11099, 6225, 6214, 6215
11100, 7180, 6227, 7181
11101, 6214, 6226, 6212
11102, 6890, 260, 6891
11103, 6881, 6229, 6883
11104, 6222, 6228, 6226
11105, 6883, 6229, 6888
11106, 6231, 6239, 6237
11107, 6885, 6878, 6875
11108, 6888, 6228, 6227
11109, 6235, 6237, 7182
11110, 6873, 4013, 6872
11111, 7141, 7690, 903
11112, 7182, 6230, 6229
11113, 6240, 6239, 6231
11114, 265, 264, 6233
11115, 6221, 6233, 264
11116, 6195, 6234, 6209
11117, 3712, 6234, 6217
11118, 6874, 6872, 6865
11119, 6880, 6878, 6235
11120, 6236, 6239, 6240
11121, 7184, 7185, 7183
11122, 7182, 6237, 6232
11123, 6878, 6237, 6235
11124, 6232, 6237, 6239
11125, 6238, 6236, 7183
11126, 6236, 6238, 6239
11127, 6232, 6239, 6238
11128, 6240, 6231, 7691
11129, 903, 904, 7142
11130, 7907, 7337, 7908
11131, 6486, 6483, 6477
11132, 7270, 1021, 7275
11133, 6378, 6389, 6390
11134, 7410, 7191, 7409
11135, 7412, 7410, 7411
11136, 6594, 6593, 6591
11137, 6642, 6639, 6638
11138, 7638, 7630, 7632
11139, 6757, 1182, 6761
11140, 6721, 6734, 6727
11141, 7628, 7629, 6713
11142, 7192, 7826, 7828
11143, 8033, 8037, 7830
11144, 7833, 7834, 7956
11145, 7502, 7397, 7511
11146, 7921, 7930, 7385
11147, 7509, 7507, 105
11148, 7553, 7957, 6688
11149, 7583, 7968, 7579
11150, 7373, 7391, 740
11151, 6527, 6524, 6518
11152, 1111, 6252, 1110
11153, 4561, 6252, 1381
11154, 1274, 6253, 1273
11155, 4586, 6253, 1382
11156, 948, 6254, 947
11157, 4602, 6254, 1383
11158, 785, 6255, 784
11159, 4619, 6255, 1384
11160, 975, 6256, 1385
11161, 977, 6256, 976
11162, 812, 6257, 1386
11163, 814, 6257, 813
11164, 1138, 6258, 1387
11165, 1140, 6258, 1139
11166, 649, 6259, 1388
11167, 651, 6259, 650
11168, 475, 6260, 1429
11169, 473, 6260, 474
11170, 634, 6261, 1431
11171, 632, 6261, 633
11172, 316, 6262, 1433
11173, 314, 6262, 315
11174, 157, 6263, 1435
11175, 155, 6263, 156
11176, 1546, 1596, 7202
11177, 7203, 7202, 1596
11178, 1547, 1598, 7207
11179, 7208, 7207, 1598
11180, 1548, 1600, 7212
11181, 7213, 7212, 1600
11182, 1549, 1602, 7217
11183, 7218, 7217, 1602
11184, 1447, 1645, 6268
11185, 6269, 1645, 2614
11186, 395, 6269, 396
11187, 6269, 6268, 1645
11188, 6270, 1545, 6271
11189, 2160, 6270, 1677
11190, 73, 6271, 1545
11191, 71, 6271, 72
11192, 1677, 6270, 6272
11193, 6271, 6272, 6270
11194, 2030, 6273, 1640
11195, 2488, 6273, 1920
11196, 2050, 6274, 1644
11197, 2494, 6274, 1794
11198, 6275, 2056, 2591
11199, 6276, 6275, 2592
11200, 5966, 6276, 2592
11201, 2150, 2177, 6276
11202, 2197, 6280, 6277
11203, 6280, 3990, 6283
11204, 1029, 1030, 6278
11205, 6279, 1030, 2645
11206, 6279, 2645, 2205
11207, 2197, 6277, 6279
11208, 6896, 6280, 2197
11209, 6283, 6282, 6280
11210, 6283, 3990, 6284
11211, 6283, 6284, 6281
11212, 6285, 6282, 6281
11213, 6278, 6282, 1029
11214, 6284, 3990, 3375
11215, 6281, 6282, 6283
11216, 6291, 6288, 3375
11217, 6289, 6290, 6298
11218, 6285, 6281, 6286
11219, 1029, 6285, 1028
11220, 6284, 6298, 6281
11221, 6298, 6286, 6281
11222, 6287, 6295, 6296
11223, 6290, 1027, 6286
11224, 3375, 3989, 6291
11225, 6305, 6302, 6287
11226, 6287, 6296, 6304
11227, 1027, 6290, 1026
11228, 6298, 6290, 6286
11229, 1026, 6290, 6289
11230, 6293, 6291, 2358
11231, 6288, 6291, 6295
11232, 3031, 6294, 3374
11233, 6295, 6292, 6299
11234, 6294, 2358, 3374
11235, 6295, 6293, 6292
11236, 6292, 6293, 6294
11237, 6294, 6293, 2358
11238, 6295, 6299, 6296
11239, 6295, 6287, 6288
11240, 6296, 2208, 6303
11241, 6305, 6287, 6304
11242, 6328, 6320, 2647
11243, 6292, 6294, 6297
11244, 6284, 6288, 6298
11245, 6288, 6287, 6302
11246, 6297, 6299, 6292
11247, 2208, 6296, 6299
11248, 2208, 6316, 6315
11249, 6309, 6317, 1024
11250, 6303, 6308, 6304
11251, 6306, 1026, 6289
11252, 6289, 6298, 6302
11253, 6288, 6302, 6298
11254, 6315, 6310, 6314
11255, 6303, 6314, 6308
11256, 6303, 6304, 6296
11257, 6305, 6304, 6301
11258, 6305, 6301, 6306
11259, 6305, 6289, 6302
11260, 6313, 6306, 6301
11261, 1025, 1026, 6306
11262, 6341, 6325, 6326
11263, 6391, 6392, 6394
11264, 6308, 6300, 6309
11265, 6304, 6308, 6301
11266, 6319, 6318, 6300
11267, 6312, 6309, 1024
11268, 6315, 6303, 2208
11269, 6311, 6318, 6319
11270, 6300, 6314, 6319
11271, 6332, 7222, 6330
11272, 1024, 1025, 6312
11273, 6313, 6312, 1025
11274, 6306, 6313, 1025
11275, 6313, 6301, 6308
11276, 6315, 6314, 6303
11277, 6319, 6314, 6310
11278, 2208, 6320, 6316
11279, 6315, 6316, 6322
11280, 6321, 6328, 3030
11281, 6310, 6322, 6307
11282, 6318, 6309, 6300
11283, 6317, 6311, 7222
11284, 6311, 6317, 6318
11285, 6309, 6318, 6317
11286, 6319, 6310, 6324
11287, 6311, 6319, 6330
11288, 6299, 6320, 2208
11289, 2647, 6320, 6297
11290, 380, 6337, 381
11291, 6329, 6323, 6321
11292, 6315, 6322, 6310
11293, 6316, 6328, 6323
11294, 6329, 6321, 6337
11295, 6346, 6341, 6326
11296, 6346, 6324, 6307
11297, 6326, 6331, 6324
11298, 6395, 6342, 6347
11299, 6327, 6335, 6336
11300, 6341, 6342, 6339
11301, 6333, 6331, 6326
11302, 6331, 6335, 6330
11303, 6325, 6344, 6345
11304, 3030, 6328, 2647
11305, 6323, 6328, 6321
11306, 6338, 6329, 6337
11307, 6391, 6394, 378
11308, 6331, 6330, 6319
11309, 6327, 7272, 7274
11310, 6324, 6331, 6319
11311, 6326, 6325, 6333
11312, 1023, 7222, 6340
11313, 6332, 6340, 7222
11314, 6348, 6336, 6333
11315, 6335, 6333, 6336
11316, 6353, 6334, 6348
11317, 7276, 6355, 7269
11318, 6330, 6335, 6327
11319, 6331, 6333, 6335
11320, 6348, 6333, 6325
11321, 7273, 7272, 6334
11322, 381, 6337, 6321
11323, 6338, 6337, 380
11324, 380, 379, 6338
11325, 6395, 379, 6394
11326, 379, 6395, 6338
11327, 7277, 6388, 377
11328, 6326, 6324, 6346
11329, 6332, 1022, 6340
11330, 6344, 6339, 6343
11331, 6307, 6323, 6342
11332, 6329, 6347, 6323
11333, 6378, 6381, 6386
11334, 6353, 6348, 6345
11335, 6339, 6344, 6341
11336, 6345, 6344, 6343
11337, 6350, 6345, 6343
11338, 6345, 6351, 6353
11339, 6307, 6342, 6346
11340, 6341, 6346, 6342
11341, 6347, 6329, 6395
11342, 6342, 6323, 6347
11343, 6336, 6348, 6334
11344, 6325, 6345, 6348
11345, 6388, 6384, 6385
11346, 376, 6389, 6386
11347, 6385, 6350, 6343
11348, 6363, 6366, 6362
11349, 6242, 6352, 6353
11350, 6345, 6350, 6351
11351, 6352, 6242, 6356
11352, 7269, 1020, 7270
11353, 6242, 6353, 6351
11354, 6353, 6352, 6334
11355, 6356, 6360, 6354
11356, 6367, 6368, 6354
11357, 6334, 6352, 6357
11358, 6352, 6358, 6357
11359, 6361, 6360, 6356
11360, 6354, 6397, 6358
11361, 6358, 6352, 6356
11362, 6355, 7276, 7273
11363, 6354, 6358, 6356
11364, 6355, 6357, 6358
11365, 6360, 6361, 6359
11366, 7231, 7229, 7230
11367, 6361, 6356, 6242
11368, 7245, 6367, 6360
11369, 6351, 6349, 6366
11370, 6361, 6242, 6363
11371, 6387, 6386, 6381
11372, 6377, 6364, 6362
11373, 6366, 6242, 6351
11374, 6363, 6362, 6364
11375, 6380, 6393, 6377
11376, 7233, 7246, 7224
11377, 6398, 6382, 6383
11378, 6375, 6371, 1018
11379, 6366, 6349, 6381
11380, 6242, 6366, 6363
11381, 7245, 6360, 6359
11382, 6368, 6367, 6365
11383, 6368, 6365, 6371
11384, 6368, 1019, 6376
11385, 374, 373, 7223
11386, 7226, 7225, 7223
11387, 6382, 6364, 6377
11388, 7259, 7248, 7250
11389, 7241, 6365, 7240
11390, 1017, 1018, 6373
11391, 6359, 6398, 7240
11392, 1015, 1016, 7238
11393, 1018, 6371, 6373
11394, 6374, 6373, 6371
11395, 6365, 6374, 6371
11396, 6374, 6372, 7235
11397, 1018, 1019, 6375
11398, 1019, 6368, 6375
11399, 1020, 7269, 6396
11400, 6376, 6396, 7269
11401, 6380, 6377, 6362
11402, 6369, 7227, 6382
11403, 6380, 6362, 6381
11404, 6390, 6389, 375
11405, 6369, 7223, 7225
11406, 6398, 6359, 6364
11407, 6362, 6366, 6381
11408, 6380, 6378, 6393
11409, 6381, 6349, 6387
11410, 6378, 6380, 6381
11411, 6369, 6382, 6377
11412, 6379, 7243, 6382
11413, 6370, 7239, 7242
11414, 6370, 7237, 7239
11415, 6349, 6350, 6385
11416, 377, 376, 7277
11417, 6392, 6343, 6339
11418, 6385, 6384, 6387
11419, 7277, 6386, 6384
11420, 6389, 376, 375
11421, 6385, 6387, 6349
11422, 6386, 6387, 6384
11423, 6385, 6343, 6392
11424, 378, 377, 6391
11425, 6390, 375, 374
11426, 6378, 6386, 6389
11427, 7223, 6390, 374
11428, 6393, 6390, 7223
11429, 377, 6388, 6391
11430, 6392, 6391, 6388
11431, 6392, 6388, 6385
11432, 6392, 6339, 6394
11433, 6393, 6369, 6377
11434, 6378, 6390, 6393
11435, 6342, 6395, 6339
11436, 379, 378, 6394
11437, 6338, 6395, 6329
11438, 6339, 6395, 6394
11439, 6354, 6376, 6397
11440, 6376, 1019, 6396
11441, 6397, 6376, 7269
11442, 6382, 6398, 6364
11443, 7240, 6398, 6383
11444, 6399, 2126, 2202
11445, 2646, 6399, 2205
11446, 7910, 7905, 6464
11447, 6453, 6461, 6451
11448, 7852, 7268, 7267
11449, 7264, 7844, 7841
11450, 2662, 6559, 3065
11451, 3063, 6534, 6535
11452, 899, 6870, 6859
11453, 6854, 6860, 2227
11454, 6668, 7805, 7804
11455, 7803, 7799, 7800
11456, 6778, 6767, 6758
11457, 6777, 6766, 6245
11458, 8030, 7304, 2238
11459, 6773, 6778, 6780
11460, 6717, 6712, 6715
11461, 6705, 6702, 6706
11462, 7858, 585, 584
11463, 8035, 8036, 8088
11464, 8062, 8102, 8048
11465, 7893, 6408, 7892
11466, 3280, 7517, 2253
11467, 747, 7543, 7542
11468, 7878, 7674, 7879
11469, 7982, 4497, 7983
11470, 6836, 6835, 6838
11471, 7673, 7290, 7675
11472, 7608, 7607, 689
11473, 3301, 7548, 6688
11474, 8069, 7917, 6505
11475, 6494, 6502, 6492
11476, 3348, 6415, 1057
11477, 2329, 6415, 2327
11478, 2322, 6416, 2321
11479, 6416, 2315, 2806
11480, 3351, 6417, 731
11481, 2354, 6417, 2352
11482, 2347, 6418, 2346
11483, 6418, 2340, 2814
11484, 2833, 6419, 1799
11485, 2374, 6904, 6901
11486, 2835, 6420, 1800
11487, 6421, 6420, 2375
11488, 2951, 6421, 2375
11489, 6421, 3493, 4086
11490, 2837, 6422, 1801
11491, 4093, 6422, 2376
11492, 2839, 6423, 1802
11493, 4103, 6423, 2377
11494, 6425, 6424, 1781
11495, 6424, 2405, 6974
11496, 6425, 1337, 1311
11497, 6424, 6425, 2405
11498, 7214, 6426, 1599
11499, 1579, 2405, 6426
11500, 6428, 6427, 1782
11501, 6427, 2406, 6977
11502, 6428, 1338, 1312
11503, 6427, 6428, 2406
11504, 7219, 6429, 1601
11505, 1581, 2406, 6429
11506, 6431, 6430, 1783
11507, 6430, 2407, 6981
11508, 6431, 1339, 1313
11509, 6430, 6431, 2407
11510, 7204, 6432, 1595
11511, 1575, 2407, 6432
11512, 6434, 6433, 1784
11513, 6433, 2408, 6986
11514, 6434, 1340, 1314
11515, 6433, 6434, 2408
11516, 7209, 6435, 1597
11517, 1577, 2408, 6435
11518, 2430, 6436, 2414
11519, 2887, 6436, 2432
11520, 2630, 6437, 1637
11521, 2481, 6437, 2482
11522, 1718, 6438, 2519
11523, 1841, 6438, 2073
11524, 1613, 6439, 2420
11525, 6439, 2421, 2880
11526, 5879, 6440, 2158
11527, 2638, 6440, 2639
11528, 2209, 6478, 6468
11529, 7312, 6474, 6476
11530, 7233, 7224, 7232
11531, 7225, 7227, 6369
11532, 7472, 7304, 7888
11533, 530, 7890, 531
11534, 6725, 6724, 6730
11535, 6715, 6712, 6704
11536, 7891, 586, 585
11537, 7309, 2247, 7495
11538, 2259, 6519, 6509
11539, 7346, 6515, 6517
11540, 1214, 6447, 2489
11541, 3341, 6447, 1215
11542, 6452, 6448, 2810
11543, 3376, 6457, 2359
11544, 6450, 2810, 3349
11545, 7283, 1060, 7282
11546, 6456, 3349, 1058
11547, 7283, 6450, 1059
11548, 6453, 6448, 6452
11549, 6449, 6454, 6453
11550, 6450, 6452, 2810
11551, 6453, 6452, 6449
11552, 6449, 7282, 6454
11553, 6453, 6451, 6457
11554, 6455, 6454, 6400
11555, 6453, 6454, 6461
11556, 7311, 6460, 6463
11557, 6455, 2209, 6462
11558, 1059, 6450, 6456
11559, 3349, 6456, 6450
11560, 6453, 6457, 6448
11561, 6457, 6451, 2359
11562, 7903, 6458, 7914
11563, 6458, 6466, 6460
11564, 6479, 6480, 2209
11565, 6451, 6459, 6482
11566, 6400, 6463, 6455
11567, 6465, 6466, 6469
11568, 6462, 6461, 6455
11569, 6451, 6461, 6459
11570, 6480, 6462, 2209
11571, 6461, 6462, 6459
11572, 7280, 7281, 7278
11573, 6460, 6455, 6463
11574, 1061, 7910, 7280
11575, 7311, 6464, 7905
11576, 6472, 6474, 6470
11577, 6479, 6481, 2648
11578, 6458, 6467, 6469
11579, 6466, 6465, 6468
11580, 7914, 7911, 7912
11581, 7904, 7900, 7902
11582, 7312, 6481, 6468
11583, 6479, 2648, 6480
11584, 6458, 6469, 6466
11585, 6467, 7900, 6470
11586, 6472, 6470, 6241
11587, 6465, 6469, 6470
11588, 6475, 6471, 6472
11589, 6484, 6483, 419
11590, 6241, 7323, 6475
11591, 6474, 6472, 6471
11592, 7320, 7322, 7324
11593, 7320, 7316, 6485
11594, 6474, 6471, 6476
11595, 6470, 6474, 6465
11596, 6241, 6475, 6472
11597, 6475, 6473, 6488
11598, 6483, 6476, 6471
11599, 6441, 6476, 6484
11600, 6475, 6488, 6477
11601, 6487, 6486, 6477
11602, 2209, 6460, 6478
11603, 6466, 6478, 6460
11604, 2209, 6468, 6479
11605, 6481, 6479, 6468
11606, 2648, 3033, 6480
11607, 6482, 2359, 6451
11608, 6468, 6465, 7312
11609, 2648, 6481, 6441
11610, 6480, 3033, 6482
11611, 6533, 6482, 3033
11612, 6477, 6483, 6471
11613, 6484, 419, 418
11614, 6484, 418, 7301
11615, 6476, 6483, 6484
11616, 7328, 7319, 7315
11617, 421, 6485, 7313
11618, 420, 419, 6486
11619, 6483, 6486, 419
11620, 6488, 6487, 6477
11621, 421, 6487, 6485
11622, 7320, 6488, 6473
11623, 6487, 6488, 6485
11624, 6493, 6489, 2818
11625, 3402, 6498, 2369
11626, 6491, 2818, 3352
11627, 7300, 734, 7299
11628, 6497, 3352, 732
11629, 7300, 6491, 733
11630, 6494, 6489, 6493
11631, 6490, 6495, 6494
11632, 6491, 6493, 2818
11633, 6494, 6493, 6490
11634, 6490, 7299, 6495
11635, 6494, 6492, 6498
11636, 6496, 6495, 6414
11637, 6494, 6495, 6502
11638, 7345, 6501, 6504
11639, 6496, 2259, 6503
11640, 733, 6491, 6497
11641, 3352, 6497, 6491
11642, 6494, 6498, 6489
11643, 6498, 6492, 2369
11644, 7918, 7382, 7917
11645, 6499, 6507, 6501
11646, 6520, 6521, 2259
11647, 6492, 6500, 6523
11648, 6414, 6504, 6496
11649, 6506, 6507, 6510
11650, 6503, 6502, 6496
11651, 6492, 6502, 6500
11652, 6521, 6503, 2259
11653, 6502, 6503, 6500
11654, 7297, 7298, 7295
11655, 6501, 6496, 6504
11656, 735, 8069, 7297
11657, 7345, 6505, 7917
11658, 6513, 6515, 6511
11659, 6520, 6522, 2769
11660, 6510, 6507, 7393
11661, 6507, 6506, 6509
11662, 738, 7376, 7381
11663, 7370, 7369, 7374
11664, 7346, 6522, 6509
11665, 6520, 2769, 6521
11666, 7393, 6507, 6499
11667, 7375, 7380, 6508
11668, 6513, 6511, 6251
11669, 6506, 6510, 6511
11670, 6516, 6512, 6513
11671, 6525, 6524, 101
11672, 6251, 7389, 6516
11673, 6515, 6513, 6512
11674, 6249, 7353, 7355
11675, 7351, 7352, 7349
11676, 6515, 6512, 6517
11677, 6511, 6515, 6506
11678, 6251, 6516, 6513
11679, 6516, 6514, 6529
11680, 6524, 6517, 6512
11681, 6446, 6517, 6525
11682, 6516, 6529, 6518
11683, 6528, 6527, 6518
11684, 2259, 6501, 6519
11685, 6507, 6519, 6501
11686, 2259, 6509, 6520
11687, 6522, 6520, 6509
11688, 2769, 3303, 6521
11689, 6523, 2369, 6492
11690, 6509, 6506, 7346
11691, 2769, 6522, 6446
11692, 6521, 3303, 6523
11693, 6691, 6523, 3303
11694, 6518, 6524, 6512
11695, 6525, 101, 100
11696, 6525, 100, 7310
11697, 6517, 6524, 6525
11698, 6526, 7350, 7349
11699, 103, 6526, 7348
11700, 102, 101, 6527
11701, 6524, 6527, 101
11702, 6529, 6528, 6518
11703, 103, 6528, 6526
11704, 7350, 6529, 6514
11705, 6528, 6529, 6526
11706, 3474, 6530, 2506
11707, 3491, 6530, 2931
11708, 414, 6531, 415
11709, 6531, 2381, 6532
11710, 2844, 6532, 2381
11711, 2359, 6532, 3376
11712, 3033, 6531, 6533
11713, 6533, 6531, 6532
11714, 6534, 427, 6536
11715, 3066, 6534, 3063
11716, 6536, 6539, 6535
11717, 3063, 6535, 6540
11718, 427, 426, 6536
11719, 6539, 6536, 426
11720, 7404, 425, 424
11721, 6541, 6557, 6538
11722, 6541, 6540, 6535
11723, 6557, 6541, 6543
11724, 425, 6539, 426
11725, 6541, 6539, 6537
11726, 6535, 6539, 6541
11727, 6540, 6538, 6548
11728, 6543, 6541, 6537
11729, 6538, 6540, 6541
11730, 6543, 6537, 6550
11731, 6243, 7334, 7344
11732, 6550, 6537, 7404
11733, 6543, 6542, 6558
11734, 6561, 7431, 6560
11735, 6559, 2216, 3065
11736, 6540, 6545, 3063
11737, 6545, 6544, 6559
11738, 7317, 6553, 6554
11739, 6542, 6543, 6551
11740, 7405, 7408, 7406
11741, 7432, 7435, 7429
11742, 7431, 6548, 6538
11743, 6545, 6548, 6544
11744, 6548, 7431, 6544
11745, 6561, 6549, 6544
11746, 7404, 6537, 425
11747, 6551, 6550, 6546
11748, 6550, 6551, 6543
11749, 6546, 6554, 6553
11750, 7318, 423, 422
11751, 6542, 6551, 6556
11752, 6546, 7404, 6554
11753, 6552, 6555, 6556
11754, 424, 423, 6554
11755, 423, 7318, 7317
11756, 7319, 7329, 7333
11757, 7332, 7405, 7406
11758, 6552, 6556, 6553
11759, 6556, 6555, 7406
11760, 6558, 6557, 6543
11761, 6557, 6547, 7435
11762, 7408, 6558, 6542
11763, 6557, 6558, 6547
11764, 6559, 2662, 6545
11765, 2216, 6559, 6549
11766, 7433, 7434, 6560
11767, 6562, 6563, 6561
11768, 7431, 6561, 6544
11769, 6562, 6561, 6560
11770, 7438, 7439, 6402
11771, 7701, 7695, 7696
11772, 6561, 6563, 6549
11773, 6951, 6563, 6562
11774, 7445, 3071, 5638
11775, 5634, 7447, 7445
11776, 6565, 6567, 6570
11777, 6565, 6571, 6569
11778, 916, 917, 6566
11779, 6567, 6566, 917
11780, 3116, 6567, 917
11781, 6570, 6567, 3115
11782, 6575, 6568, 6576
11783, 5646, 5801, 6573
11784, 6565, 6570, 6571
11785, 6579, 6569, 6580
11786, 6570, 3115, 6576
11787, 6570, 6568, 6571
11788, 6568, 6572, 6571
11789, 5801, 6574, 6572
11790, 6572, 6568, 6573
11791, 6574, 5801, 5300
11792, 5321, 6575, 5320
11793, 5646, 6573, 4807
11794, 5300, 5906, 6574
11795, 6580, 6574, 5906
11796, 6573, 6568, 6575
11797, 6570, 6576, 6568
11798, 3115, 6581, 6576
11799, 5319, 6577, 2682
11800, 6575, 6577, 5320
11801, 6577, 6576, 6581
11802, 915, 916, 6578
11803, 6565, 6578, 916
11804, 5906, 5985, 6582
11805, 6578, 6579, 915
11806, 6579, 6580, 5906
11807, 6571, 6580, 6569
11808, 3116, 6581, 3115
11809, 6577, 6581, 2682
11810, 915, 6582, 914
11811, 5906, 6582, 6579
11812, 6585, 6586, 6583
11813, 6589, 6590, 6583
11814, 213, 212, 6584
11815, 6585, 6584, 212
11816, 3139, 6585, 212
11817, 6586, 6585, 3137
11818, 7777, 7466, 5997
11819, 6597, 6596, 215
11820, 6626, 6602, 6609
11821, 6626, 6615, 6627
11822, 6616, 5997, 7466
11823, 6588, 6591, 6590
11824, 6616, 6589, 6586
11825, 6590, 6589, 6588
11826, 6588, 6614, 6591
11827, 214, 213, 6600
11828, 6595, 6594, 6591
11829, 6600, 6593, 214
11830, 6601, 6595, 6587
11831, 6599, 6608, 6592
11832, 6590, 6591, 6593
11833, 6595, 6591, 6587
11834, 6596, 6594, 6592
11835, 6597, 6594, 6596
11836, 6601, 6599, 6595
11837, 6592, 6594, 6595
11838, 7449, 6607, 7448
11839, 216, 215, 6596
11840, 214, 6597, 215
11841, 6593, 6594, 6597
11842, 6613, 6609, 6603
11843, 6606, 6618, 6620
11844, 6598, 6604, 6599
11845, 6599, 6604, 6608
11846, 213, 6590, 6600
11847, 6593, 6600, 6590
11848, 6602, 6603, 6609
11849, 6598, 6599, 6601
11850, 6644, 6627, 6632
11851, 6634, 6650, 6647
11852, 6602, 6617, 6603
11853, 6620, 6621, 6631
11854, 6604, 6598, 6618
11855, 6608, 6244, 6607
11856, 6606, 6604, 6618
11857, 6605, 6631, 6651
11858, 6618, 6619, 6611
11859, 6606, 6605, 6624
11860, 6659, 6662, 6244
11861, 7448, 7452, 7450
11862, 6244, 6608, 6604
11863, 6592, 6608, 6607
11864, 6587, 6614, 6609
11865, 5807, 6098, 6632
11866, 6627, 6645, 6602
11867, 6623, 6621, 6610
11868, 6622, 6603, 6617
11869, 6606, 6620, 6605
11870, 6624, 6639, 6612
11871, 6642, 6641, 6639
11872, 6619, 6613, 6603
11873, 6587, 6613, 6601
11874, 6591, 6614, 6587
11875, 6588, 6589, 6616
11876, 6614, 6615, 6626
11877, 6588, 6616, 6614
11878, 5997, 6616, 6586
11879, 6616, 6615, 6614
11880, 6644, 6645, 6627
11881, 6610, 6621, 6622
11882, 6619, 6618, 6598
11883, 6620, 6618, 6611
11884, 6601, 6619, 6598
11885, 6622, 6619, 6603
11886, 6621, 6611, 6622
11887, 6620, 6611, 6621
11888, 6610, 6628, 6623
11889, 6630, 6631, 6623
11890, 6622, 6611, 6619
11891, 6610, 6622, 6617
11892, 6629, 6623, 6636
11893, 6629, 6630, 6623
11894, 6605, 6651, 6639
11895, 6612, 6659, 6625
11896, 6606, 6624, 6625
11897, 6612, 6625, 6624
11898, 6614, 6626, 6609
11899, 5807, 6632, 6615
11900, 7468, 7467, 6633
11901, 6602, 6626, 6627
11902, 6633, 6646, 6645
11903, 6636, 6635, 854
11904, 854, 855, 6629
11905, 6630, 6629, 855
11906, 6637, 6630, 855
11907, 6620, 6631, 6605
11908, 6623, 6631, 6621
11909, 6631, 6630, 6651
11910, 6644, 6632, 6097
11911, 6615, 6632, 6627
11912, 7467, 6650, 6633
11913, 6655, 6645, 6646
11914, 6635, 6649, 853
11915, 6628, 6610, 6654
11916, 6623, 6628, 6636
11917, 6649, 6635, 6628
11918, 6635, 6636, 6628
11919, 855, 856, 6637
11920, 6637, 856, 6638
11921, 857, 6643, 856
11922, 7470, 857, 858
11923, 6605, 6639, 6624
11924, 6640, 6642, 6643
11925, 6656, 6667, 7464
11926, 6640, 6656, 6641
11927, 6640, 6667, 6656
11928, 6657, 6659, 6612
11929, 6643, 6642, 6638
11930, 6641, 6642, 6640
11931, 856, 6643, 6638
11932, 6643, 857, 7470
11933, 6097, 6138, 7468
11934, 6644, 6633, 6645
11935, 6650, 6646, 6633
11936, 6617, 6602, 6645
11937, 6634, 6649, 6654
11938, 6617, 6655, 6610
11939, 6172, 6647, 6171
11940, 6648, 6647, 852
11941, 852, 853, 6648
11942, 6649, 6648, 853
11943, 6649, 6628, 6654
11944, 6648, 6649, 6634
11945, 6647, 6650, 6171
11946, 6646, 6650, 6634
11947, 6637, 6651, 6630
11948, 6639, 6651, 6638
11949, 6019, 7459, 7460
11950, 7456, 7459, 6021
11951, 6653, 6658, 6666
11952, 6663, 6664, 6661
11953, 6655, 6654, 6610
11954, 6654, 6646, 6634
11955, 6645, 6655, 6617
11956, 6654, 6655, 6646
11957, 6667, 7470, 6665
11958, 6657, 6658, 6653
11959, 6658, 6641, 6656
11960, 6659, 6657, 6653
11961, 6656, 6652, 6658
11962, 6666, 6658, 6652
11963, 6663, 6662, 6659
11964, 6659, 6244, 6625
11965, 7459, 6660, 7460
11966, 7454, 7457, 7455
11967, 6663, 7469, 6664
11968, 217, 7450, 7452
11969, 6663, 6659, 6653
11970, 6662, 6661, 7451
11971, 6653, 6666, 7469
11972, 6661, 6662, 6663
11973, 7458, 7459, 7456
11974, 7079, 7454, 7456
11975, 7471, 6665, 7470
11976, 7465, 7115, 7462
11977, 6666, 6652, 7460
11978, 6666, 6660, 7469
11979, 7470, 6667, 6640
11980, 6667, 6665, 7464
11981, 6668, 7473, 6808
11982, 8022, 8016, 8019
11983, 2239, 7795, 7798
11984, 6669, 7809, 6807
11985, 7480, 6670, 7481
11986, 3399, 6671, 2368
11987, 3207, 6671, 3399
11988, 7485, 6671, 6670
11989, 6013, 6672, 2242
11990, 6677, 5926, 5829
11991, 3208, 6673, 3210
11992, 6674, 6673, 2724
11993, 6674, 2724, 5422
11994, 2242, 6672, 6674
11995, 7935, 5829, 7941
11996, 7489, 7488, 577
11997, 6677, 6676, 6672
11998, 7488, 6676, 6675
11999, 5926, 6677, 6672
12000, 6677, 5829, 7940
12001, 3224, 7493, 6678
12002, 7014, 7013, 7016
12003, 7501, 7499, 6679
12004, 6679, 7500, 6811
12005, 108, 7947, 6684
12006, 6684, 7947, 6682
12007, 110, 109, 6681
12008, 6684, 6681, 109
12009, 7947, 107, 7502
12010, 6685, 7510, 7512
12011, 7394, 7362, 7385
12012, 7517, 7518, 7516
12013, 108, 6684, 109
12014, 7510, 6684, 6682
12015, 6680, 6684, 7510
12016, 7519, 7521, 7539
12017, 7510, 6686, 6680
12018, 7520, 6685, 7519
12019, 7599, 2258, 7571
12020, 7553, 7551, 7550
12021, 3301, 7545, 7548
12022, 7551, 6688, 7548
12023, 96, 6689, 97
12024, 6689, 2392, 6690
12025, 2858, 6690, 2392
12026, 2369, 6690, 3402
12027, 3303, 6689, 6691
12028, 6691, 6689, 6690
12029, 61, 7814, 7813
12030, 7163, 7158, 7157
12031, 7486, 2368, 7485
12032, 3315, 6693, 3311
12033, 3312, 6694, 3308
12034, 3923, 6694, 3313
12035, 7484, 6700, 3320
12036, 6701, 6695, 6700
12037, 1190, 6697, 1189
12038, 6695, 1188, 6696
12039, 6700, 6697, 3320
12040, 6700, 7484, 6698
12041, 6695, 6701, 6699
12042, 6702, 6699, 6407
12043, 1187, 1188, 6703
12044, 7484, 3320, 3318
12045, 6701, 6700, 6698
12046, 7483, 6698, 7482
12047, 6407, 6699, 6701
12048, 6702, 6707, 6706
12049, 1186, 1187, 6705
12050, 1188, 6699, 6703
12051, 6702, 6703, 6699
12052, 6707, 6407, 6709
12053, 6711, 6706, 6704
12054, 1187, 6702, 6705
12055, 6407, 6707, 6702
12056, 6710, 6711, 6712
12057, 6705, 6706, 7629
12058, 7483, 6407, 6701
12059, 6704, 6706, 6707
12060, 7479, 6722, 6729
12061, 6709, 6716, 6707
12062, 6709, 6407, 7483
12063, 6709, 6708, 6716
12064, 6742, 6727, 6740
12065, 6710, 7646, 6711
12066, 6712, 6711, 6704
12067, 6750, 6751, 7646
12068, 6728, 6715, 6716
12069, 6246, 6742, 6745
12070, 6713, 7647, 7628
12071, 6706, 6711, 6713
12072, 6714, 6722, 6720
12073, 6718, 6720, 6723
12074, 6716, 6715, 6704
12075, 6715, 6714, 6717
12076, 6716, 6704, 6707
12077, 6729, 6728, 6708
12078, 6714, 6719, 6717
12079, 6726, 6246, 6717
12080, 6719, 6720, 6718
12081, 6730, 6724, 538
12082, 6720, 6719, 6714
12083, 6719, 6718, 6732
12084, 6728, 6722, 6714
12085, 6720, 6444, 6723
12086, 6724, 6725, 6718
12087, 6741, 6725, 6730
12088, 6729, 6722, 6728
12089, 7479, 6729, 2241
12090, 7306, 6723, 6444
12091, 6724, 539, 538
12092, 6718, 6723, 6724
12093, 539, 6724, 6723
12094, 6741, 536, 6731
12095, 6732, 6725, 6733
12096, 6719, 6726, 6717
12097, 6727, 6726, 6721
12098, 6732, 6733, 6721
12099, 6727, 6742, 6246
12100, 6715, 6728, 6714
12101, 6708, 6728, 6716
12102, 7482, 6729, 6708
12103, 7479, 2241, 7478
12104, 538, 537, 6730
12105, 6741, 6730, 537
12106, 535, 7631, 6737
12107, 6733, 6734, 6721
12108, 6732, 6721, 6726
12109, 6718, 6725, 6732
12110, 6741, 6733, 6725
12111, 6733, 6731, 6734
12112, 6731, 6737, 6736
12113, 6734, 6731, 6736
12114, 7631, 7632, 7630
12115, 6734, 6739, 6727
12116, 6737, 6731, 536
12117, 6736, 6735, 7641
12118, 535, 6737, 536
12119, 6735, 6736, 6737
12120, 6736, 7641, 6738
12121, 6738, 6746, 6740
12122, 6736, 6739, 6734
12123, 6740, 6739, 6738
12124, 7639, 6735, 7631
12125, 6751, 7647, 7646
12126, 536, 6741, 537
12127, 6733, 6741, 6731
12128, 6747, 6749, 6740
12129, 6712, 6745, 6710
12130, 6756, 6757, 6761
12131, 6744, 6747, 6753
12132, 6740, 6746, 6747
12133, 6753, 6768, 6744
12134, 6246, 6745, 6712
12135, 6750, 6742, 6749
12136, 7641, 7635, 6738
12137, 6747, 6746, 6743
12138, 6754, 6753, 6747
12139, 6747, 6744, 6749
12140, 6755, 6754, 6743
12141, 6758, 6760, 6770
12142, 6752, 6744, 6763
12143, 6740, 6749, 6742
12144, 6742, 6750, 6745
12145, 6752, 6749, 6744
12146, 6750, 6749, 6752
12147, 7648, 1185, 7647
12148, 6763, 6744, 6762
12149, 6750, 6752, 6751
12150, 6754, 6747, 6743
12151, 6756, 6753, 6748
12152, 6743, 7636, 6755
12153, 6748, 6753, 6754
12154, 6765, 6755, 6245
12155, 6748, 6754, 6755
12156, 6756, 6748, 6757
12157, 6756, 1183, 6762
12158, 6770, 6771, 6764
12159, 1181, 1182, 6759
12160, 6770, 6766, 6758
12161, 6776, 1180, 6767
12162, 1182, 6757, 6759
12163, 6760, 6759, 6757
12164, 6771, 6757, 6748
12165, 6760, 6758, 6767
12166, 1182, 1183, 6761
12167, 1183, 6756, 6761
12168, 1184, 6763, 6769
12169, 6752, 6763, 6751
12170, 6769, 6763, 6762
12171, 7648, 6763, 1184
12172, 6765, 6748, 6755
12173, 6764, 6765, 6766
12174, 6766, 6765, 6245
12175, 6748, 6765, 6764
12176, 6777, 7637, 6775
12177, 6781, 6773, 6780
12178, 6778, 6776, 6767
12179, 6774, 6767, 1180
12180, 6756, 6762, 6768
12181, 6744, 6768, 6762
12182, 6771, 6770, 6760
12183, 6762, 1183, 6769
12184, 6766, 6770, 6764
12185, 6757, 6771, 6760
12186, 6748, 6764, 6771
12187, 7972, 7975, 7973
12188, 7649, 7650, 6779
12189, 6778, 7649, 6780
12190, 6782, 6785, 6786
12191, 1180, 1181, 6774
12192, 6760, 6774, 1181
12193, 6746, 7635, 6743
12194, 7651, 7980, 7655
12195, 6782, 6776, 6773
12196, 6787, 1180, 6776
12197, 7637, 6777, 6245
12198, 7650, 6777, 6775
12199, 7649, 6758, 6766
12200, 6773, 6776, 6778
12201, 6766, 6777, 7650
12202, 7655, 7979, 6779
12203, 7649, 6778, 6758
12204, 6781, 6780, 6779
12205, 6779, 7650, 7655
12206, 7978, 7656, 6781
12207, 7656, 6785, 6781
12208, 1178, 1179, 6783
12209, 1179, 6782, 6783
12210, 6773, 6785, 6782
12211, 7660, 8098, 7659
12212, 6783, 6786, 1178
12213, 6781, 6785, 6773
12214, 6786, 6785, 6784
12215, 6786, 6784, 7658
12216, 6782, 6786, 6783
12217, 6790, 6788, 3421
12218, 6776, 1179, 6787
12219, 6791, 2626, 3015
12220, 5966, 6789, 2150
12221, 3424, 6789, 5766
12222, 4680, 6790, 3421
12223, 2626, 6790, 5229
12224, 2150, 6788, 6791
12225, 6791, 6788, 6790
12226, 5766, 6792, 3424
12227, 3426, 6792, 3425
12228, 2904, 6795, 3446
12229, 6797, 6793, 6794
12230, 3446, 6794, 6793
12231, 6795, 6794, 3446
12232, 4025, 6795, 2904
12233, 3448, 6794, 6795
12234, 3500, 6796, 2984
12235, 2455, 6793, 6796
12236, 6797, 1742, 2583
12237, 6796, 6797, 2984
12238, 4054, 6798, 3446
12239, 5202, 6798, 3447
12240, 6799, 2950, 2947
12241, 3491, 3493, 6799
12242, 3613, 6800, 3612
12243, 4187, 6800, 3609
12244, 3623, 6801, 3067
12245, 6947, 6801, 3621
12246, 6802, 3061, 3065
12247, 6801, 6802, 3621
12248, 5282, 6803, 2664
12249, 3630, 6803, 3631
12250, 6804, 3099, 3103
12251, 4252, 6804, 3668
12252, 6805, 2683, 6913
12253, 5305, 6805, 2224
12254, 3712, 6806, 2232
12255, 4318, 6806, 2700
12256, 6807, 3200, 7475
12257, 6808, 6807, 2717
12258, 6808, 2717, 7805
12259, 3197, 3755, 6808
12260, 6809, 2736, 6810
12261, 2246, 3805, 6809
12262, 2736, 3237, 6810
12263, 6812, 6810, 3237
12264, 6811, 3239, 7494
12265, 6812, 6811, 2737
12266, 5843, 6812, 2737
12267, 3237, 3808, 6812
12268, 7093, 7526, 7085
12269, 7662, 7665, 7771
12270, 2253, 6814, 4461
12271, 6815, 6814, 6813
12272, 6817, 6815, 6813
12273, 6815, 2756, 6818
12274, 6817, 7662, 6816
12275, 7768, 7770, 7070
12276, 7662, 6817, 6813
12277, 6817, 6816, 7769
12278, 3880, 6818, 3282
12279, 6815, 6818, 3878
12280, 6819, 3276, 3280
12281, 6818, 6819, 3878
12282, 6820, 2762, 4487
12283, 7034, 6820, 2255
12284, 6826, 6821, 6823
12285, 6824, 7672, 7684
12286, 7667, 2763, 5037
12287, 6823, 6822, 3295
12288, 3900, 6823, 3295
12289, 6826, 6823, 3901
12290, 6828, 6826, 3901
12291, 2257, 4497, 7982
12292, 2763, 6821, 6827
12293, 6829, 6827, 6821
12294, 3901, 4488, 6828
12295, 7985, 6827, 6829
12296, 6829, 6821, 6826
12297, 6831, 6827, 6825
12298, 679, 680, 6828
12299, 7670, 7669, 680
12300, 6824, 7986, 6826
12301, 7986, 7684, 7683
12302, 6831, 7678, 6830
12303, 6833, 6832, 6830
12304, 7678, 6825, 7677
12305, 6831, 6830, 6832
12306, 6833, 6830, 7685
12307, 2763, 6832, 7026
12308, 7029, 2256, 4485
12309, 6833, 7025, 7026
12310, 6837, 6834, 2766
12311, 6836, 2768, 3908
12312, 7876, 7869, 8061
12313, 7569, 8070, 7958
12314, 6837, 6836, 6834
12315, 6835, 8071, 6838
12316, 2766, 7876, 8061
12317, 6836, 6837, 6835
12318, 6687, 6838, 2258
12319, 2768, 6836, 6838
12320, 6839, 2770, 7097
12321, 5039, 6839, 2260
12322, 6845, 897, 6843
12323, 3388, 6848, 6850
12324, 4626, 6841, 3966
12325, 6842, 6841, 895
12326, 895, 896, 6842
12327, 6845, 6842, 896
12328, 6853, 6855, 7686
12329, 6840, 6847, 6844
12330, 6845, 6847, 6840
12331, 4005, 6848, 3388
12332, 897, 6845, 896
12333, 6847, 6845, 6843
12334, 3965, 6846, 3964
12335, 3966, 6844, 6846
12336, 6852, 6847, 6843
12337, 4007, 4008, 6850
12338, 3964, 6848, 4005
12339, 6850, 6848, 6844
12340, 7686, 6855, 897
12341, 6860, 6854, 6857
12342, 6844, 6847, 6850
12343, 6850, 6847, 6851
12344, 6850, 6851, 4007
12345, 6852, 6851, 6847
12346, 6855, 6852, 6843
12347, 6851, 6852, 6849
12348, 6403, 6857, 6858
12349, 6853, 6858, 6857
12350, 4007, 6849, 6854
12351, 6857, 6854, 6849
12352, 897, 6855, 6843
12353, 6857, 6855, 6853
12354, 4012, 6856, 2227
12355, 4007, 6856, 4009
12356, 6857, 6849, 6855
12357, 6857, 6403, 6860
12358, 6861, 6853, 7686
12359, 6859, 6862, 899
12360, 6870, 900, 6863
12361, 6403, 6858, 6859
12362, 6860, 6403, 6868
12363, 6865, 6872, 6871
12364, 6853, 6861, 6858
12365, 6862, 6861, 898
12366, 900, 901, 8163
12367, 6861, 6862, 6859
12368, 6879, 6872, 6864
12369, 6859, 6866, 6403
12370, 6868, 6867, 6864
12371, 2227, 6860, 6865
12372, 6865, 6860, 6874
12373, 6867, 6866, 6863
12374, 6868, 6866, 6867
12375, 8163, 6876, 900
12376, 6229, 6873, 6880
12377, 6872, 6874, 6864
12378, 6403, 6866, 6868
12379, 6864, 6867, 6869
12380, 6867, 6876, 6877
12381, 900, 6870, 899
12382, 6866, 6870, 6863
12383, 7692, 6871, 4013
12384, 7687, 6871, 4014
12385, 6879, 6864, 6869
12386, 6871, 6872, 4013
12387, 6873, 6879, 6880
12388, 6881, 6873, 6229
12389, 6860, 6868, 6874
12390, 6864, 6874, 6868
12391, 6876, 6867, 6863
12392, 6882, 6886, 6887
12393, 900, 6876, 6863
12394, 6877, 6876, 6875
12395, 6877, 6875, 6878
12396, 6867, 6877, 6869
12397, 6882, 6887, 902
12398, 6237, 6878, 6231
12399, 6880, 6879, 6869
12400, 6872, 6879, 6873
12401, 6878, 6880, 6869
12402, 6229, 6880, 6235
12403, 6230, 6888, 6229
12404, 6892, 6884, 6891
12405, 7688, 6882, 902
12406, 6878, 6885, 6231
12407, 6883, 6888, 6889
12408, 6890, 6891, 6889
12409, 6883, 6891, 6893
12410, 6892, 259, 6894
12411, 6875, 8163, 6886
12412, 6885, 6882, 7691
12413, 6882, 6885, 6886
12414, 6875, 6886, 6885
12415, 6228, 6888, 6230
12416, 6886, 901, 6887
12417, 6889, 6888, 6227
12418, 7180, 6889, 6227
12419, 6890, 6889, 261
12420, 261, 260, 6890
12421, 260, 6892, 6891
12422, 6893, 6891, 6884
12423, 6889, 6891, 6883
12424, 260, 259, 6892
12425, 259, 4652, 6894
12426, 6893, 6884, 7692
12427, 6883, 6893, 6881
12428, 4015, 6894, 4652
12429, 6884, 6892, 6894
12430, 3438, 6895, 2826
12431, 3364, 6895, 2366
12432, 6280, 6896, 3990
12433, 2202, 6896, 2197
12434, 3467, 6897, 3565
12435, 2928, 6897, 4035
12436, 3468, 6908, 6903
12437, 6906, 4109, 4110
12438, 6903, 6898, 2929
12439, 6904, 6902, 6900
12440, 6902, 6899, 6903
12441, 2142, 2632, 6905
12442, 2374, 6901, 6419
12443, 6905, 6901, 6900
12444, 6899, 6898, 6903
12445, 6900, 6901, 6904
12446, 6903, 2929, 3468
12447, 6900, 6902, 6903
12448, 2832, 6904, 2374
12449, 1385, 6256, 6907
12450, 6900, 6903, 6908
12451, 1678, 6905, 2632
12452, 2503, 6898, 6906
12453, 4109, 6906, 6898
12454, 5247, 6904, 6907
12455, 1385, 6907, 6904
12456, 2142, 6905, 6908
12457, 6900, 6908, 6905
12458, 6078, 6909, 2650
12459, 4159, 6909, 4160
12460, 4745, 6910, 4186
12461, 4192, 6910, 4191
12462, 6911, 3637, 3639
12463, 4225, 6911, 3640
12464, 6912, 3127, 5237
12465, 7004, 6912, 2687
12466, 4290, 6913, 3119
12467, 6805, 6913, 4291
12468, 4322, 6914, 3148
12469, 4299, 6914, 4300
12470, 4374, 6915, 3213
12471, 4942, 6915, 2726
12472, 4370, 6916, 4369
12473, 3786, 6916, 4371
12474, 2742, 6917, 4415
12475, 6918, 6917, 4423
12476, 5496, 6918, 4423
12477, 3834, 6918, 4422
12478, 3298, 3907, 6919
12479, 6920, 6919, 3907
12480, 4500, 6920, 2767
12481, 6919, 6920, 4501
12482, 6922, 318, 317
12483, 4509, 2771, 6921
12484, 1379, 4509, 6922
12485, 6924, 159, 158
12486, 4520, 2772, 6923
12487, 1380, 4520, 6924
12488, 6926, 477, 476
12489, 4531, 2773, 6925
12490, 1377, 4531, 6926
12491, 6928, 636, 635
12492, 4542, 2774, 6927
12493, 1378, 4542, 6928
12494, 3928, 6929, 2298
12495, 3929, 6929, 3930
12496, 3935, 6930, 2300
12497, 3936, 6930, 3937
12498, 3942, 6931, 2302
12499, 3943, 6931, 3944
12500, 3949, 6932, 2304
12501, 3950, 6932, 3951
12502, 5545, 6933, 1220
12503, 6933, 4624, 5187
12504, 6935, 3466, 4657
12505, 2457, 6934, 4658
12506, 6935, 4657, 4157
12507, 4658, 6934, 6935
12508, 3536, 6936, 4123
12509, 6939, 4703, 4116
12510, 6938, 4120, 5252
12511, 6941, 6942, 6943
12512, 6942, 6938, 4707
12513, 6938, 6937, 6940
12514, 6936, 6939, 4704
12515, 6940, 6939, 4116
12516, 4119, 6940, 4116
12517, 6938, 6940, 4120
12518, 6942, 6941, 6937
12519, 5234, 6944, 5232
12520, 6938, 6942, 6937
12521, 6943, 6942, 4707
12522, 5251, 6943, 4707
12523, 6943, 5232, 6944
12524, 5233, 6941, 6944
12525, 6943, 6944, 6941
12526, 4747, 6945, 2382
12527, 4745, 6945, 4746
12528, 6952, 4755, 6948
12529, 6562, 6560, 7932
12530, 6949, 3621, 4197
12531, 6948, 4755, 6954
12532, 6947, 6949, 6948
12533, 2216, 6951, 6949
12534, 6949, 6947, 3621
12535, 2216, 6563, 6951
12536, 6953, 6949, 6951
12537, 6950, 7989, 7694
12538, 7989, 6562, 7694
12539, 6950, 6952, 6953
12540, 6948, 6949, 6953
12541, 7696, 6952, 6950
12542, 6953, 6951, 7989
12543, 6948, 6953, 6952
12544, 4756, 6954, 4759
12545, 4755, 4760, 6954
12546, 7696, 7695, 4755
12547, 7703, 1076, 7704
12548, 7711, 7715, 6956
12549, 7044, 7732, 7735
12550, 6958, 6957, 3112
12551, 4811, 6957, 4812
12552, 6958, 3112, 7106
12553, 4812, 6958, 2681
12554, 4293, 6959, 4830
12555, 6959, 3145, 6106
12556, 6963, 6960, 2698
12557, 6960, 3152, 6961
12558, 3707, 6961, 3152
12559, 4833, 6961, 4294
12560, 4313, 6962, 4839
12561, 3152, 6960, 6963
12562, 4840, 6963, 2698
12563, 3152, 6963, 6962
12564, 4849, 6964, 4845
12565, 6220, 6964, 4840
12566, 4862, 6965, 4329
12567, 5364, 6965, 3161
12568, 6966, 4906, 7796
12569, 6967, 6966, 2239
12570, 6669, 6967, 2239
12571, 6968, 6967, 2718
12572, 4910, 6968, 3199
12573, 6967, 6968, 4908
12574, 6972, 754, 5011
12575, 5950, 6970, 5009
12576, 6971, 6970, 5951
12577, 5009, 6970, 6969
12578, 6971, 5951, 7096
12579, 6971, 753, 7716
12580, 5009, 6972, 5010
12581, 6972, 6969, 7716
12582, 5038, 6973, 3892
12583, 5016, 6973, 5017
12584, 6975, 6974, 1331
12585, 6424, 6974, 5075
12586, 1327, 6975, 1331
12587, 5078, 6975, 1394
12588, 1347, 6976, 1327
12589, 1394, 6976, 1506
12590, 6978, 6977, 1332
12591, 6427, 6977, 5105
12592, 1328, 6978, 1332
12593, 5108, 6978, 1396
12594, 1348, 6979, 1328
12595, 1396, 6979, 1507
12596, 4126, 6980, 2595
12597, 6980, 4128, 4127
12598, 6982, 6981, 1329
12599, 6430, 6981, 5137
12600, 1325, 6982, 1329
12601, 5140, 6982, 1390
12602, 1345, 6983, 1325
12603, 1390, 6983, 1504
12604, 1530, 5153, 6984
12605, 6984, 5153, 5154
12606, 5150, 6985, 4592
12607, 5153, 6985, 5154
12608, 6987, 6986, 1330
12609, 6433, 6986, 5177
12610, 1326, 6987, 1330
12611, 5180, 6987, 1392
12612, 1346, 6988, 1326
12613, 1392, 6988, 1505
12614, 7718, 1613, 7720
12615, 7722, 4644, 7723
12616, 4699, 2881, 6990
12617, 7717, 6990, 2881
12618, 6991, 4043, 4558
12619, 3016, 6991, 5083
12620, 6992, 4041, 4042
12621, 4043, 6991, 6992
12622, 5083, 6993, 4567
12623, 4558, 6993, 6991
12624, 4047, 4704, 6994
12625, 6941, 6994, 4704
12626, 2658, 6995, 5253
12627, 5888, 6995, 5254
12628, 5268, 6996, 2655
12629, 6087, 6997, 5269
12630, 6997, 6121, 3596
12631, 5269, 6997, 6996
12632, 6998, 5274, 3615
12633, 6999, 6998, 4749
12634, 5618, 6999, 4749
12635, 6999, 4174, 5614
12636, 3633, 7000, 3078
12637, 5288, 7000, 3634
12638, 4770, 7001, 4214
12639, 5639, 7001, 4771
12640, 4820, 7002, 4281
12641, 5806, 7002, 3122
12642, 5581, 7003, 2687
12643, 4285, 5331, 7003
12644, 2687, 7003, 7004
12645, 5331, 7004, 7003
12646, 5813, 7005, 5333
12647, 5346, 5348, 7006
12648, 5334, 7005, 7006
12649, 5346, 7006, 7005
12650, 5394, 7007, 3734
12651, 7007, 5392, 5759
12652, 5411, 7008, 2236
12653, 5407, 7008, 5412
12654, 3791, 7009, 3788
12655, 7009, 5438, 2734
12656, 7015, 7013, 7010
12657, 7014, 7011, 7012
12658, 7012, 7011, 5442
12659, 7011, 5443, 5445
12660, 7012, 5442, 7725
12661, 7012, 7010, 7013
12662, 7728, 7015, 7010
12663, 7016, 7013, 7017
12664, 7011, 7014, 5443
12665, 7012, 7013, 7014
12666, 1242, 7018, 7015
12667, 7015, 7018, 6678
12668, 5699, 5830, 7016
12669, 7014, 7016, 5443
12670, 7015, 7017, 7013
12671, 7017, 6678, 7493
12672, 1242, 1243, 7018
12673, 7018, 1243, 7492
12674, 7021, 5017, 7023
12675, 7028, 7030, 7019
12676, 2760, 7020, 5729
12677, 7036, 7020, 7019
12678, 7021, 7023, 7022
12679, 7019, 7020, 7021
12680, 5037, 7024, 3294
12681, 7023, 7024, 7022
12682, 5038, 7023, 5017
12683, 7024, 7023, 3294
12684, 5037, 7025, 7024
12685, 7024, 7025, 7027
12686, 5037, 2763, 7026
12687, 6833, 7027, 7025
12688, 6833, 7026, 6832
12689, 5037, 7026, 7025
12690, 6833, 7029, 7027
12691, 7027, 7029, 7030
12692, 7024, 7028, 7022
12693, 7030, 7028, 7027
12694, 7029, 6833, 7685
12695, 7030, 7029, 4485
12696, 4485, 7031, 7030
12697, 7032, 2761, 7033
12698, 4484, 7031, 4485
12699, 7032, 7031, 2761
12700, 7034, 7032, 7033
12701, 7035, 7036, 7034
12702, 3896, 7033, 2761
12703, 7034, 7033, 3895
12704, 6820, 7034, 3895
12705, 7035, 7034, 2255
12706, 5865, 7035, 2255
12707, 5488, 7020, 7036
12708, 7030, 7036, 7019
12709, 7036, 7032, 7034
12710, 4792, 7037, 2675
12711, 7038, 7037, 4235
12712, 4237, 7038, 4235
12713, 7039, 7038, 4231
12714, 7039, 4231, 4790
12715, 7037, 7039, 5580
12716, 5590, 7040, 5589
12717, 5254, 7040, 5591
12718, 7041, 5259, 7066
12719, 5592, 7041, 5593
12720, 3045, 5595, 7042
12721, 7042, 5595, 7066
12722, 5590, 7043, 4739
12723, 5611, 7043, 5589
12724, 7730, 4757, 4760
12725, 7732, 7044, 7730
12726, 6091, 6126, 7123
12727, 5799, 7045, 4802
12728, 7047, 7046, 5327
12729, 5805, 7046, 5652
12730, 5654, 7047, 5330
12731, 7046, 7047, 5652
12732, 5663, 7048, 845
12733, 5918, 7048, 5662
12734, 7052, 7049, 1225
12735, 7056, 5928, 5930
12736, 5826, 7050, 5697
12737, 1224, 7050, 5828
12738, 1225, 7053, 7052
12739, 7050, 7051, 7049
12740, 7053, 7054, 7052
12741, 1225, 1226, 7053
12742, 7054, 7053, 1226
12743, 7736, 7054, 1226
12744, 7055, 7751, 5933
12745, 7052, 7054, 7055
12746, 7055, 7054, 7751
12747, 7050, 7056, 5697
12748, 7056, 7049, 7052
12749, 5942, 7497, 5706
12750, 8052, 7759, 8055
12751, 5717, 7058, 4421
12752, 7059, 7058, 4972
12753, 2391, 2857, 7062
12754, 7061, 7060, 4079
12755, 5716, 7059, 7060
12756, 7060, 7059, 7062
12757, 4081, 7061, 4079
12758, 5854, 7061, 4082
12759, 2391, 7062, 7059
12760, 1750, 7062, 2857
12761, 7060, 7062, 7063
12762, 1750, 7063, 7062
12763, 7064, 2709, 4880
12764, 7065, 7064, 4343
12765, 5561, 7065, 4343
12766, 5755, 7065, 5562
12767, 5887, 7066, 5259
12768, 7042, 7066, 5770
12769, 5690, 7067, 5692
12770, 5691, 5821, 7067
12771, 1241, 7724, 7762
12772, 7755, 5944, 5706
12773, 5859, 7069, 4449
12774, 2753, 7069, 5858
12775, 5727, 5861, 7074
12776, 7772, 7073, 7071
12777, 5012, 7071, 3268
12778, 7071, 5012, 7772
12779, 5864, 7072, 5863
12780, 3271, 7072, 2752
12781, 7075, 7074, 7073
12782, 7072, 7073, 5863
12783, 7075, 7073, 7070
12784, 5727, 7074, 7075
12785, 7075, 7070, 5728
12786, 5727, 7075, 5862
12787, 7077, 7076, 221
12788, 5883, 7076, 5882
12789, 7077, 7078, 7080
12790, 5751, 7773, 6021
12791, 221, 220, 7078
12792, 7080, 7078, 220
12793, 7080, 220, 7457
12794, 7457, 218, 7455
12795, 7457, 220, 219
12796, 7773, 7080, 7079
12797, 7081, 4803, 5299
12798, 2222, 7081, 4250
12799, 843, 7082, 842
12800, 7083, 7082, 5917
12801, 7083, 5917, 6008
12802, 6141, 7083, 6062
12803, 7054, 7736, 7738
12804, 8095, 8093, 8092
12805, 7085, 7087, 7093
12806, 7775, 748, 749
12807, 7087, 7086, 5955
12808, 7086, 7087, 7088
12809, 5955, 7089, 7087
12810, 7666, 5953, 7664
12811, 7088, 7085, 7094
12812, 749, 750, 7092
12813, 5954, 7089, 5955
12814, 7093, 7087, 7666
12815, 7663, 7664, 7662
12816, 2253, 7524, 7532
12817, 7528, 7526, 7527
12818, 7528, 7530, 7091
12819, 750, 7088, 7092
12820, 7088, 7094, 8008
12821, 7666, 7087, 7089
12822, 7090, 7533, 7526
12823, 7085, 7526, 7528
12824, 7775, 8008, 7091
12825, 752, 6971, 7096
12826, 7086, 7095, 5955
12827, 5955, 7096, 5951
12828, 752, 7096, 7095
12829, 7162, 7097, 3306
12830, 6839, 7097, 5961
12831, 5878, 7098, 5736
12832, 5960, 5961, 7098
12833, 7099, 7100, 7101
12834, 7099, 7102, 7103
12835, 4801, 7100, 4248
12836, 7101, 7100, 268
12837, 268, 267, 7101
12838, 7102, 7101, 267
12839, 7776, 267, 266
12840, 7103, 7102, 5977
12841, 5978, 7103, 5977
12842, 5893, 7103, 5798
12843, 5981, 7130, 7133
12844, 7104, 7133, 7132
12845, 7151, 909, 7152
12846, 6133, 6134, 7150
12847, 5993, 7106, 4263
12848, 6958, 7106, 5988
12849, 3139, 7107, 3137
12850, 7108, 7107, 2692
12851, 5809, 7108, 2692
12852, 5808, 5996, 7777
12853, 6109, 7785, 6010
12854, 7795, 2239, 7796
12855, 7112, 7110, 7111
12856, 7109, 7808, 7113
12857, 7112, 7111, 6012
12858, 5821, 7111, 7110
12859, 7112, 6012, 6065
12860, 7109, 7110, 7112
12861, 4904, 7110, 7113
12862, 7109, 7113, 7110
12863, 6020, 7114, 5884
12864, 7460, 7114, 6019
12865, 7462, 7460, 7463
12866, 7779, 7115, 7465
12867, 5978, 7116, 5980
12868, 7776, 7116, 5977
12869, 265, 6233, 7118
12870, 7776, 7117, 6045
12871, 6211, 7118, 6213
12872, 6088, 7118, 5979
12873, 6048, 7119, 5982
12874, 7119, 6049, 2222
12875, 6092, 7120, 6052
12876, 3104, 7120, 2678
12877, 6053, 4802, 7122
12878, 7123, 6126, 5982
12879, 4249, 7122, 7045
12880, 6053, 7122, 7121
12881, 7121, 7122, 7123
12882, 4249, 7123, 7122
12883, 912, 6054, 7124
12884, 6094, 7126, 6054
12885, 7124, 6054, 7126
12886, 7125, 7126, 6134
12887, 6134, 7126, 6129
12888, 7126, 7125, 7124
12889, 7152, 6133, 7151
12890, 911, 7127, 910
12891, 7159, 6066, 5736
12892, 6144, 7128, 6067
12893, 8009, 1013, 7781
12894, 7848, 7850, 7847
12895, 7130, 6047, 7131
12896, 7138, 7130, 5981
12897, 6047, 6183, 7131
12898, 7131, 6183, 7132
12899, 7134, 7132, 6183
12900, 7136, 906, 907
12901, 7133, 7104, 7784
12902, 7130, 7131, 7133
12903, 7187, 7188, 6181
12904, 7140, 7134, 905
12905, 7104, 7132, 7135
12906, 7134, 7135, 7132
12907, 7136, 7783, 7137
12908, 7104, 7135, 7136
12909, 7155, 908, 7154
12910, 7155, 7156, 7137
12911, 7812, 7138, 5981
12912, 6090, 7138, 6046
12913, 7189, 6183, 7188
12914, 7184, 6181, 7185
12915, 905, 906, 7140
12916, 7135, 7140, 906
12917, 904, 7139, 7142
12918, 7184, 7187, 6181
12919, 7187, 7142, 7139
12920, 903, 7142, 7141
12921, 1173, 7790, 8011
12922, 7787, 7791, 7806
12923, 6142, 7144, 6064
12924, 6010, 7144, 6109
12925, 5895, 7145, 5644
12926, 6131, 7145, 6132
12927, 6046, 7138, 7812
12928, 6132, 5895, 7146
12929, 6132, 7146, 7147
12930, 7146, 6046, 7812
12931, 6132, 7148, 6131
12932, 7149, 7147, 7105
12933, 7153, 7154, 7151
12934, 7148, 7149, 7150
12935, 6128, 7150, 6134
12936, 7153, 7149, 7105
12937, 6133, 7150, 7151
12938, 7153, 7151, 7150
12939, 909, 910, 7152
12940, 7127, 7152, 910
12941, 7149, 7153, 7150
12942, 7154, 7153, 7105
12943, 7155, 7154, 7105
12944, 908, 909, 7154
12945, 7156, 7155, 7105
12946, 7155, 7137, 7783
12947, 7147, 7156, 7105
12948, 7156, 5981, 7784
12949, 5736, 7098, 7160
12950, 7164, 7163, 7157
12951, 7158, 6149, 7172
12952, 7159, 7158, 6067
12953, 7128, 7159, 6067
12954, 5736, 7157, 7159
12955, 7162, 7160, 5961
12956, 6692, 7813, 7164
12957, 7813, 6692, 7627
12958, 7178, 7179, 7815
12959, 7097, 7162, 5961
12960, 6692, 7162, 3306
12961, 7164, 7157, 7160
12962, 7173, 7163, 7161
12963, 6692, 7164, 7160
12964, 7161, 7163, 7164
12965, 7820, 7169, 7959
12966, 7559, 7561, 7574
12967, 6199, 7166, 694
12968, 7167, 7166, 6200
12969, 7588, 7167, 6200
12970, 7167, 7165, 7817
12971, 7598, 7593, 7597
12972, 7610, 7592, 7593
12973, 7582, 7622, 7578
12974, 7580, 7559, 7574
12975, 7173, 7175, 7163
12976, 7609, 7624, 7625
12977, 6204, 7171, 6203
12978, 7172, 7171, 6146
12979, 6148, 7172, 6146
12980, 7175, 7172, 6149
12981, 7814, 7161, 7813
12982, 7179, 7177, 7173
12983, 7171, 7176, 6203
12984, 7176, 7170, 7177
12985, 7163, 7175, 6149
12986, 7177, 7175, 7173
12987, 7170, 7175, 7177
12988, 7970, 7176, 7174
12989, 7815, 7179, 7173
12990, 7174, 7176, 7177
12991, 60, 59, 7822
12992, 59, 7823, 7822
12993, 7815, 7173, 7814
12994, 7179, 7178, 7824
12995, 6889, 7180, 261
12996, 6227, 6228, 7181
12997, 6224, 7181, 6222
12998, 262, 7180, 7181
12999, 6230, 7182, 6232
13000, 6229, 6235, 7182
13001, 6238, 7183, 6214
13002, 7183, 6236, 7184
13003, 7186, 6236, 6240
13004, 7184, 7186, 7187
13005, 6182, 7185, 6181
13006, 7183, 7185, 6161
13007, 7690, 7186, 6240
13008, 7187, 7186, 7141
13009, 7142, 7187, 7141
13010, 6181, 7188, 6183
13011, 7139, 7189, 7187
13012, 7134, 7189, 7139
13013, 6183, 7189, 7134
13014, 7187, 7189, 7188
13015, 7334, 7330, 7331
13016, 7325, 7336, 7335
13017, 7420, 7412, 7414
13018, 6542, 7406, 7408
13019, 582, 581, 8003
13020, 8100, 7859, 8099
13021, 7992, 7997, 7993
13022, 5932, 7751, 7741
13023, 8115, 7863, 8109
13024, 7896, 8064, 8066
13025, 7506, 7507, 7358
13026, 7357, 7399, 7358
13027, 7396, 7399, 7388
13028, 7360, 7385, 7361
13029, 7542, 7865, 746
13030, 7512, 7515, 6683
13031, 7402, 7403, 7922
13032, 7353, 6249, 7356
13033, 7348, 104, 103
13034, 7199, 7351, 7356
13035, 6688, 7551, 7553
13036, 7590, 7558, 7561
13037, 7201, 7583, 7577
13038, 7626, 7563, 7605
13039, 7203, 1596, 1575
13040, 8165, 7202, 6264
13041, 1575, 6432, 7204
13042, 6264, 7202, 7203
13043, 7835, 7206, 7204
13044, 1575, 7204, 7203
13045, 8166, 8167, 8156
13046, 7206, 7205, 6264
13047, 7203, 7206, 6264
13048, 7204, 1595, 7835
13049, 7208, 1598, 1577
13050, 8174, 7207, 6265
13051, 1577, 6435, 7209
13052, 6265, 7207, 7208
13053, 7836, 7211, 7209
13054, 1577, 7209, 7208
13055, 8175, 8176, 8158
13056, 7211, 7210, 6265
13057, 7208, 7211, 6265
13058, 7209, 1597, 7836
13059, 7213, 1600, 1579
13060, 8183, 7212, 6266
13061, 1579, 6426, 7214
13062, 6266, 7212, 7213
13063, 7837, 7216, 7214
13064, 1579, 7214, 7213
13065, 8184, 8185, 8160
13066, 7216, 7215, 6266
13067, 7213, 7216, 6266
13068, 7214, 1599, 7837
13069, 7218, 1602, 1581
13070, 8192, 7217, 6267
13071, 1581, 6429, 7219
13072, 6267, 7217, 7218
13073, 7838, 7221, 7219
13074, 1581, 7219, 7218
13075, 8193, 8194, 8162
13076, 7221, 7220, 6267
13077, 7218, 7221, 6267
13078, 7219, 1601, 7838
13079, 6317, 7222, 1023
13080, 6330, 7222, 6311
13081, 7225, 7226, 7224
13082, 7223, 6369, 6393
13083, 7230, 7226, 7228
13084, 7232, 7226, 7230
13085, 7226, 7223, 373
13086, 7227, 7225, 7224
13087, 373, 7228, 7226
13088, 7230, 372, 7231
13089, 7246, 7227, 7224
13090, 7227, 6379, 6382
13091, 373, 372, 7228
13092, 7230, 7228, 372
13093, 7252, 7251, 7249
13094, 7244, 7233, 7248
13095, 7231, 372, 371
13096, 7230, 7229, 7232
13097, 7302, 7231, 371
13098, 7258, 6442, 7255
13099, 7233, 7232, 7229
13100, 7226, 7232, 7224
13101, 7251, 7247, 7248
13102, 7242, 7243, 7244
13103, 7236, 7237, 7265
13104, 6370, 7250, 7261
13105, 6374, 7235, 1017
13106, 7236, 7235, 6372
13107, 7237, 7236, 6372
13108, 7238, 7236, 7234
13109, 7239, 7237, 6372
13110, 6370, 7261, 7265
13111, 7238, 7234, 7852
13112, 7235, 7238, 1016
13113, 6372, 6374, 7241
13114, 7239, 6383, 7242
13115, 6365, 6367, 7245
13116, 6383, 7239, 7240
13117, 6365, 7241, 6374
13118, 7239, 7241, 7240
13119, 6383, 7243, 7242
13120, 7243, 7246, 7244
13121, 6382, 7243, 6383
13122, 7243, 6379, 7246
13123, 7839, 7251, 7248
13124, 6370, 7242, 7244
13125, 6359, 7240, 7245
13126, 6365, 7245, 7240
13127, 7246, 6379, 7227
13128, 7233, 7244, 7246
13129, 7257, 7262, 7252
13130, 7250, 6370, 7259
13131, 7839, 7233, 7229
13132, 7248, 7247, 7250
13133, 7258, 7229, 7231
13134, 2649, 7253, 7255
13135, 7247, 7260, 7250
13136, 7265, 7261, 7268
13137, 7839, 7248, 7233
13138, 7249, 7253, 7252
13139, 7257, 7252, 2210
13140, 7247, 7251, 7252
13141, 7255, 7253, 7249
13142, 2649, 6118, 7256
13143, 7254, 7257, 7840
13144, 7263, 7260, 7262
13145, 7249, 7839, 7258
13146, 2649, 7255, 6442
13147, 7252, 7256, 2210
13148, 2649, 7256, 7253
13149, 7840, 7257, 2210
13150, 7257, 7254, 7262
13151, 6442, 7258, 7231
13152, 7249, 7258, 7255
13153, 6370, 7244, 7259
13154, 7248, 7259, 7244
13155, 7262, 7260, 7247
13156, 7268, 7266, 7267
13157, 7260, 7266, 7250
13158, 7261, 7250, 7266
13159, 7262, 7247, 7252
13160, 7263, 7262, 7254
13161, 7263, 7254, 7844
13162, 6401, 7260, 7263
13163, 7263, 7844, 7264
13164, 7843, 8010, 7782
13165, 7236, 7265, 7234
13166, 6370, 7265, 7237
13167, 6401, 7845, 7260
13168, 7845, 7846, 7267
13169, 7845, 7267, 7266
13170, 1015, 7851, 1014
13171, 7266, 7268, 7261
13172, 7852, 7267, 7851
13173, 7270, 1020, 1021
13174, 6397, 7269, 6355
13175, 7275, 1022, 7274
13176, 7269, 7270, 7276
13177, 6336, 7272, 6327
13178, 7273, 6334, 6357
13179, 6334, 7272, 6336
13180, 7274, 7272, 7271
13181, 6355, 7273, 6357
13182, 7272, 7273, 7271
13183, 6327, 7274, 6332
13184, 7275, 7274, 7271
13185, 7275, 7271, 7276
13186, 1022, 7275, 1021
13187, 7275, 7276, 7270
13188, 7273, 7276, 7271
13189, 6386, 7277, 376
13190, 6388, 7277, 6384
13191, 7278, 7279, 7280
13192, 7282, 7278, 6400
13193, 7910, 1061, 1062
13194, 7278, 1060, 7279
13195, 7281, 7280, 6464
13196, 7281, 6464, 7311
13197, 6400, 7278, 7281
13198, 6454, 7282, 6400
13199, 6450, 7283, 6449
13200, 1060, 7283, 1059
13201, 6449, 7283, 7282
13202, 1014, 7851, 7853
13203, 7781, 7284, 7847
13204, 1073, 7440, 7443
13205, 7413, 7421, 7430
13206, 7855, 8040, 7856
13207, 8013, 7790, 8012
13208, 584, 583, 7860
13209, 8099, 7859, 7860
13210, 8042, 1235, 1236
13211, 7863, 8101, 8045
13212, 7535, 6410, 7537
13213, 7864, 7952, 7956
13214, 7884, 7675, 7676
13215, 7668, 7672, 6824
13216, 7871, 7291, 7875
13217, 8061, 6835, 6837
13218, 7613, 7965, 686
13219, 7874, 7673, 7675
13220, 7572, 7568, 7570
13221, 8072, 7964, 7965
13222, 7608, 7605, 7620
13223, 6250, 7557, 7966
13224, 7295, 7296, 7297
13225, 7299, 7295, 6414
13226, 8069, 735, 736
13227, 7295, 734, 7296
13228, 7298, 7297, 6505
13229, 7298, 6505, 7345
13230, 6414, 7295, 7298
13231, 6495, 7299, 6414
13232, 6491, 7300, 6490
13233, 734, 7300, 733
13234, 6490, 7300, 7299
13235, 3032, 7301, 417
13236, 6484, 7301, 6441
13237, 3034, 7302, 370
13238, 7231, 7302, 6442
13239, 3196, 7303, 529
13240, 7305, 7303, 6443
13241, 8029, 8075, 7977
13242, 7889, 7304, 8076
13243, 7889, 7305, 6443
13244, 7889, 7976, 7305
13245, 6723, 7306, 539
13246, 3206, 7306, 6444
13247, 7307, 586, 7891
13248, 3238, 7307, 6445
13249, 7308, 7891, 7858
13250, 7892, 7308, 7287
13251, 7309, 7895, 7894
13252, 8067, 7893, 8068
13253, 3302, 7310, 99
13254, 6525, 7310, 6446
13255, 6460, 7311, 6458
13256, 7281, 7311, 6463
13257, 6474, 7312, 6465
13258, 6441, 7312, 6476
13259, 7316, 7313, 6485
13260, 7315, 6552, 7317
13261, 7322, 7323, 7899
13262, 6552, 7319, 7333
13263, 422, 7313, 7315
13264, 7315, 7313, 7328
13265, 6485, 6488, 7320
13266, 7316, 7314, 7319
13267, 6553, 7317, 6552
13268, 6554, 423, 7317
13269, 422, 7315, 7318
13270, 7317, 7318, 7315
13271, 7319, 7314, 7329
13272, 6552, 7315, 7319
13273, 7322, 7320, 6473
13274, 7316, 7320, 7324
13275, 7898, 7897, 7909
13276, 7330, 7324, 7326
13277, 7323, 7322, 6473
13278, 7324, 7322, 7321
13279, 6475, 7323, 6473
13280, 6241, 7897, 7899
13281, 7326, 7324, 7321
13282, 7324, 7314, 7316
13283, 7325, 7326, 7327
13284, 7334, 7331, 7344
13285, 7326, 7321, 7898
13286, 7326, 7325, 7330
13287, 7898, 7899, 7897
13288, 7337, 7343, 7338
13289, 7313, 7316, 7328
13290, 7319, 7328, 7316
13291, 7330, 7329, 7314
13292, 7329, 7334, 7332
13293, 7330, 7314, 7324
13294, 7330, 7325, 7331
13295, 7325, 7335, 7331
13296, 7407, 7405, 6243
13297, 7405, 7332, 6243
13298, 7333, 7332, 6555
13299, 7332, 7333, 7329
13300, 6555, 6552, 7333
13301, 7332, 7334, 6243
13302, 7330, 7334, 7329
13303, 7336, 7325, 7327
13304, 7915, 7335, 7190
13305, 7339, 7336, 7327
13306, 7341, 7338, 1066
13307, 7909, 7327, 7898
13308, 7338, 7343, 1066
13309, 7190, 7336, 7338
13310, 7338, 7336, 7339
13311, 7339, 7327, 7909
13312, 7338, 7339, 7337
13313, 7344, 7331, 7915
13314, 7916, 7342, 7915
13315, 1066, 1067, 7341
13316, 7341, 1067, 7342
13317, 7411, 1067, 1068
13318, 7342, 7410, 7915
13319, 7337, 1065, 7343
13320, 1065, 1066, 7343
13321, 7331, 7335, 7915
13322, 7407, 7344, 7340
13323, 6501, 7345, 6499
13324, 7298, 7345, 6504
13325, 6515, 7346, 6506
13326, 6446, 7346, 6517
13327, 7400, 7363, 7364
13328, 7351, 7199, 7352
13329, 7349, 7348, 6526
13330, 7348, 7352, 7509
13331, 6526, 6529, 7350
13332, 7349, 7347, 7351
13333, 7350, 6514, 7364
13334, 7347, 7349, 7350
13335, 7353, 7351, 7347
13336, 7351, 7353, 7356
13337, 7352, 7199, 7509
13338, 7348, 7349, 7352
13339, 7353, 7363, 7355
13340, 7363, 7353, 7347
13341, 7364, 7363, 7347
13342, 7366, 7370, 7372
13343, 7354, 7365, 7355
13344, 7920, 7383, 7384
13345, 7359, 7356, 6249
13346, 7356, 7359, 7358
13347, 7357, 7359, 7361
13348, 7357, 7361, 7362
13349, 7195, 7504, 7506
13350, 7199, 7356, 7358
13351, 7383, 7361, 6249
13352, 7358, 7359, 7357
13353, 7355, 7383, 6249
13354, 7921, 7360, 7920
13355, 6249, 7361, 7359
13356, 7361, 7385, 7362
13357, 7832, 7387, 7394
13358, 7394, 7395, 7362
13359, 7347, 7350, 7364
13360, 7354, 7355, 7363
13361, 6514, 7389, 7364
13362, 7390, 7364, 7389
13363, 7368, 7367, 7365
13364, 7384, 7365, 7198
13365, 7370, 7354, 7400
13366, 7372, 7378, 7379
13367, 7366, 7373, 7367
13368, 7367, 7373, 7392
13369, 7400, 7354, 7363
13370, 7366, 7367, 7368
13371, 6511, 7380, 6251
13372, 7366, 7368, 7370
13373, 7354, 7370, 7368
13374, 7374, 7372, 7370
13375, 7375, 6508, 7382
13376, 7377, 7371, 7382
13377, 7371, 7376, 7372
13378, 7376, 7378, 7372
13379, 7373, 7366, 7379
13380, 7373, 740, 7392
13381, 7380, 7369, 7390
13382, 7371, 7372, 7374
13383, 7371, 7374, 7375
13384, 7375, 7374, 7369
13385, 7376, 7371, 7377
13386, 7378, 7376, 738
13387, 7371, 7375, 7382
13388, 737, 7377, 7918
13389, 738, 739, 7378
13390, 7378, 739, 7379
13391, 7379, 739, 7391
13392, 7372, 7379, 7366
13393, 6508, 7380, 6511
13394, 7369, 7380, 7375
13395, 6508, 7393, 7382
13396, 7377, 737, 7381
13397, 7382, 7393, 7917
13398, 7355, 7365, 7384
13399, 7361, 7383, 7360
13400, 7402, 7920, 7198
13401, 7355, 7384, 7383
13402, 7383, 7920, 7360
13403, 7394, 7385, 7196
13404, 7920, 7402, 7386
13405, 742, 7924, 7922
13406, 7950, 7948, 7949
13407, 7395, 6248, 7388
13408, 7388, 6248, 7396
13409, 7357, 7362, 7388
13410, 6516, 7389, 6514
13411, 7390, 7389, 6251
13412, 7380, 7390, 6251
13413, 7370, 7400, 7369
13414, 741, 7403, 7401
13415, 7379, 7391, 7373
13416, 7403, 7402, 7392
13417, 6510, 7393, 6508
13418, 7917, 7393, 6499
13419, 7928, 7925, 7924
13420, 7395, 7394, 7387
13421, 7395, 7387, 7948
13422, 7362, 7395, 7388
13423, 7398, 7396, 6248
13424, 7503, 7398, 7397
13425, 7512, 7397, 7514
13426, 7510, 6685, 6686
13427, 6248, 7948, 7514
13428, 7503, 7397, 7502
13429, 7358, 7399, 7195
13430, 7357, 7388, 7399
13431, 7364, 7390, 7400
13432, 7369, 7400, 7390
13433, 7198, 7392, 7402
13434, 7392, 740, 7401
13435, 7392, 7401, 7403
13436, 742, 7922, 7923
13437, 741, 7923, 7403
13438, 6554, 7404, 424
13439, 6550, 7404, 6546
13440, 6243, 7344, 7407
13441, 7408, 6547, 6558
13442, 6556, 7406, 6542
13443, 7332, 7406, 6555
13444, 7340, 7409, 7407
13445, 7409, 7417, 7407
13446, 7407, 7417, 7416
13447, 7416, 7408, 7405
13448, 7340, 7915, 7410
13449, 7417, 7409, 7191
13450, 7342, 7411, 7410
13451, 1068, 7412, 7411
13452, 1067, 7411, 7342
13453, 7414, 1069, 7420
13454, 7420, 1070, 7415
13455, 7191, 7410, 7412
13456, 7418, 7191, 7412
13457, 6547, 7408, 7429
13458, 7426, 7425, 1070
13459, 7412, 1068, 7414
13460, 7418, 7421, 7191
13461, 7407, 7416, 7405
13462, 7429, 7416, 7413
13463, 7421, 7417, 7191
13464, 7416, 7417, 7413
13465, 7420, 7418, 7412
13466, 7418, 7415, 7419
13467, 7415, 7424, 7419
13468, 7438, 7437, 7442
13469, 1070, 7420, 1069
13470, 7418, 7420, 7415
13471, 7421, 7413, 7417
13472, 7418, 7419, 7421
13473, 1071, 7426, 1070
13474, 7436, 6402, 7432
13475, 7419, 7424, 7437
13476, 6402, 7433, 7432
13477, 7425, 7415, 1070
13478, 7437, 7424, 7422
13479, 7422, 7424, 7425
13480, 7415, 7425, 7424
13481, 7426, 1071, 7427
13482, 7422, 7425, 7426
13483, 1071, 1072, 7427
13484, 7443, 7427, 1072
13485, 7285, 7438, 7442
13486, 7426, 7428, 7422
13487, 7429, 7408, 7416
13488, 7432, 7429, 7423
13489, 7437, 7430, 7419
13490, 7429, 7430, 7423
13491, 7432, 7431, 6538
13492, 7433, 7431, 7432
13493, 7435, 7432, 6538
13494, 7436, 7432, 7423
13495, 7434, 7433, 6402
13496, 6560, 7431, 7433
13497, 7285, 7441, 7439
13498, 6946, 7698, 7694
13499, 6557, 7435, 6538
13500, 7429, 7435, 6547
13501, 7437, 7436, 7423
13502, 7439, 7438, 7285
13503, 7437, 7423, 7430
13504, 7422, 7428, 7442
13505, 6402, 7436, 7438
13506, 7437, 7438, 7436
13507, 7285, 7443, 7441
13508, 6402, 7439, 7434
13509, 8077, 8082, 7693
13510, 7441, 8080, 7439
13511, 7443, 7285, 7427
13512, 7441, 7440, 8080
13513, 7422, 7442, 7437
13514, 7285, 7442, 7428
13515, 1073, 7443, 1072
13516, 7441, 7443, 7440
13517, 3627, 7444, 1081
13518, 7444, 6564, 7714
13519, 7735, 7732, 7734
13520, 3071, 7445, 6564
13521, 7710, 7446, 7715
13522, 7447, 7714, 7445
13523, 7447, 5634, 7735
13524, 7447, 7446, 7714
13525, 7449, 216, 6596
13526, 7451, 7448, 6607
13527, 6607, 7449, 6592
13528, 7449, 7448, 7450
13529, 217, 216, 7450
13530, 7449, 7450, 216
13531, 6662, 7451, 6607
13532, 7451, 6661, 7452
13533, 7453, 6661, 6664
13534, 217, 7452, 7455
13535, 7453, 6664, 7454
13536, 217, 7455, 218
13537, 7456, 7454, 6664
13538, 7457, 7454, 7079
13539, 7452, 7453, 7455
13540, 7454, 7455, 7453
13541, 7458, 7456, 6664
13542, 7079, 7456, 6021
13543, 7080, 7457, 7079
13544, 7457, 219, 218
13545, 7469, 7458, 6664
13546, 7458, 6660, 7459
13547, 6660, 6666, 7460
13548, 6021, 7459, 6019
13549, 7460, 6652, 7463
13550, 7114, 7460, 6026
13551, 7464, 7461, 7463
13552, 7465, 859, 7779
13553, 6023, 7462, 7115
13554, 7460, 7462, 6026
13555, 7464, 7463, 6652
13556, 7462, 7463, 7461
13557, 7464, 6652, 6656
13558, 7465, 7464, 6665
13559, 7464, 7465, 7461
13560, 7471, 7465, 6665
13561, 5807, 6615, 7466
13562, 6616, 7466, 6615
13563, 6650, 7467, 6171
13564, 7468, 6633, 6644
13565, 6097, 7468, 6644
13566, 5995, 7468, 6138
13567, 6653, 7469, 6663
13568, 7458, 7469, 6660
13569, 7470, 6640, 6643
13570, 7471, 7470, 858
13571, 858, 859, 7471
13572, 7465, 7471, 859
13573, 7304, 7472, 2238
13574, 7473, 7472, 2716
13575, 3196, 7473, 2716
13576, 6808, 7473, 3197
13577, 7799, 7803, 2717
13578, 7799, 7809, 7798
13579, 3198, 7475, 3200
13580, 6967, 7475, 2718
13581, 7806, 7792, 7795
13582, 7802, 7794, 8017
13583, 7478, 7477, 2723
13584, 6671, 7477, 6670
13585, 7478, 2723, 7479
13586, 7481, 7478, 2241
13587, 2723, 6444, 7479
13588, 6720, 7479, 6444
13589, 7481, 7482, 7480
13590, 7485, 7480, 3318
13591, 7478, 7481, 6670
13592, 7482, 7481, 2241
13593, 6729, 7482, 2241
13594, 6708, 6709, 7483
13595, 6698, 7483, 6701
13596, 7483, 7482, 6708
13597, 3318, 7480, 7484
13598, 7482, 7484, 7480
13599, 3318, 3319, 7486
13600, 7485, 2368, 6671
13601, 2368, 7486, 6693
13602, 7486, 7485, 3318
13603, 7933, 5932, 7934
13604, 7487, 7933, 7939
13605, 7488, 576, 3769
13606, 7937, 7490, 7491
13607, 577, 576, 7489
13608, 576, 7488, 7489
13609, 7084, 7938, 7936
13610, 7944, 7945, 7490
13611, 7937, 7491, 6675
13612, 7491, 7490, 7945
13613, 3796, 7492, 1244
13614, 7018, 7492, 6678
13615, 5698, 7493, 3224
13616, 7017, 7493, 5699
13617, 3238, 7494, 3239
13618, 7495, 7494, 2738
13619, 7495, 2738, 7895
13620, 7501, 7495, 2247
13621, 7758, 7757, 7057
13622, 7763, 7765, 7766
13623, 5942, 7498, 7497
13624, 7497, 7498, 7499
13625, 5843, 7498, 5942
13626, 7499, 7498, 2737
13627, 7500, 2737, 6811
13628, 6679, 7495, 7501
13629, 6679, 7499, 7500
13630, 2737, 7500, 7499
13631, 7759, 7501, 2247
13632, 7496, 7499, 7501
13633, 7502, 7504, 7503
13634, 7396, 7503, 7195
13635, 7398, 7503, 7396
13636, 7504, 7502, 107
13637, 107, 7505, 7504
13638, 7195, 7506, 7358
13639, 107, 106, 7505
13640, 7505, 106, 7508
13641, 7505, 7506, 7504
13642, 7508, 105, 7507
13643, 7509, 105, 104
13644, 7199, 7358, 7507
13645, 7505, 7508, 7506
13646, 105, 7508, 106
13647, 7509, 104, 7348
13648, 7199, 7507, 7509
13649, 6682, 7511, 7510
13650, 7512, 6683, 7521
13651, 7511, 6682, 7947
13652, 7512, 7511, 7397
13653, 7511, 7512, 7510
13654, 7397, 7398, 7514
13655, 7513, 7514, 7948
13656, 7948, 7950, 7513
13657, 6248, 7514, 7398
13658, 7514, 7513, 7515
13659, 7514, 7515, 7512
13660, 7951, 7513, 7950
13661, 7539, 7536, 7538
13662, 7516, 7523, 7517
13663, 2755, 7517, 3280
13664, 7544, 7523, 7538
13665, 7520, 2755, 3281
13666, 6685, 7520, 6686
13667, 7521, 7519, 6685
13668, 7516, 7518, 7519
13669, 7520, 7518, 2755
13670, 6686, 7520, 3278
13671, 7512, 7521, 6685
13672, 7521, 6683, 7539
13673, 7525, 7527, 7526
13674, 7523, 7524, 7517
13675, 7538, 7523, 7516
13676, 7523, 7522, 7524
13677, 7532, 7522, 7531
13678, 7529, 6813, 6814
13679, 7527, 7531, 7544
13680, 7663, 7529, 7533
13681, 7090, 7526, 7093
13682, 7525, 7531, 7527
13683, 7534, 7528, 7527
13684, 7528, 7091, 7094
13685, 7085, 7528, 7094
13686, 7527, 7544, 7534
13687, 2253, 7529, 6814
13688, 7529, 7532, 7533
13689, 7535, 7530, 7534
13690, 7543, 7541, 7542
13691, 7531, 7525, 7532
13692, 7531, 7522, 7544
13693, 7532, 7524, 7522
13694, 7533, 7532, 7525
13695, 7526, 7533, 7525
13696, 7664, 7663, 7090
13697, 7535, 7534, 6410
13698, 7528, 7534, 7530
13699, 7536, 7537, 7538
13700, 7541, 7535, 7289
13701, 7951, 7515, 7513
13702, 7537, 7954, 7535
13703, 7538, 7537, 6410
13704, 7537, 7536, 7954
13705, 7544, 7538, 6410
13706, 7539, 7516, 7519
13707, 7536, 7539, 6683
13708, 7516, 7539, 7538
13709, 7530, 7535, 7541
13710, 748, 7540, 7543
13711, 7541, 7289, 7542
13712, 7530, 7541, 7540
13713, 7865, 7542, 7289
13714, 746, 747, 7542
13715, 748, 7543, 747
13716, 7541, 7543, 7540
13717, 6410, 7534, 7544
13718, 7523, 7544, 7522
13719, 3300, 7545, 3301
13720, 6838, 7545, 2768
13721, 7958, 8070, 8071
13722, 7550, 7552, 7555
13723, 3909, 7547, 52
13724, 7957, 7547, 6688
13725, 7549, 6687, 7599
13726, 7548, 6687, 7549
13727, 7555, 7554, 7557
13728, 7550, 7551, 7552
13729, 7548, 7552, 7551
13730, 7557, 7558, 7560
13731, 7552, 7548, 7549
13732, 7560, 7550, 7557
13733, 7546, 7562, 7549
13734, 7556, 7554, 7555
13735, 7553, 7560, 7611
13736, 7957, 54, 53
13737, 7549, 7562, 7552
13738, 7563, 7566, 7567
13739, 7556, 7555, 7552
13740, 7554, 7966, 7557
13741, 7556, 7568, 7567
13742, 7567, 6413, 7604
13743, 7558, 7557, 6250
13744, 7550, 7555, 7557
13745, 7558, 6250, 7561
13746, 7558, 7200, 7560
13747, 6250, 7573, 7561
13748, 7593, 7594, 7597
13749, 7611, 7560, 7200
13750, 7553, 7550, 7560
13751, 7616, 7564, 7573
13752, 7561, 7559, 7589
13753, 7562, 7546, 7568
13754, 7552, 7562, 7556
13755, 7563, 7604, 7605
13756, 7554, 7556, 7566
13757, 7577, 7583, 7584
13758, 7573, 7574, 7561
13759, 7593, 57, 7610
13760, 55, 7591, 7592
13761, 7567, 7566, 7556
13762, 7566, 7563, 7626
13763, 7556, 7562, 7568
13764, 6413, 7603, 7604
13765, 7568, 7546, 7570
13766, 6413, 7567, 7568
13767, 7571, 8070, 7570
13768, 7569, 7612, 7572
13769, 7571, 7570, 7546
13770, 7570, 7569, 7572
13771, 7546, 7549, 7599
13772, 8071, 8070, 2258
13773, 7612, 7962, 7600
13774, 7572, 7293, 7601
13775, 6250, 7966, 7616
13776, 7573, 7564, 7574
13777, 7577, 7576, 7564
13778, 7580, 7576, 7581
13779, 7165, 7588, 7586
13780, 7961, 8164, 7960
13781, 7564, 7617, 7577
13782, 7576, 7575, 7581
13783, 7968, 7583, 7201
13784, 7575, 7576, 7577
13785, 7578, 7581, 7582
13786, 7168, 7596, 8164
13787, 7579, 7587, 7585
13788, 7584, 7575, 7577
13789, 7576, 7580, 7574
13790, 7960, 7580, 7578
13791, 7582, 7581, 7575
13792, 7580, 7581, 7578
13793, 7575, 7584, 7586
13794, 7624, 7623, 7169
13795, 7968, 7201, 7619
13796, 7583, 7579, 7584
13797, 7585, 7584, 7579
13798, 7584, 7585, 7586
13799, 7579, 7967, 7587
13800, 7817, 7585, 692
13801, 7165, 7167, 7588
13802, 7582, 7575, 7586
13803, 691, 692, 7587
13804, 692, 7585, 7587
13805, 6200, 7820, 7959
13806, 7586, 7588, 7959
13807, 7589, 7559, 7594
13808, 7590, 7589, 7565
13809, 7591, 7590, 7565
13810, 7590, 7200, 7558
13811, 7592, 7591, 7565
13812, 55, 54, 7595
13813, 7592, 7565, 7593
13814, 55, 7592, 56
13815, 7594, 7565, 7589
13816, 7565, 7594, 7593
13817, 7559, 7580, 7960
13818, 7594, 7960, 7597
13819, 54, 7957, 7611
13820, 7200, 7591, 7595
13821, 7819, 7168, 7818
13822, 7598, 57, 7593
13823, 7960, 7594, 7559
13824, 7597, 7596, 7598
13825, 7819, 7598, 7596
13826, 58, 57, 7598
13827, 2258, 7599, 6687
13828, 7546, 7599, 7571
13829, 7600, 6412, 7880
13830, 7612, 8072, 7572
13831, 7613, 7602, 7293
13832, 7604, 7603, 7294
13833, 687, 7614, 7602
13834, 7603, 7606, 7294
13835, 6413, 7601, 7603
13836, 7602, 7603, 7601
13837, 7604, 7294, 7620
13838, 7567, 7604, 7563
13839, 7608, 7620, 7607
13840, 7615, 7554, 7566
13841, 7614, 7606, 7602
13842, 7607, 688, 689
13843, 7294, 7606, 7607
13844, 688, 7607, 7606
13845, 689, 7621, 7608
13846, 7618, 7619, 7201
13847, 7622, 7582, 7623
13848, 7609, 7623, 7624
13849, 57, 56, 7610
13850, 7592, 7610, 56
13851, 7200, 7595, 7611
13852, 54, 7611, 7595
13853, 7962, 7612, 7569
13854, 7612, 7600, 8072
13855, 7293, 8072, 7965
13856, 686, 687, 7613
13857, 687, 688, 7614
13858, 7606, 7614, 688
13859, 7605, 7608, 7619
13860, 7564, 7616, 7617
13861, 6250, 7616, 7573
13862, 7617, 7616, 7615
13863, 7615, 7626, 7618
13864, 7617, 7201, 7577
13865, 7201, 7617, 7618
13866, 7615, 7618, 7617
13867, 7969, 7608, 7621
13868, 7967, 690, 691
13869, 7604, 7620, 7605
13870, 7607, 7620, 7294
13871, 689, 690, 7621
13872, 690, 7967, 7969
13873, 7582, 7959, 7623
13874, 7961, 7622, 7609
13875, 7624, 7169, 6201
13876, 7609, 7622, 7623
13877, 7970, 6201, 6203
13878, 7625, 7168, 8164
13879, 7970, 7625, 7624
13880, 7174, 7168, 7625
13881, 7618, 7626, 7605
13882, 7566, 7626, 7615
13883, 7813, 7627, 62
13884, 3914, 7627, 6692
13885, 1185, 1186, 7628
13886, 7629, 7628, 1186
13887, 6705, 7629, 1186
13888, 6713, 7629, 6706
13889, 7638, 533, 7633
13890, 7636, 7637, 6245
13891, 7632, 7631, 535
13892, 7631, 7630, 7639
13893, 535, 534, 7632
13894, 7638, 7632, 534
13895, 7971, 533, 7973
13896, 6772, 7651, 7642
13897, 7639, 7630, 7640
13898, 7635, 7636, 6743
13899, 6738, 7635, 6746
13900, 7636, 7635, 7634
13901, 7636, 7634, 7637
13902, 7636, 6245, 6755
13903, 7640, 7637, 7634
13904, 7637, 7643, 7642
13905, 533, 7638, 534
13906, 7640, 7638, 7633
13907, 7630, 7638, 7640
13908, 7634, 7635, 7641
13909, 7640, 7633, 7643
13910, 7634, 7639, 7640
13911, 6735, 7639, 7641
13912, 7641, 7639, 7634
13913, 6775, 7637, 7642
13914, 7637, 7640, 7643
13915, 7633, 533, 7971
13916, 7642, 7643, 7645
13917, 7974, 7972, 7973
13918, 7642, 7645, 6772
13919, 7633, 7645, 7643
13920, 7975, 7645, 7644
13921, 6711, 7646, 6713
13922, 6750, 7646, 6710
13923, 7646, 7647, 6713
13924, 7648, 7647, 6751
13925, 6763, 7648, 6751
13926, 1185, 7648, 1184
13927, 7650, 7649, 6766
13928, 6780, 7649, 6779
13929, 7651, 6775, 7642
13930, 7650, 6775, 7651
13931, 7652, 7980, 6772
13932, 7981, 7652, 6406
13933, 7645, 7975, 6772
13934, 7654, 7981, 7653
13935, 8076, 7977, 8075
13936, 7656, 7978, 6405
13937, 7654, 7655, 7980
13938, 7978, 7979, 7653
13939, 7651, 7655, 7650
13940, 7655, 7654, 7979
13941, 7660, 7656, 6405
13942, 6785, 7656, 6784
13943, 8021, 8026, 8022
13944, 8018, 7855, 7856
13945, 6786, 7658, 1178
13946, 7659, 7658, 6784
13947, 7660, 7659, 6784
13948, 7659, 7657, 7661
13949, 7656, 7660, 6784
13950, 6405, 8020, 8098
13951, 7657, 8019, 7857
13952, 1176, 1177, 7661
13953, 7662, 6813, 7663
13954, 7662, 7664, 7665
13955, 7529, 7663, 6813
13956, 7090, 7663, 7533
13957, 7666, 7090, 7093
13958, 7665, 7664, 5953
13959, 5954, 7665, 5953
13960, 5949, 5728, 7771
13961, 5953, 7666, 7089
13962, 7090, 7666, 7664
13963, 5036, 7667, 5037
13964, 3295, 7667, 3902
13965, 7671, 7668, 7670
13966, 7668, 7671, 7672
13967, 6826, 7669, 6824
13968, 680, 7669, 6828
13969, 680, 681, 7670
13970, 7671, 7670, 681
13971, 682, 7671, 681
13972, 7672, 7671, 7290
13973, 7290, 7673, 7672
13974, 6411, 7870, 7683
13975, 7290, 7676, 7675
13976, 6411, 7672, 7673
13977, 7878, 7880, 7873
13978, 7872, 7873, 7881
13979, 7290, 7671, 7676
13980, 7675, 7674, 7872
13981, 682, 683, 7676
13982, 683, 7879, 7884
13983, 7680, 2764, 4491
13984, 6825, 7984, 7983
13985, 6825, 7678, 6831
13986, 2764, 7680, 7681
13987, 7678, 7677, 7681
13988, 4493, 7679, 4492
13989, 4492, 7680, 4491
13990, 7679, 7678, 7681
13991, 2764, 7681, 7677
13992, 7679, 7681, 7680
13993, 7985, 7984, 6825
13994, 7875, 7870, 7871
13995, 7683, 7684, 6411
13996, 7984, 7683, 7682
13997, 6411, 7684, 7672
13998, 7986, 7683, 7985
13999, 7679, 7685, 6830
14000, 7029, 7685, 2256
14001, 897, 898, 7686
14002, 6861, 7686, 898
14003, 2227, 7687, 4012
14004, 6871, 7687, 6865
14005, 7690, 7689, 903
14006, 7691, 7688, 6240
14007, 6240, 7688, 7690
14008, 7688, 902, 7689
14009, 7690, 7688, 7689
14010, 6885, 7691, 6231
14011, 7688, 7691, 6882
14012, 7692, 4013, 6881
14013, 6894, 7692, 6884
14014, 1076, 7707, 1075
14015, 7693, 7702, 8077
14016, 7932, 7694, 6562
14017, 8080, 7988, 8079
14018, 4755, 6952, 7696
14019, 7700, 7695, 6955
14020, 6950, 7698, 7696
14021, 7699, 7701, 7698
14022, 7700, 7705, 7697
14023, 7731, 7697, 7712
14024, 7694, 7698, 6950
14025, 7698, 6946, 7699
14026, 6946, 7702, 7699
14027, 7693, 1075, 7707
14028, 7705, 6955, 7704
14029, 7700, 7697, 7733
14030, 7695, 7701, 6955
14031, 7698, 7701, 7696
14032, 8077, 7702, 6946
14033, 7702, 7693, 7707
14034, 6955, 7699, 7703
14035, 7702, 7707, 7699
14036, 7706, 7708, 1078
14037, 6955, 7703, 7704
14038, 6955, 7705, 7700
14039, 7708, 7704, 1077
14040, 7709, 1078, 1079
14041, 7712, 7706, 7711
14042, 1076, 7703, 7707
14043, 7703, 7699, 7707
14044, 7704, 7708, 7705
14045, 1078, 7708, 1077
14046, 7709, 1079, 7710
14047, 7712, 7711, 6956
14048, 1079, 7713, 7710
14049, 7714, 7713, 1080
14050, 7706, 7709, 7711
14051, 7715, 7709, 7710
14052, 7731, 7712, 6956
14053, 7697, 7706, 7712
14054, 1079, 1080, 7713
14055, 1080, 7444, 7714
14056, 7446, 7710, 7714
14057, 7713, 7714, 7710
14058, 7715, 7446, 7734
14059, 7709, 7715, 7711
14060, 6972, 7716, 754
14061, 6971, 7716, 6969
14062, 7718, 7717, 2421
14063, 6990, 7717, 6989
14064, 1613, 2879, 7720
14065, 7717, 7718, 6989
14066, 4646, 7721, 3415
14067, 7722, 4039, 4644
14068, 3415, 7720, 2879
14069, 7718, 7720, 7719
14070, 4039, 7721, 4646
14071, 7719, 3415, 7721
14072, 6989, 7719, 7722
14073, 7722, 7719, 7721
14074, 5198, 7723, 4644
14075, 7723, 5199, 6990
14076, 7010, 7012, 7725
14077, 7727, 7761, 7762
14078, 7726, 5442, 5844
14079, 7761, 7727, 7068
14080, 7754, 7726, 5844
14081, 7727, 7726, 7068
14082, 7724, 7725, 7727
14083, 7726, 7727, 7725
14084, 7015, 7728, 1242
14085, 7724, 7728, 7010
14086, 4758, 7729, 4761
14087, 7730, 7729, 4757
14088, 7730, 7733, 7731
14089, 7730, 7731, 7732
14090, 7731, 6956, 7732
14091, 7730, 4760, 7733
14092, 6956, 7734, 7732
14093, 7044, 7735, 5630
14094, 7733, 4760, 7695
14095, 7697, 7731, 7733
14096, 7715, 7734, 6956
14097, 7446, 7447, 7735
14098, 7735, 7734, 7446
14099, 5634, 5630, 7735
14100, 1226, 1227, 7736
14101, 7739, 7738, 7736
14102, 1228, 7748, 7745
14103, 7737, 7743, 7741
14104, 7741, 7738, 7737
14105, 7751, 5932, 5933
14106, 7740, 7739, 1227
14107, 7737, 7738, 7739
14108, 1227, 1228, 7740
14109, 7748, 1228, 1229
14110, 7743, 7737, 7747
14111, 7749, 7743, 7750
14112, 7742, 7996, 7992
14113, 7749, 5932, 7741
14114, 1228, 7745, 7740
14115, 7743, 7742, 7750
14116, 7991, 8083, 7990
14117, 8085, 8086, 8084
14118, 7747, 7745, 7744
14119, 7739, 7745, 7737
14120, 7746, 7750, 7992
14121, 7746, 7936, 7934
14122, 7745, 7747, 7737
14123, 8084, 8086, 7744
14124, 1229, 8083, 7991
14125, 7744, 7745, 7748
14126, 7743, 7749, 7741
14127, 7934, 7749, 7746
14128, 7992, 7750, 7742
14129, 7749, 7750, 7746
14130, 7054, 7738, 7751
14131, 7751, 7738, 7741
14132, 1238, 1239, 8006
14133, 8052, 8055, 8053
14134, 7767, 7763, 7764
14135, 7754, 7068, 7726
14136, 7755, 5844, 5944
14137, 7754, 7753, 7766
14138, 7753, 7754, 7755
14139, 7755, 7754, 5844
14140, 7756, 7496, 7757
14141, 7753, 7755, 7756
14142, 7760, 7501, 7759
14143, 7757, 7496, 7760
14144, 7753, 7756, 7758
14145, 7757, 7758, 7756
14146, 8062, 7759, 2247
14147, 8044, 8043, 8054
14148, 7501, 7760, 7496
14149, 8052, 7760, 7759
14150, 7762, 7761, 1240
14151, 7765, 7761, 7068
14152, 1241, 7762, 1240
14153, 7727, 7762, 7724
14154, 7068, 7754, 7766
14155, 8004, 8006, 7752
14156, 7758, 7057, 7764
14157, 7767, 7764, 7057
14158, 7765, 7068, 7766
14159, 7765, 7763, 8006
14160, 7753, 7764, 7766
14161, 7766, 7764, 7763
14162, 8051, 7767, 7057
14163, 7763, 7767, 7752
14164, 7769, 7768, 4457
14165, 7770, 7768, 6816
14166, 5013, 7769, 4457
14167, 7769, 2756, 6817
14168, 6816, 7662, 7771
14169, 7070, 7770, 5728
14170, 5728, 7770, 7771
14171, 6816, 7771, 7770
14172, 7768, 7772, 4457
14173, 7073, 7772, 7070
14174, 5963, 7773, 5751
14175, 7773, 7077, 7080
14176, 7942, 7938, 7774
14177, 7999, 7084, 7997
14178, 749, 7092, 8008
14179, 7540, 7775, 7091
14180, 7117, 7776, 266
14181, 7776, 6045, 7116
14182, 7107, 7777, 5997
14183, 5808, 7777, 7108
14184, 6028, 7778, 860
14185, 6023, 7115, 7778
14186, 859, 860, 7779
14187, 7778, 7779, 860
14188, 1011, 1012, 7780
14189, 8009, 7780, 1012
14190, 7854, 7781, 1013
14191, 7846, 7847, 7284
14192, 7129, 8009, 7849
14193, 7849, 7847, 7850
14194, 907, 908, 7783
14195, 7155, 7783, 908
14196, 7133, 7784, 5981
14197, 7136, 7784, 7104
14198, 7788, 7785, 7143
14199, 7109, 6010, 7789
14200, 7793, 7788, 8011
14201, 7792, 7786, 7797
14202, 7789, 7788, 7791
14203, 7791, 7786, 7792
14204, 7811, 8011, 7143
14205, 7791, 7788, 7786
14206, 7788, 7789, 7785
14207, 7789, 7787, 7807
14208, 8012, 1173, 1174
14209, 7797, 8017, 7794
14210, 7793, 8013, 7786
14211, 7789, 7791, 7787
14212, 7795, 7792, 7476
14213, 7791, 7792, 7806
14214, 8011, 7788, 7143
14215, 8013, 7793, 7790
14216, 8023, 6404, 8026
14217, 7797, 7801, 7792
14218, 7798, 7795, 7476
14219, 6966, 7796, 2239
14220, 4906, 7808, 7796
14221, 7109, 7789, 7807
14222, 8017, 7797, 7786
14223, 7797, 7794, 7801
14224, 7799, 7798, 7476
14225, 2239, 7798, 6669
14226, 7800, 7799, 7476
14227, 2717, 6807, 7809
14228, 7801, 7800, 7476
14229, 7800, 7474, 7803
14230, 7801, 7476, 7792
14231, 7802, 7801, 7794
14232, 7474, 7800, 7802
14233, 7802, 7800, 7801
14234, 7804, 7803, 7474
14235, 7805, 7803, 7804
14236, 8024, 7804, 7474
14237, 2238, 6668, 7804
14238, 6808, 7805, 6668
14239, 2717, 7803, 7805
14240, 7795, 7796, 7806
14241, 7796, 7808, 7807
14242, 7787, 7806, 7807
14243, 7796, 7807, 7806
14244, 7113, 7808, 4906
14245, 7807, 7808, 7109
14246, 7798, 7809, 6669
14247, 2717, 7809, 7799
14248, 6142, 7810, 6109
14249, 7811, 7810, 1171
14250, 1171, 1172, 7811
14251, 8011, 7811, 1172
14252, 7156, 7812, 5981
14253, 7146, 7812, 7147
14254, 61, 7813, 62
14255, 7164, 7813, 7161
14256, 61, 60, 7816
14257, 7173, 7161, 7814
14258, 7816, 7814, 61
14259, 7822, 7815, 60
14260, 60, 7815, 7816
14261, 7814, 7816, 7815
14262, 692, 693, 7817
14263, 7167, 7817, 693
14264, 58, 7598, 7819
14265, 7174, 7824, 7168
14266, 7168, 7819, 7596
14267, 7819, 7818, 8031
14268, 6199, 7820, 6200
14269, 7821, 7820, 6178
14270, 7821, 6178, 6198
14271, 6201, 7169, 7821
14272, 59, 8031, 7823
14273, 7815, 7822, 7178
14274, 7825, 7818, 7168
14275, 7178, 7822, 7823
14276, 7178, 7823, 7824
14277, 7823, 7818, 7825
14278, 7168, 7824, 7825
14279, 7823, 7825, 7824
14280, 7828, 582, 7827
14281, 7192, 8099, 7860
14282, 580, 8007, 8002
14283, 7993, 7997, 7084
14284, 582, 7828, 7826
14285, 7828, 7827, 8096
14286, 7829, 8036, 8035
14287, 8035, 7990, 8034
14288, 8115, 8110, 8111
14289, 8038, 7830, 7194
14290, 7833, 7387, 7832
14291, 7926, 7924, 7925
14292, 7196, 7832, 7394
14293, 7833, 7832, 7831
14294, 7831, 7931, 7834
14295, 7833, 7197, 7949
14296, 8039, 7834, 7931
14297, 745, 746, 8059
14298, 959, 7835, 1595
14299, 7205, 7835, 1607
14300, 796, 7836, 1597
14301, 7210, 7836, 1608
14302, 1122, 7837, 1599
14303, 7215, 7837, 1609
14304, 1285, 7838, 1601
14305, 7220, 7838, 1610
14306, 7258, 7839, 7229
14307, 7251, 7839, 7249
14308, 6086, 7840, 2210
14309, 7840, 6044, 7841
14310, 6044, 7842, 7841
14311, 6083, 7843, 7842
14312, 7842, 6044, 6082
14313, 6083, 8010, 7843
14314, 7264, 7841, 7843
14315, 7842, 7843, 7841
14316, 7254, 7840, 7844
14317, 7841, 7844, 7840
14318, 7260, 7845, 7266
14319, 7846, 7845, 6401
14320, 7846, 6401, 7847
14321, 7846, 7284, 7853
14322, 6401, 7848, 7847
14323, 7849, 7850, 7782
14324, 7263, 7848, 6401
14325, 7850, 7264, 7843
14326, 7129, 7849, 7782
14327, 7781, 7847, 7849
14328, 7264, 7850, 7848
14329, 7782, 7850, 7843
14330, 7852, 7851, 1015
14331, 7853, 7851, 7267
14332, 7238, 7852, 1015
14333, 7268, 7852, 7234
14334, 7846, 7853, 7267
14335, 7853, 7284, 7854
14336, 7853, 7854, 1014
14337, 7781, 7854, 7284
14338, 7855, 1175, 8040
14339, 7855, 7286, 8014
14340, 7657, 7857, 7661
14341, 8015, 8016, 6404
14342, 8040, 7857, 7856
14343, 1176, 7661, 7857
14344, 7859, 7858, 584
14345, 7308, 7858, 7287
14346, 7826, 7860, 583
14347, 7192, 8092, 8094
14348, 7192, 7860, 7826
14349, 584, 7860, 7859
14350, 1235, 8042, 8049
14351, 7863, 7861, 7288
14352, 8050, 8097, 8005
14353, 7862, 8047, 8043
14354, 8044, 8045, 8101
14355, 8058, 8108, 7830
14356, 7952, 7954, 7955
14357, 8039, 7864, 7834
14358, 7953, 7865, 7289
14359, 7865, 7864, 8059
14360, 2257, 7982, 7868
14361, 7866, 7291, 7869
14362, 7867, 4501, 6920
14363, 2257, 7866, 7867
14364, 7870, 7868, 7682
14365, 7291, 7866, 7875
14366, 7882, 7869, 7291
14367, 6837, 2766, 8061
14368, 7683, 7870, 7682
14369, 7870, 6411, 7871
14370, 7871, 7874, 7872
14371, 7291, 7871, 7881
14372, 7873, 7872, 7674
14373, 7874, 7871, 6411
14374, 7878, 7873, 7674
14375, 7873, 6412, 7883
14376, 7673, 7874, 6411
14377, 7675, 7872, 7874
14378, 7866, 7868, 7875
14379, 7875, 7868, 7870
14380, 6919, 7876, 2766
14381, 7866, 7876, 4501
14382, 7882, 7881, 7877
14383, 7883, 7963, 7877
14384, 7884, 7879, 7674
14385, 7880, 7878, 7292
14386, 683, 7885, 7879
14387, 7879, 7885, 7886
14388, 7880, 7292, 8073
14389, 7873, 7880, 6412
14390, 7872, 7881, 7871
14391, 7881, 7873, 7883
14392, 7881, 7882, 7291
14393, 8060, 7882, 7877
14394, 7963, 7883, 6412
14395, 7881, 7883, 7877
14396, 7675, 7884, 7674
14397, 683, 7884, 7676
14398, 683, 684, 7885
14399, 7886, 7885, 684
14400, 7887, 684, 685
14401, 7878, 7886, 7292
14402, 8074, 685, 686
14403, 7292, 7886, 7887
14404, 3196, 7888, 6443
14405, 7472, 7888, 2716
14406, 7889, 6406, 7976
14407, 7888, 7889, 6443
14408, 7303, 7890, 530
14409, 7972, 7890, 7305
14410, 7858, 7891, 585
14411, 7307, 7891, 7308
14412, 7893, 7892, 7287
14413, 7894, 7892, 6408
14414, 8091, 6247, 8089
14415, 8105, 8045, 8104
14416, 7894, 6408, 8064
14417, 6445, 7308, 7894
14418, 3238, 7895, 2738
14419, 7894, 7895, 6445
14420, 8063, 8062, 2247
14421, 8063, 7309, 8064
14422, 7900, 6241, 6470
14423, 6241, 7900, 7897
14424, 7326, 7898, 7327
14425, 7899, 7898, 7321
14426, 7322, 7899, 7321
14427, 6241, 7899, 7323
14428, 7903, 7902, 6467
14429, 7897, 7900, 7904
14430, 7913, 7906, 7901
14431, 7339, 7909, 7337
14432, 7903, 6467, 6458
14433, 7902, 7901, 7904
14434, 6458, 7905, 7914
14435, 7901, 7902, 7903
14436, 7906, 7904, 7901
14437, 7909, 7908, 7337
14438, 7905, 6458, 7311
14439, 7905, 7910, 7911
14440, 7913, 7901, 7912
14441, 7906, 1064, 7907
14442, 1064, 1065, 7907
14443, 7337, 7907, 1065
14444, 7904, 7906, 7908
14445, 7907, 7908, 7906
14446, 7897, 7904, 7909
14447, 7909, 7904, 7908
14448, 7280, 7910, 6464
14449, 7911, 7910, 1062
14450, 1062, 1063, 7911
14451, 7912, 7911, 1063
14452, 7913, 7912, 1063
14453, 7914, 7901, 7903
14454, 1063, 1064, 7913
14455, 7906, 7913, 1064
14456, 7911, 7914, 7905
14457, 7901, 7914, 7912
14458, 7344, 7915, 7340
14459, 7916, 7915, 7190
14460, 7338, 7916, 7190
14461, 7341, 7342, 7916
14462, 7917, 6499, 7345
14463, 7918, 7919, 737
14464, 7382, 7918, 7377
14465, 7919, 7917, 736
14466, 7198, 7920, 7384
14467, 7917, 7919, 7918
14468, 7921, 7920, 7386
14469, 7386, 7926, 7930
14470, 7360, 7921, 7385
14471, 7927, 743, 7924
14472, 7402, 7922, 7386
14473, 743, 7928, 7924
14474, 7403, 7923, 7922
14475, 7831, 7832, 7925
14476, 7832, 7196, 7925
14477, 7385, 7930, 7196
14478, 7924, 7926, 7922
14479, 7930, 7925, 7196
14480, 7929, 7928, 743
14481, 7924, 742, 7927
14482, 7925, 7928, 7831
14483, 743, 744, 7929
14484, 8039, 7931, 744
14485, 7386, 7930, 7921
14486, 7925, 7930, 7926
14487, 7928, 7931, 7831
14488, 744, 7931, 7929
14489, 6560, 7434, 7932
14490, 7932, 7434, 8079
14491, 5932, 7749, 7934
14492, 7935, 7933, 7487
14493, 7746, 7993, 7936
14494, 7933, 7934, 7939
14495, 7937, 7935, 7487
14496, 7941, 5829, 5931
14497, 7938, 7084, 7774
14498, 7934, 7936, 7939
14499, 7490, 7937, 7487
14500, 7940, 7937, 6675
14501, 8007, 7942, 7774
14502, 7946, 7487, 7939
14503, 7936, 7938, 7939
14504, 7942, 7946, 7938
14505, 6677, 7940, 6675
14506, 7935, 7940, 5829
14507, 5928, 7941, 5931
14508, 7933, 7941, 5933
14509, 579, 7943, 7942
14510, 7943, 578, 7944
14511, 579, 578, 7943
14512, 578, 7945, 7944
14513, 7944, 7490, 7946
14514, 7942, 7943, 7944
14515, 578, 577, 7945
14516, 577, 7488, 7945
14517, 7487, 7946, 7490
14518, 7938, 7946, 7939
14519, 107, 7947, 108
14520, 7511, 7947, 7502
14521, 7395, 7948, 6248
14522, 7949, 7948, 7387
14523, 7833, 7949, 7387
14524, 7949, 7197, 7950
14525, 7197, 7956, 7952
14526, 7515, 7951, 6683
14527, 7955, 7951, 7950
14528, 7536, 6683, 7951
14529, 7953, 7864, 7865
14530, 7953, 7954, 7952
14531, 7535, 7954, 7289
14532, 7864, 7953, 7952
14533, 7954, 7536, 7955
14534, 7289, 7954, 7953
14535, 7951, 7955, 7536
14536, 7952, 7955, 7950
14537, 7833, 7956, 7197
14538, 7864, 7956, 7834
14539, 7957, 53, 7547
14540, 7611, 7957, 7553
14541, 8060, 7958, 6835
14542, 7963, 6412, 7962
14543, 7623, 7959, 7169
14544, 7586, 7959, 7582
14545, 7578, 7622, 7961
14546, 7597, 7960, 7596
14547, 7609, 7625, 8164
14548, 7578, 7961, 7960
14549, 7958, 7962, 7569
14550, 6412, 7600, 7962
14551, 7962, 7958, 7963
14552, 8060, 7963, 7958
14553, 7964, 8072, 8073
14554, 8074, 7887, 685
14555, 7293, 7965, 7613
14556, 8074, 7965, 7964
14557, 7554, 7615, 7966
14558, 7616, 7966, 7615
14559, 7967, 691, 7587
14560, 7969, 7967, 7619
14561, 7619, 7967, 7968
14562, 7579, 7968, 7967
14563, 7608, 7969, 7619
14564, 690, 7969, 7621
14565, 7625, 7970, 7174
14566, 6201, 7970, 7624
14567, 7973, 533, 532
14568, 7645, 7971, 7644
14569, 7890, 7972, 531
14570, 7972, 7305, 7976
14571, 7971, 7973, 7644
14572, 7974, 7973, 532
14573, 532, 531, 7974
14574, 531, 7972, 7974
14575, 6772, 7975, 7652
14576, 7973, 7975, 7644
14577, 6406, 7652, 7976
14578, 7976, 7652, 7975
14579, 8016, 8026, 6404
14580, 7977, 8028, 8029
14581, 7979, 7978, 6781
14582, 8029, 7978, 7653
14583, 7979, 6781, 6779
14584, 7653, 7979, 7654
14585, 6772, 7980, 7651
14586, 7981, 7980, 7652
14587, 7981, 6406, 8075
14588, 7980, 7981, 7654
14589, 7983, 4497, 7677
14590, 7868, 7982, 7682
14591, 6825, 7983, 7677
14592, 7682, 7982, 7983
14593, 7983, 7984, 7682
14594, 6825, 6827, 7985
14595, 7986, 7985, 6829
14596, 7683, 7984, 7985
14597, 6826, 7986, 6829
14598, 7684, 7986, 6824
14599, 1074, 1075, 7987
14600, 1075, 7693, 7987
14601, 8077, 6946, 8078
14602, 7988, 8080, 8081
14603, 6953, 7989, 6950
14604, 6562, 7989, 6951
14605, 1230, 8032, 8034
14606, 8084, 7990, 8035
14607, 1229, 7991, 7748
14608, 8084, 7991, 7990
14609, 8085, 7994, 7996
14610, 8001, 7999, 7995
14611, 7936, 7993, 7084
14612, 7746, 7992, 7993
14613, 7994, 8087, 8000
14614, 7995, 7998, 8095
14615, 7997, 7992, 7998
14616, 8000, 8095, 7998
14617, 8085, 7996, 7742
14618, 7996, 7994, 7998
14619, 7992, 7996, 7998
14620, 7997, 7995, 7999
14621, 8000, 7998, 7994
14622, 7995, 7997, 7998
14623, 8096, 7995, 8095
14624, 7774, 7999, 8002
14625, 8087, 7994, 7193
14626, 8093, 8094, 8092
14627, 7827, 8003, 8001
14628, 8002, 581, 580
14629, 7999, 8001, 8002
14630, 8002, 8001, 8003
14631, 582, 8003, 7827
14632, 8002, 8003, 581
14633, 8004, 1238, 8006
14634, 8005, 8004, 7752
14635, 7752, 7767, 8051
14636, 8050, 8042, 1236
14637, 7765, 8006, 1239
14638, 8006, 7763, 7752
14639, 7942, 8007, 579
14640, 8002, 8007, 7774
14641, 7091, 8008, 7094
14642, 749, 8008, 7775
14643, 1013, 8009, 1012
14644, 7849, 8009, 7781
14645, 6159, 8010, 6083
14646, 7129, 8010, 6081
14647, 1173, 8011, 1172
14648, 7793, 8011, 7790
14649, 8014, 1174, 7855
14650, 8013, 8012, 8014
14651, 8013, 8014, 8015
14652, 8013, 8017, 7786
14653, 8014, 8012, 1174
14654, 8015, 8014, 7286
14655, 8015, 8018, 8016
14656, 6404, 7802, 8017
14657, 8019, 8016, 8018
14658, 8019, 7657, 8098
14659, 8013, 8015, 8017
14660, 6404, 8017, 8015
14661, 7855, 8018, 7286
14662, 8019, 8018, 7856
14663, 7857, 8019, 7856
14664, 8098, 8020, 8019
14665, 8027, 8028, 8025
14666, 8025, 8030, 8024
14667, 8025, 8024, 8021
14668, 7802, 8023, 7474
14669, 8019, 8020, 8022
14670, 8027, 8022, 8020
14671, 6404, 8023, 7802
14672, 8024, 8023, 8021
14673, 8021, 8027, 8025
14674, 8024, 2238, 7804
14675, 8028, 8020, 6405
14676, 8030, 8025, 7977
14677, 8022, 8026, 8016
14678, 8023, 8026, 8021
14679, 8022, 8027, 8021
14680, 8028, 8027, 8020
14681, 6405, 7978, 8029
14682, 7977, 8025, 8028
14683, 8029, 7653, 8075
14684, 6405, 8029, 8028
14685, 7304, 8030, 7977
14686, 8024, 8030, 2238
14687, 7819, 8031, 58
14688, 7823, 8031, 7818
14689, 8033, 8032, 1231
14690, 8034, 8032, 7829
14691, 8037, 8033, 1231
14692, 8033, 7830, 8038
14693, 8035, 8034, 7829
14694, 8034, 7990, 8083
14695, 7829, 8038, 8036
14696, 8035, 7193, 8084
14697, 8089, 8114, 8091
14698, 8000, 8087, 8089
14699, 1231, 1232, 8037
14700, 8110, 8037, 1232
14701, 8036, 8038, 7194
14702, 8033, 8038, 7829
14703, 744, 745, 8039
14704, 8039, 745, 8059
14705, 1175, 1176, 8040
14706, 7857, 8040, 1176
14707, 8091, 8113, 6247
14708, 7287, 8100, 7893
14709, 1236, 8097, 8050
14710, 7862, 8046, 8049
14711, 8047, 7862, 8050
14712, 8053, 8043, 8047
14713, 8044, 6409, 8045
14714, 8046, 8044, 7288
14715, 8103, 6409, 8102
14716, 8109, 8105, 8106
14717, 8049, 7288, 7861
14718, 7862, 8043, 8046
14719, 8051, 8047, 8050
14720, 8052, 7757, 7760
14721, 8055, 8062, 8048
14722, 8044, 8054, 6409
14723, 1235, 8049, 7861
14724, 7862, 8049, 8042
14725, 8042, 8050, 7862
14726, 8051, 8050, 8005
14727, 7752, 8051, 8005
14728, 8056, 7057, 7757
14729, 8047, 8051, 8052
14730, 8051, 7057, 8056
14731, 8052, 8053, 8047
14732, 8054, 8053, 8048
14733, 8053, 8054, 8043
14734, 8102, 8054, 8048
14735, 8062, 8055, 7759
14736, 8053, 8055, 8048
14737, 7757, 8052, 8056
14738, 8051, 8056, 8052
14739, 1233, 1234, 8057
14740, 7861, 8057, 1234
14741, 8110, 7830, 8037
14742, 8109, 7863, 8045
14743, 7865, 8059, 746
14744, 8039, 8059, 7864
14745, 7882, 8060, 7869
14746, 8060, 7877, 7963
14747, 7869, 8060, 8061
14748, 8061, 8060, 6835
14749, 8063, 2247, 7309
14750, 8062, 7896, 8102
14751, 7309, 7894, 8064
14752, 7896, 8062, 8063
14753, 8066, 8064, 6408
14754, 7896, 8063, 8064
14755, 8067, 8068, 8105
14756, 8104, 6409, 8103
14757, 8067, 6408, 7893
14758, 8066, 8065, 8103
14759, 8065, 8066, 8067
14760, 6408, 8067, 8066
14761, 8068, 7893, 8112
14762, 8108, 8106, 8107
14763, 7297, 8069, 6505
14764, 736, 7917, 8069
14765, 7570, 8070, 7569
14766, 2258, 8070, 7571
14767, 6838, 8071, 2258
14768, 6835, 7958, 8071
14769, 8072, 7293, 7572
14770, 8073, 8072, 7600
14771, 7880, 8073, 7600
14772, 7887, 8073, 7292
14773, 7965, 8074, 686
14774, 7887, 8074, 7964
14775, 7981, 8075, 7653
14776, 6406, 7889, 8076
14777, 7977, 8076, 7304
14778, 6406, 8076, 8075
14779, 8078, 6946, 7694
14780, 8082, 8077, 7988
14781, 8079, 8078, 7694
14782, 7988, 8077, 8078
14783, 7932, 8079, 7694
14784, 8080, 7434, 7439
14785, 8080, 7440, 8081
14786, 7434, 8080, 8079
14787, 7440, 1073, 8081
14788, 8082, 8081, 1073
14789, 1073, 1074, 8082
14790, 8082, 1074, 7693
14791, 1229, 1230, 8083
14792, 8034, 8083, 1230
14793, 8085, 8084, 7193
14794, 7991, 8084, 7744
14795, 7994, 8085, 7193
14796, 8085, 7742, 8086
14797, 7743, 8086, 7742
14798, 7744, 8086, 7747
14799, 7193, 8088, 8087
14800, 8088, 8089, 8087
14801, 8035, 8088, 7193
14802, 8089, 8088, 8036
14803, 8114, 8036, 7194
14804, 6247, 8093, 8089
14805, 7194, 8108, 8107
14806, 8107, 8112, 8090
14807, 8114, 8089, 8036
14808, 8113, 8090, 8112
14809, 8096, 7192, 7828
14810, 7995, 8096, 8001
14811, 8089, 8093, 8000
14812, 8094, 8093, 6247
14813, 8113, 8094, 6247
14814, 8099, 8094, 8041
14815, 8093, 8095, 8000
14816, 8096, 8095, 8092
14817, 8096, 8092, 7192
14818, 8001, 8096, 7827
14819, 1236, 1237, 8097
14820, 1237, 8005, 8097
14821, 7659, 8098, 7657
14822, 6405, 8098, 7660
14823, 8094, 8099, 7192
14824, 8100, 8099, 8041
14825, 7859, 8100, 7287
14826, 8112, 8100, 8041
14827, 7863, 7288, 8101
14828, 8044, 8101, 7288
14829, 8103, 8102, 7896
14830, 8054, 8102, 6409
14831, 8066, 8103, 7896
14832, 8103, 8065, 8104
14833, 8105, 8104, 8065
14834, 6409, 8104, 8045
14835, 8067, 8105, 8065
14836, 8105, 8068, 8106
14837, 8106, 8068, 8107
14838, 8106, 8108, 8109
14839, 8112, 8107, 8068
14840, 8107, 8090, 8114
14841, 7830, 8108, 7194
14842, 8109, 8108, 8058
14843, 8109, 8058, 8115
14844, 8105, 8109, 8045
14845, 8111, 8110, 1232
14846, 8058, 7830, 8110
14847, 1232, 1233, 8111
14848, 1233, 8057, 8115
14849, 8100, 8112, 7893
14850, 8094, 8113, 8041
14851, 8090, 8113, 8091
14852, 8041, 8113, 8112
14853, 8107, 8114, 7194
14854, 8091, 8114, 8090
14855, 8110, 8115, 8058
14856, 1233, 8115, 8111
14857, 977, 8116, 1441
14858, 8117, 978, 979
14859, 1569, 8117, 979
14860, 1532, 8116, 8117
14861, 814, 8118, 1442
14862, 8119, 815, 816
14863, 1570, 8119, 816
14864, 1533, 8118, 8119
14865, 1140, 8120, 1443
14866, 8121, 1141, 1142
14867, 1571, 8121, 1142
14868, 1534, 8120, 8121
14869, 651, 8122, 1444
14870, 8123, 652, 653
14871, 1572, 8123, 653
14872, 1535, 8122, 8123
14873, 1390, 8125, 5140
14874, 8129, 8124, 1799
14875, 2099, 8126, 8124
14876, 2099, 5044, 8126
14877, 8127, 5141, 5127
14878, 8126, 8125, 8124
14879, 8125, 8127, 5140
14880, 5141, 8127, 8126
14881, 2099, 8124, 8128
14882, 3018, 8128, 8124
14883, 6419, 8129, 1799
14884, 3018, 8129, 1678
14885, 1504, 8130, 1390
14886, 8124, 8130, 1799
14887, 1392, 8132, 5180
14888, 8136, 8131, 1800
14889, 2103, 8133, 8131
14890, 2103, 5047, 8133
14891, 8134, 5181, 5167
14892, 8133, 8132, 8131
14893, 8132, 8134, 5180
14894, 5181, 8134, 8133
14895, 2103, 8131, 8135
14896, 3020, 8135, 8131
14897, 6420, 8136, 1800
14898, 3020, 8136, 1679
14899, 1505, 8137, 1392
14900, 8131, 8137, 1800
14901, 1394, 8139, 5078
14902, 8143, 8138, 1801
14903, 2107, 8140, 8138
14904, 2107, 5050, 8140
14905, 8141, 5079, 5065
14906, 8140, 8139, 8138
14907, 8139, 8141, 5078
14908, 5079, 8141, 8140
14909, 2107, 8138, 8142
14910, 3022, 8142, 8138
14911, 6422, 8143, 1801
14912, 3022, 8143, 1680
14913, 1506, 8144, 1394
14914, 8138, 8144, 1801
14915, 1396, 8146, 5108
14916, 8150, 8145, 1802
14917, 2111, 8147, 8145
14918, 2111, 5053, 8147
14919, 8148, 5109, 5095
14920, 8147, 8146, 8145
14921, 8146, 8148, 5108
14922, 5109, 8148, 8147
14923, 2111, 8145, 8149
14924, 3024, 8149, 8145
14925, 6423, 8150, 1802
14926, 3024, 8150, 1681
14927, 1507, 8151, 1396
14928, 8145, 8151, 1802
14929, 3922, 8152, 1190
14930, 8153, 3316, 3319
14931, 3318, 8153, 3319
14932, 3320, 8152, 8153
14933, 4236, 8154, 4234
14934, 4218, 8154, 4793
14935, 8228, 8171, 8172
14936, 8156, 8165, 6264
14937, 1349, 8156, 7205
14938, 8156, 1349, 8166
14939, 8256, 8180, 8181
14940, 8158, 8174, 6265
14941, 1350, 8158, 7210
14942, 8158, 1350, 8175
14943, 8284, 8189, 8190
14944, 8160, 8183, 6266
14945, 1501, 8160, 7215
14946, 8160, 1501, 8184
14947, 8312, 8198, 8199
14948, 8162, 8192, 6267
14949, 1503, 8162, 7220
14950, 8162, 1503, 8193
14951, 6886, 8163, 901
14952, 6876, 8163, 6875
14953, 7960, 8164, 7596
14954, 7609, 8164, 7961
14955, 8173, 1546, 8165
14956, 1349, 8155, 8166
14957, 8167, 8166, 8155
14958, 8155, 8169, 8167
14959, 8169, 8171, 8167
14960, 8155, 1574, 8169
14961, 8167, 8171, 8228
14962, 8219, 8224, 8215
14963, 8203, 8171, 8204
14964, 8210, 8207, 8208
14965, 8201, 8204, 1574
14966, 8213, 8205, 8210
14967, 1341, 8168, 8172
14968, 8173, 8228, 8168
14969, 8165, 8167, 8228
14970, 8168, 1546, 8173
14971, 8182, 1547, 8174
14972, 1350, 8157, 8175
14973, 8176, 8175, 8157
14974, 8157, 8178, 8176
14975, 8178, 8180, 8176
14976, 8157, 1576, 8178
14977, 8176, 8180, 8256
14978, 8247, 8252, 8243
14979, 8231, 8180, 8232
14980, 8238, 8235, 8236
14981, 8229, 8232, 1576
14982, 8241, 8233, 8238
14983, 1342, 8177, 8181
14984, 8182, 8256, 8177
14985, 8174, 8176, 8256
14986, 8177, 1547, 8182
14987, 8191, 1548, 8183
14988, 1501, 8159, 8184
14989, 8185, 8184, 8159
14990, 8159, 8187, 8185
14991, 8187, 8189, 8185
14992, 8159, 1578, 8187
14993, 8185, 8189, 8284
14994, 8275, 8280, 8271
14995, 8259, 8189, 8260
14996, 8266, 8263, 8264
14997, 8257, 8260, 1578
14998, 8269, 8261, 8266
14999, 1351, 8186, 8190
15000, 8191, 8284, 8186
15001, 8183, 8185, 8284
15002, 8186, 1548, 8191
15003, 8200, 1549, 8192
15004, 1503, 8161, 8193
15005, 8194, 8193, 8161
15006, 8161, 8196, 8194
15007, 8196, 8198, 8194
15008, 8161, 1580, 8196
15009, 8194, 8198, 8312
15010, 8303, 8308, 8299
15011, 8287, 8198, 8288
15012, 8294, 8291, 8292
15013, 8285, 8288, 1580
15014, 8297, 8289, 8294
15015, 1352, 8195, 8199
15016, 8200, 8312, 8195
15017, 8192, 8194, 8312
15018, 8195, 1549, 8200
15019, 8207, 8172, 8203
15020, 8203, 8172, 8171
15021, 8208, 8209, 8206
15022, 8204, 8171, 8169
15023, 8204, 8201, 8203
15024, 8208, 8203, 8209
15025, 8172, 8207, 1341
15026, 8206, 8215, 8211
15027, 8208, 8207, 8203
15028, 8212, 8207, 8210
15029, 8209, 8203, 8201
15030, 8210, 8208, 8206
15031, 8201, 8170, 8209
15032, 8216, 8209, 8170
15033, 8210, 8206, 8211
15034, 8210, 8205, 8212
15035, 8216, 8170, 8214
15036, 8215, 8224, 8211
15037, 8205, 1341, 8212
15038, 1341, 8207, 8212
15039, 1497, 8315, 8222
15040, 8211, 8202, 8213
15041, 8224, 8217, 8202
15042, 8216, 8215, 8206
15043, 8223, 8216, 8214
15044, 8209, 8216, 8206
15045, 8227, 8221, 8218
15046, 8215, 8216, 8223
15047, 1496, 8217, 8226
15048, 8319, 8227, 8318
15049, 8224, 8202, 8211
15050, 8221, 8219, 8218
15051, 8219, 8221, 8224
15052, 8315, 8218, 8222
15053, 8215, 8223, 8219
15054, 8219, 8222, 8218
15055, 8214, 1497, 8222
15056, 8214, 8222, 8223
15057, 8219, 8223, 8222
15058, 8217, 8224, 8221
15059, 8168, 8228, 8172
15060, 8314, 8316, 8318
15061, 8217, 8221, 8226
15062, 8226, 8221, 8227
15063, 8235, 8181, 8231
15064, 8315, 8227, 8218
15065, 8319, 1496, 8226
15066, 8165, 8228, 8173
15067, 8231, 8181, 8180
15068, 8236, 8237, 8234
15069, 8232, 8180, 8178
15070, 8232, 8229, 8231
15071, 8236, 8231, 8237
15072, 8181, 8235, 1342
15073, 8234, 8243, 8239
15074, 8236, 8235, 8231
15075, 8240, 8235, 8238
15076, 8237, 8231, 8229
15077, 8238, 8236, 8234
15078, 8229, 8179, 8237
15079, 8244, 8237, 8179
15080, 8238, 8234, 8239
15081, 8238, 8233, 8240
15082, 8244, 8179, 8242
15083, 8243, 8252, 8239
15084, 8233, 1342, 8240
15085, 1342, 8235, 8240
15086, 1499, 8346, 8250
15087, 8239, 8230, 8241
15088, 8252, 8245, 8230
15089, 8244, 8243, 8234
15090, 8251, 8244, 8242
15091, 8237, 8244, 8234
15092, 8255, 8249, 8246
15093, 8243, 8244, 8251
15094, 1498, 8245, 8254
15095, 8350, 8255, 8349
15096, 8252, 8230, 8239
15097, 8249, 8247, 8246
15098, 8247, 8249, 8252
15099, 8346, 8246, 8250
15100, 8243, 8251, 8247
15101, 8247, 8250, 8246
15102, 8242, 1499, 8250
15103, 8242, 8250, 8251
15104, 8247, 8251, 8250
15105, 8245, 8252, 8249
15106, 8177, 8256, 8181
15107, 8345, 8347, 8349
15108, 8245, 8249, 8254
15109, 8254, 8249, 8255
15110, 8263, 8190, 8259
15111, 8346, 8255, 8246
15112, 8350, 1498, 8254
15113, 8174, 8256, 8182
15114, 8259, 8190, 8189
15115, 8264, 8265, 8262
15116, 8260, 8189, 8187
15117, 8260, 8257, 8259
15118, 8264, 8259, 8265
15119, 8190, 8263, 1351
15120, 8262, 8271, 8267
15121, 8264, 8263, 8259
15122, 8268, 8263, 8266
15123, 8265, 8259, 8257
15124, 8266, 8264, 8262
15125, 8257, 8188, 8265
15126, 8272, 8265, 8188
15127, 8266, 8262, 8267
15128, 8266, 8261, 8268
15129, 8272, 8188, 8270
15130, 8271, 8280, 8267
15131, 8261, 1351, 8268
15132, 1351, 8263, 8268
15133, 1343, 8377, 8278
15134, 8267, 8258, 8269
15135, 8280, 8273, 8258
15136, 8272, 8271, 8262
15137, 8279, 8272, 8270
15138, 8265, 8272, 8262
15139, 8283, 8277, 8274
15140, 8271, 8272, 8279
15141, 1500, 8273, 8282
15142, 8381, 8283, 8380
15143, 8280, 8258, 8267
15144, 8277, 8275, 8274
15145, 8275, 8277, 8280
15146, 8377, 8274, 8278
15147, 8271, 8279, 8275
15148, 8275, 8278, 8274
15149, 8270, 1343, 8278
15150, 8270, 8278, 8279
15151, 8275, 8279, 8278
15152, 8273, 8280, 8277
15153, 8186, 8284, 8190
15154, 8376, 8378, 8380
15155, 8273, 8277, 8282
15156, 8282, 8277, 8283
15157, 8291, 8199, 8287
15158, 8377, 8283, 8274
15159, 8381, 1500, 8282
15160, 8183, 8284, 8191
15161, 8287, 8199, 8198
15162, 8292, 8293, 8290
15163, 8288, 8198, 8196
15164, 8288, 8285, 8287
15165, 8292, 8287, 8293
15166, 8199, 8291, 1352
15167, 8290, 8299, 8295
15168, 8292, 8291, 8287
15169, 8296, 8291, 8294
15170, 8293, 8287, 8285
15171, 8294, 8292, 8290
15172, 8285, 8197, 8293
15173, 8300, 8293, 8197
15174, 8294, 8290, 8295
15175, 8294, 8289, 8296
15176, 8300, 8197, 8298
15177, 8299, 8308, 8295
15178, 8289, 1352, 8296
15179, 1352, 8291, 8296
15180, 1344, 8408, 8306
15181, 8295, 8286, 8297
15182, 8308, 8301, 8286
15183, 8300, 8299, 8290
15184, 8307, 8300, 8298
15185, 8293, 8300, 8290
15186, 8311, 8305, 8302
15187, 8299, 8300, 8307
15188, 1502, 8301, 8310
15189, 8412, 8311, 8411
15190, 8308, 8286, 8295
15191, 8305, 8303, 8302
15192, 8303, 8305, 8308
15193, 8408, 8302, 8306
15194, 8299, 8307, 8303
15195, 8303, 8306, 8302
15196, 8298, 1344, 8306
15197, 8298, 8306, 8307
15198, 8303, 8307, 8306
15199, 8301, 8308, 8305
15200, 8195, 8312, 8199
15201, 8407, 8409, 8411
15202, 8301, 8305, 8310
15203, 8310, 8305, 8311
15204, 8321, 8319, 8318
15205, 8408, 8311, 8302
15206, 8412, 1502, 8310
15207, 8192, 8312, 8200
15208, 8329, 8333, 8334
15209, 1497, 8225, 8314
15210, 8316, 8314, 8225
15211, 1497, 8314, 8315
15212, 8315, 8314, 8318
15213, 8328, 8437, 8341
15214, 8324, 8325, 8326
15215, 8327, 8313, 8324
15216, 8319, 8321, 8323
15217, 8321, 8317, 8323
15218, 8318, 8227, 8315
15219, 8227, 8319, 8226
15220, 8321, 8324, 8317
15221, 8325, 8336, 8326
15222, 8318, 8316, 8321
15223, 8317, 1496, 8323
15224, 8324, 8313, 8317
15225, 8319, 8323, 1496
15226, 8336, 8316, 8225
15227, 8325, 8324, 8321
15228, 8322, 8220, 8332
15229, 8336, 8225, 8322
15230, 8324, 8326, 8327
15231, 8330, 8327, 8326
15232, 8331, 8313, 8327
15233, 8328, 8341, 8335
15234, 8320, 8334, 8439
15235, 8332, 8330, 8326
15236, 8330, 8333, 8331
15237, 8335, 8342, 8220
15238, 8330, 8331, 8327
15239, 8329, 8313, 8331
15240, 8322, 8332, 8326
15241, 8316, 8336, 8325
15242, 8338, 8330, 8332
15243, 8331, 8333, 8329
15244, 8341, 8437, 8339
15245, 8329, 8334, 8320
15246, 8449, 8438, 8343
15247, 8437, 8441, 8339
15248, 8338, 8334, 8333
15249, 8334, 8338, 8339
15250, 8341, 8338, 8342
15251, 8330, 8338, 8333
15252, 8326, 8336, 8322
15253, 8342, 8338, 8332
15254, 8445, 8443, 8340
15255, 8443, 8445, 8446
15256, 8338, 8341, 8339
15257, 8220, 8342, 8332
15258, 8341, 8342, 8335
15259, 8343, 8438, 8437
15260, 8437, 8442, 8441
15261, 8352, 8350, 8349
15262, 8360, 8364, 8365
15263, 1499, 8253, 8345
15264, 8347, 8345, 8253
15265, 1499, 8345, 8346
15266, 8346, 8345, 8349
15267, 8359, 8459, 8372
15268, 8355, 8356, 8357
15269, 8358, 8344, 8355
15270, 8350, 8352, 8354
15271, 8352, 8348, 8354
15272, 8349, 8255, 8346
15273, 8255, 8350, 8254
15274, 8352, 8355, 8348
15275, 8356, 8367, 8357
15276, 8349, 8347, 8352
15277, 8348, 1498, 8354
15278, 8355, 8344, 8348
15279, 8350, 8354, 1498
15280, 8367, 8347, 8253
15281, 8356, 8355, 8352
15282, 8353, 8248, 8363
15283, 8367, 8253, 8353
15284, 8355, 8357, 8358
15285, 8361, 8358, 8357
15286, 8362, 8344, 8358
15287, 8359, 8372, 8366
15288, 8351, 8365, 8461
15289, 8363, 8361, 8357
15290, 8361, 8364, 8362
15291, 8366, 8373, 8248
15292, 8361, 8362, 8358
15293, 8360, 8344, 8362
15294, 8353, 8363, 8357
15295, 8347, 8367, 8356
15296, 8369, 8361, 8363
15297, 8362, 8364, 8360
15298, 8372, 8459, 8370
15299, 8360, 8365, 8351
15300, 8471, 8460, 8374
15301, 8459, 8463, 8370
15302, 8369, 8365, 8364
15303, 8365, 8369, 8370
15304, 8372, 8369, 8373
15305, 8361, 8369, 8364
15306, 8357, 8367, 8353
15307, 8373, 8369, 8363
15308, 8467, 8465, 8371
15309, 8465, 8467, 8468
15310, 8369, 8372, 8370
15311, 8248, 8373, 8363
15312, 8372, 8373, 8366
15313, 8374, 8460, 8459
15314, 8459, 8464, 8463
15315, 8383, 8381, 8380
15316, 8391, 8395, 8396
15317, 1343, 8281, 8376
15318, 8378, 8376, 8281
15319, 1343, 8376, 8377
15320, 8377, 8376, 8380
15321, 8390, 8481, 8403
15322, 8386, 8387, 8388
15323, 8389, 8375, 8386
15324, 8381, 8383, 8385
15325, 8383, 8379, 8385
15326, 8380, 8283, 8377
15327, 8283, 8381, 8282
15328, 8383, 8386, 8379
15329, 8387, 8398, 8388
15330, 8380, 8378, 8383
15331, 8379, 1500, 8385
15332, 8386, 8375, 8379
15333, 8381, 8385, 1500
15334, 8398, 8378, 8281
15335, 8387, 8386, 8383
15336, 8384, 8276, 8394
15337, 8398, 8281, 8384
15338, 8386, 8388, 8389
15339, 8392, 8389, 8388
15340, 8393, 8375, 8389
15341, 8390, 8403, 8397
15342, 8382, 8396, 8483
15343, 8394, 8392, 8388
15344, 8392, 8395, 8393
15345, 8397, 8404, 8276
15346, 8392, 8393, 8389
15347, 8391, 8375, 8393
15348, 8384, 8394, 8388
15349, 8378, 8398, 8387
15350, 8400, 8392, 8394
15351, 8393, 8395, 8391
15352, 8403, 8481, 8401
15353, 8391, 8396, 8382
15354, 8493, 8482, 8405
15355, 8481, 8485, 8401
15356, 8400, 8396, 8395
15357, 8396, 8400, 8401
15358, 8403, 8400, 8404
15359, 8392, 8400, 8395
15360, 8388, 8398, 8384
15361, 8404, 8400, 8394
15362, 8489, 8487, 8402
15363, 8487, 8489, 8490
15364, 8400, 8403, 8401
15365, 8276, 8404, 8394
15366, 8403, 8404, 8397
15367, 8405, 8482, 8481
15368, 8481, 8486, 8485
15369, 8414, 8412, 8411
15370, 8422, 8426, 8427
15371, 1344, 8309, 8407
15372, 8409, 8407, 8309
15373, 1344, 8407, 8408
15374, 8408, 8407, 8411
15375, 8421, 8503, 8434
15376, 8417, 8418, 8419
15377, 8420, 8406, 8417
15378, 8412, 8414, 8416
15379, 8414, 8410, 8416
15380, 8411, 8311, 8408
15381, 8311, 8412, 8310
15382, 8414, 8417, 8410
15383, 8418, 8429, 8419
15384, 8411, 8409, 8414
15385, 8410, 1502, 8416
15386, 8417, 8406, 8410
15387, 8412, 8416, 1502
15388, 8429, 8409, 8309
15389, 8418, 8417, 8414
15390, 8415, 8304, 8425
15391, 8429, 8309, 8415
15392, 8417, 8419, 8420
15393, 8423, 8420, 8419
15394, 8424, 8406, 8420
15395, 8421, 8434, 8428
15396, 8413, 8427, 8505
15397, 8425, 8423, 8419
15398, 8423, 8426, 8424
15399, 8428, 8435, 8304
15400, 8423, 8424, 8420
15401, 8422, 8406, 8424
15402, 8415, 8425, 8419
15403, 8409, 8429, 8418
15404, 8431, 8423, 8425
15405, 8424, 8426, 8422
15406, 8434, 8503, 8432
15407, 8422, 8427, 8413
15408, 8515, 8504, 8436
15409, 8503, 8507, 8432
15410, 8431, 8427, 8426
15411, 8427, 8431, 8432
15412, 8434, 8431, 8435
15413, 8423, 8431, 8426
15414, 8419, 8429, 8415
15415, 8435, 8431, 8425
15416, 8511, 8509, 8433
15417, 8509, 8511, 8512
15418, 8431, 8434, 8432
15419, 8304, 8435, 8425
15420, 8434, 8435, 8428
15421, 8436, 8504, 8503
15422, 8503, 8508, 8507
15423, 8440, 8439, 8441
15424, 8449, 8343, 1303
15425, 8442, 8438, 8340
15426, 8439, 8440, 8320
15427, 8334, 8339, 8439
15428, 8441, 8439, 8339
15429, 8442, 8440, 8441
15430, 8437, 8438, 8442
15431, 8443, 8440, 8442
15432, 8443, 8442, 8340
15433, 8337, 8440, 8443
15434, 8449, 8457, 8340
15435, 8456, 8525, 8445
15436, 8530, 8454, 8455
15437, 8340, 8438, 8449
15438, 8446, 8445, 8444
15439, 8444, 8337, 8446
15440, 8443, 8446, 8337
15441, 8525, 8444, 8445
15442, 8594, 8605, 8527
15443, 8447, 8455, 8452
15444, 8612, 8537, 8538
15445, 8458, 1303, 8452
15446, 8453, 8589, 8537
15447, 8450, 8444, 8525
15448, 8591, 8587, 8590
15449, 8780, 8765, 8779
15450, 8450, 8525, 8526
15451, 8454, 8525, 8456
15452, 8452, 8455, 8456
15453, 8457, 8449, 8458
15454, 8457, 8456, 8445
15455, 8340, 8457, 8445
15456, 8458, 8449, 1303
15457, 8452, 8456, 8458
15458, 8457, 8458, 8456
15459, 8462, 8461, 8463
15460, 8471, 8374, 1302
15461, 8464, 8460, 8371
15462, 8461, 8462, 8351
15463, 8365, 8370, 8461
15464, 8463, 8461, 8370
15465, 8464, 8462, 8463
15466, 8459, 8460, 8464
15467, 8465, 8462, 8464
15468, 8465, 8464, 8371
15469, 8368, 8462, 8465
15470, 8471, 8479, 8371
15471, 8478, 8540, 8467
15472, 8545, 8476, 8477
15473, 8371, 8460, 8471
15474, 8468, 8467, 8466
15475, 8466, 8368, 8468
15476, 8465, 8468, 8368
15477, 8540, 8466, 8467
15478, 8622, 8633, 8542
15479, 8469, 8477, 8474
15480, 8640, 8552, 8553
15481, 8480, 1302, 8474
15482, 8475, 8617, 8552
15483, 8472, 8466, 8540
15484, 8619, 8615, 8618
15485, 8828, 8813, 8827
15486, 8472, 8540, 8541
15487, 8476, 8540, 8478
15488, 8474, 8477, 8478
15489, 8479, 8471, 8480
15490, 8479, 8478, 8467
15491, 8371, 8479, 8467
15492, 8480, 8471, 1302
15493, 8474, 8478, 8480
15494, 8479, 8480, 8478
15495, 8484, 8483, 8485
15496, 8493, 8405, 1304
15497, 8486, 8482, 8402
15498, 8483, 8484, 8382
15499, 8396, 8401, 8483
15500, 8485, 8483, 8401
15501, 8486, 8484, 8485
15502, 8481, 8482, 8486
15503, 8487, 8484, 8486
15504, 8487, 8486, 8402
15505, 8399, 8484, 8487
15506, 8493, 8501, 8402
15507, 8500, 8555, 8489
15508, 8560, 8498, 8499
15509, 8402, 8482, 8493
15510, 8490, 8489, 8488
15511, 8488, 8399, 8490
15512, 8487, 8490, 8399
15513, 8555, 8488, 8489
15514, 8650, 8661, 8557
15515, 8491, 8499, 8496
15516, 8668, 8567, 8568
15517, 8502, 1304, 8496
15518, 8497, 8645, 8567
15519, 8494, 8488, 8555
15520, 8647, 8643, 8646
15521, 8876, 8861, 8875
15522, 8494, 8555, 8556
15523, 8498, 8555, 8500
15524, 8496, 8499, 8500
15525, 8501, 8493, 8502
15526, 8501, 8500, 8489
15527, 8402, 8501, 8489
15528, 8502, 8493, 1304
15529, 8496, 8500, 8502
15530, 8501, 8502, 8500
15531, 8506, 8505, 8507
15532, 8515, 8436, 1305
15533, 8508, 8504, 8433
15534, 8505, 8506, 8413
15535, 8427, 8432, 8505
15536, 8507, 8505, 8432
15537, 8508, 8506, 8507
15538, 8503, 8504, 8508
15539, 8509, 8506, 8508
15540, 8509, 8508, 8433
15541, 8430, 8506, 8509
15542, 8515, 8523, 8433
15543, 8522, 8570, 8511
15544, 8575, 8520, 8521
15545, 8433, 8504, 8515
15546, 8512, 8511, 8510
15547, 8510, 8430, 8512
15548, 8509, 8512, 8430
15549, 8570, 8510, 8511
15550, 8678, 8689, 8572
15551, 8513, 8521, 8518
15552, 8696, 8582, 8583
15553, 8524, 1305, 8518
15554, 8519, 8673, 8582
15555, 8516, 8510, 8570
15556, 8675, 8671, 8674
15557, 8924, 8909, 8923
15558, 8516, 8570, 8571
15559, 8520, 8570, 8522
15560, 8518, 8521, 8522
15561, 8523, 8515, 8524
15562, 8523, 8522, 8511
15563, 8433, 8523, 8511
15564, 8524, 8515, 1305
15565, 8518, 8522, 8524
15566, 8523, 8524, 8522
15567, 8526, 8525, 8454
15568, 8526, 8609, 1295
15569, 8450, 8526, 1295
15570, 8600, 8607, 8606
15571, 8532, 8533, 8530
15572, 8447, 8531, 8532
15573, 8534, 8609, 8611
15574, 8454, 8611, 8526
15575, 8455, 8447, 8530
15576, 8610, 8534, 8612
15577, 8530, 8447, 8532
15578, 8533, 8532, 8531
15579, 8531, 8535, 8533
15580, 8535, 8537, 8533
15581, 8612, 8539, 8610
15582, 8530, 8533, 8534
15583, 8531, 8453, 8535
15584, 8586, 8588, 8591
15585, 8607, 8602, 8603
15586, 8528, 8588, 8586
15587, 8453, 8537, 8535
15588, 8528, 8538, 8588
15589, 8528, 8529, 8539
15590, 8539, 8538, 8528
15591, 8541, 8540, 8476
15592, 8529, 8609, 8610
15593, 8541, 8637, 1294
15594, 8472, 8541, 1294
15595, 8628, 8635, 8634
15596, 8547, 8548, 8545
15597, 8469, 8546, 8547
15598, 8549, 8637, 8639
15599, 8476, 8639, 8541
15600, 8477, 8469, 8545
15601, 8638, 8549, 8640
15602, 8545, 8469, 8547
15603, 8548, 8547, 8546
15604, 8546, 8550, 8548
15605, 8550, 8552, 8548
15606, 8640, 8554, 8638
15607, 8545, 8548, 8549
15608, 8546, 8475, 8550
15609, 8614, 8616, 8619
15610, 8635, 8630, 8631
15611, 8543, 8616, 8614
15612, 8475, 8552, 8550
15613, 8543, 8553, 8616
15614, 8543, 8544, 8554
15615, 8554, 8553, 8543
15616, 8556, 8555, 8498
15617, 8544, 8637, 8638
15618, 8556, 8665, 1296
15619, 8494, 8556, 1296
15620, 8656, 8663, 8662
15621, 8562, 8563, 8560
15622, 8491, 8561, 8562
15623, 8564, 8665, 8667
15624, 8498, 8667, 8556
15625, 8499, 8491, 8560
15626, 8666, 8564, 8668
15627, 8560, 8491, 8562
15628, 8563, 8562, 8561
15629, 8561, 8565, 8563
15630, 8565, 8567, 8563
15631, 8668, 8569, 8666
15632, 8560, 8563, 8564
15633, 8561, 8497, 8565
15634, 8642, 8644, 8647
15635, 8663, 8658, 8659
15636, 8558, 8644, 8642
15637, 8497, 8567, 8565
15638, 8558, 8568, 8644
15639, 8558, 8559, 8569
15640, 8569, 8568, 8558
15641, 8571, 8570, 8520
15642, 8559, 8665, 8666
15643, 8571, 8693, 1297
15644, 8516, 8571, 1297
15645, 8684, 8691, 8690
15646, 8577, 8578, 8575
15647, 8513, 8576, 8577
15648, 8579, 8693, 8695
15649, 8520, 8695, 8571
15650, 8521, 8513, 8575
15651, 8694, 8579, 8696
15652, 8575, 8513, 8577
15653, 8578, 8577, 8576
15654, 8576, 8580, 8578
15655, 8580, 8582, 8578
15656, 8696, 8584, 8694
15657, 8575, 8578, 8579
15658, 8576, 8519, 8580
15659, 8670, 8672, 8675
15660, 8691, 8686, 8687
15661, 8573, 8672, 8670
15662, 8519, 8582, 8580
15663, 8573, 8583, 8672
15664, 8573, 8574, 8584
15665, 8584, 8583, 8573
15666, 8590, 8587, 8592
15667, 8574, 8693, 8694
15668, 8587, 8538, 8537
15669, 8537, 8589, 8587
15670, 8538, 8587, 8588
15671, 8594, 8586, 8591
15672, 8453, 8585, 8589
15673, 8592, 8589, 8585
15674, 8587, 8589, 8592
15675, 8595, 8597, 8600
15676, 8587, 8591, 8588
15677, 8591, 8590, 8594
15678, 8585, 8536, 8592
15679, 8595, 8592, 8536
15680, 8605, 8602, 8604
15681, 8607, 8608, 8704
15682, 8590, 8592, 8595
15683, 8705, 8697, 8701
15684, 8705, 8593, 8704
15685, 8606, 8603, 8594
15686, 8536, 8596, 8597
15687, 8595, 8536, 8597
15688, 8608, 8596, 8448
15689, 8607, 8603, 8606
15690, 8606, 8590, 8595
15691, 8706, 8760, 8708
15692, 8593, 8701, 8702
15693, 8603, 8605, 8594
15694, 8596, 8600, 8597
15695, 8605, 8603, 8602
15696, 8451, 8757, 8762
15697, 8598, 8702, 8701
15698, 8604, 8527, 8605
15699, 8604, 8602, 8702
15700, 8594, 8527, 8586
15701, 8590, 8606, 8594
15702, 8600, 8606, 8595
15703, 8608, 8607, 8600
15704, 8602, 8607, 8593
15705, 8596, 8608, 8600
15706, 8713, 8704, 8448
15707, 8610, 8609, 8534
15708, 1295, 8609, 8529
15709, 8534, 8533, 8612
15710, 8529, 8610, 8539
15711, 8534, 8611, 8530
15712, 8526, 8611, 8609
15713, 8537, 8612, 8533
15714, 8539, 8612, 8538
15715, 8618, 8615, 8620
15716, 8615, 8553, 8552
15717, 8552, 8617, 8615
15718, 8553, 8615, 8616
15719, 8622, 8614, 8619
15720, 8475, 8613, 8617
15721, 8620, 8617, 8613
15722, 8615, 8617, 8620
15723, 8623, 8625, 8628
15724, 8615, 8619, 8616
15725, 8619, 8618, 8622
15726, 8613, 8551, 8620
15727, 8623, 8620, 8551
15728, 8633, 8630, 8632
15729, 8635, 8636, 8717
15730, 8618, 8620, 8623
15731, 8718, 8698, 8714
15732, 8718, 8621, 8717
15733, 8634, 8631, 8622
15734, 8551, 8624, 8625
15735, 8623, 8551, 8625
15736, 8636, 8624, 8470
15737, 8635, 8631, 8634
15738, 8634, 8618, 8623
15739, 8719, 8808, 8721
15740, 8621, 8714, 8715
15741, 8631, 8633, 8622
15742, 8624, 8628, 8625
15743, 8633, 8631, 8630
15744, 8473, 8805, 8810
15745, 8626, 8715, 8714
15746, 8632, 8542, 8633
15747, 8632, 8630, 8715
15748, 8622, 8542, 8614
15749, 8618, 8634, 8622
15750, 8628, 8634, 8623
15751, 8636, 8635, 8628
15752, 8630, 8635, 8621
15753, 8624, 8636, 8628
15754, 8726, 8717, 8470
15755, 8638, 8637, 8549
15756, 1294, 8637, 8544
15757, 8549, 8548, 8640
15758, 8544, 8638, 8554
15759, 8549, 8639, 8545
15760, 8541, 8639, 8637
15761, 8552, 8640, 8548
15762, 8554, 8640, 8553
15763, 8646, 8643, 8648
15764, 8643, 8568, 8567
15765, 8567, 8645, 8643
15766, 8568, 8643, 8644
15767, 8650, 8642, 8647
15768, 8497, 8641, 8645
15769, 8648, 8645, 8641
15770, 8643, 8645, 8648
15771, 8651, 8653, 8656
15772, 8643, 8647, 8644
15773, 8647, 8646, 8650
15774, 8641, 8566, 8648
15775, 8651, 8648, 8566
15776, 8661, 8658, 8660
15777, 8663, 8664, 8730
15778, 8646, 8648, 8651
15779, 8731, 8699, 8727
15780, 8731, 8649, 8730
15781, 8662, 8659, 8650
15782, 8566, 8652, 8653
15783, 8651, 8566, 8653
15784, 8664, 8652, 8492
15785, 8663, 8659, 8662
15786, 8662, 8646, 8651
15787, 8732, 8856, 8734
15788, 8649, 8727, 8728
15789, 8659, 8661, 8650
15790, 8652, 8656, 8653
15791, 8661, 8659, 8658
15792, 8495, 8853, 8858
15793, 8654, 8728, 8727
15794, 8660, 8557, 8661
15795, 8660, 8658, 8728
15796, 8650, 8557, 8642
15797, 8646, 8662, 8650
15798, 8656, 8662, 8651
15799, 8664, 8663, 8656
15800, 8658, 8663, 8649
15801, 8652, 8664, 8656
15802, 8739, 8730, 8492
15803, 8666, 8665, 8564
15804, 1296, 8665, 8559
15805, 8564, 8563, 8668
15806, 8559, 8666, 8569
15807, 8564, 8667, 8560
15808, 8556, 8667, 8665
15809, 8567, 8668, 8563
15810, 8569, 8668, 8568
15811, 8674, 8671, 8676
15812, 8671, 8583, 8582
15813, 8582, 8673, 8671
15814, 8583, 8671, 8672
15815, 8678, 8670, 8675
15816, 8519, 8669, 8673
15817, 8676, 8673, 8669
15818, 8671, 8673, 8676
15819, 8679, 8681, 8684
15820, 8671, 8675, 8672
15821, 8675, 8674, 8678
15822, 8669, 8581, 8676
15823, 8679, 8676, 8581
15824, 8689, 8686, 8688
15825, 8691, 8692, 8743
15826, 8674, 8676, 8679
15827, 8744, 8700, 8740
15828, 8744, 8677, 8743
15829, 8690, 8687, 8678
15830, 8581, 8680, 8681
15831, 8679, 8581, 8681
15832, 8692, 8680, 8514
15833, 8691, 8687, 8690
15834, 8690, 8674, 8679
15835, 8745, 8904, 8747
15836, 8677, 8740, 8741
15837, 8687, 8689, 8678
15838, 8680, 8684, 8681
15839, 8689, 8687, 8686
15840, 8517, 8901, 8906
15841, 8682, 8741, 8740
15842, 8688, 8572, 8689
15843, 8688, 8686, 8741
15844, 8678, 8572, 8670
15845, 8674, 8690, 8678
15846, 8684, 8690, 8679
15847, 8692, 8691, 8684
15848, 8686, 8691, 8677
15849, 8680, 8692, 8684
15850, 8752, 8743, 8514
15851, 8694, 8693, 8579
15852, 1297, 8693, 8574
15853, 8579, 8578, 8696
15854, 8574, 8694, 8584
15855, 8579, 8695, 8575
15856, 8571, 8695, 8693
15857, 8582, 8696, 8578
15858, 8584, 8696, 8583
15859, 8697, 8706, 8708
15860, 8697, 8712, 8711
15861, 8698, 8719, 8721
15862, 8698, 8725, 8724
15863, 8699, 8732, 8734
15864, 8699, 8738, 8737
15865, 8700, 8745, 8747
15866, 8700, 8751, 8750
15867, 8448, 8703, 8713
15868, 8712, 8708, 8710
15869, 8604, 8702, 8598
15870, 8593, 8702, 8602
15871, 8601, 8706, 8703
15872, 8705, 8701, 8593
15873, 8607, 8704, 8593
15874, 8448, 8704, 8608
15875, 8705, 8713, 8706
15876, 8707, 8760, 8755
15877, 8705, 8706, 8697
15878, 8599, 8754, 8753
15879, 8758, 8754, 8765
15880, 8760, 8706, 8601
15881, 8451, 8709, 8710
15882, 8701, 8711, 8598
15883, 8710, 8708, 8707
15884, 8712, 8710, 8709
15885, 8697, 8711, 8701
15886, 8709, 8598, 8711
15887, 8711, 8712, 8709
15888, 8708, 8712, 8697
15889, 8706, 8713, 8703
15890, 8704, 8713, 8705
15891, 8470, 8716, 8726
15892, 8725, 8721, 8723
15893, 8632, 8715, 8626
15894, 8621, 8715, 8630
15895, 8629, 8719, 8716
15896, 8718, 8714, 8621
15897, 8635, 8717, 8621
15898, 8470, 8717, 8636
15899, 8718, 8726, 8719
15900, 8720, 8808, 8803
15901, 8718, 8719, 8698
15902, 8627, 8802, 8801
15903, 8806, 8802, 8813
15904, 8808, 8719, 8629
15905, 8473, 8722, 8723
15906, 8714, 8724, 8626
15907, 8723, 8721, 8720
15908, 8725, 8723, 8722
15909, 8698, 8724, 8714
15910, 8722, 8626, 8724
15911, 8724, 8725, 8722
15912, 8721, 8725, 8698
15913, 8719, 8726, 8716
15914, 8717, 8726, 8718
15915, 8492, 8729, 8739
15916, 8738, 8734, 8736
15917, 8660, 8728, 8654
15918, 8649, 8728, 8658
15919, 8657, 8732, 8729
15920, 8731, 8727, 8649
15921, 8663, 8730, 8649
15922, 8492, 8730, 8664
15923, 8731, 8739, 8732
15924, 8733, 8856, 8851
15925, 8731, 8732, 8699
15926, 8655, 8850, 8849
15927, 8854, 8850, 8861
15928, 8856, 8732, 8657
15929, 8495, 8735, 8736
15930, 8727, 8737, 8654
15931, 8736, 8734, 8733
15932, 8738, 8736, 8735
15933, 8699, 8737, 8727
15934, 8735, 8654, 8737
15935, 8737, 8738, 8735
15936, 8734, 8738, 8699
15937, 8732, 8739, 8729
15938, 8730, 8739, 8731
15939, 8514, 8742, 8752
15940, 8751, 8747, 8749
15941, 8688, 8741, 8682
15942, 8677, 8741, 8686
15943, 8685, 8745, 8742
15944, 8744, 8740, 8677
15945, 8691, 8743, 8677
15946, 8514, 8743, 8692
15947, 8744, 8752, 8745
15948, 8746, 8904, 8899
15949, 8744, 8745, 8700
15950, 8683, 8898, 8897
15951, 8902, 8898, 8909
15952, 8904, 8745, 8685
15953, 8517, 8748, 8749
15954, 8740, 8750, 8682
15955, 8749, 8747, 8746
15956, 8751, 8749, 8748
15957, 8700, 8750, 8740
15958, 8748, 8682, 8750
15959, 8750, 8751, 8748
15960, 8747, 8751, 8700
15961, 8745, 8752, 8742
15962, 8743, 8752, 8744
15963, 8784, 8770, 8761
15964, 8753, 8755, 8760
15965, 8758, 8755, 8754
15966, 8707, 8708, 8760
15967, 8753, 8754, 8755
15968, 8764, 8768, 8770
15969, 8786, 8772, 8777
15970, 8757, 8710, 8707
15971, 8758, 8707, 8755
15972, 8753, 8760, 8601
15973, 8766, 8765, 8754
15974, 8764, 8770, 8775
15975, 8756, 8771, 8782
15976, 8766, 8754, 8599
15977, 8757, 8707, 8758
15978, 8767, 8764, 8778
15979, 8781, 8775, 8771
15980, 8451, 8710, 8757
15981, 8767, 8765, 8766
15982, 8599, 8763, 8766
15983, 8778, 8759, 8779
15984, 8757, 8758, 8780
15985, 8766, 8763, 8767
15986, 8768, 8763, 8761
15987, 8764, 8767, 8768
15988, 8763, 8768, 8767
15989, 8793, 8785, 960
15990, 8769, 8775, 8770
15991, 8761, 8770, 8768
15992, 8769, 8772, 8775
15993, 8781, 8759, 8778
15994, 8775, 8781, 8764
15995, 8783, 8785, 8784
15996, 8773, 8772, 8769
15997, 8799, 8800, 8795
15998, 8786, 8776, 8756
15999, 8800, 8786, 8777
16000, 8779, 8759, 8762
16001, 8797, 8795, 8796
16002, 8777, 8772, 8773
16003, 8759, 8781, 8771
16004, 8773, 8785, 8793
16005, 8782, 8772, 8756
16006, 8778, 8765, 8767
16007, 8762, 8757, 8780
16008, 8765, 8778, 8779
16009, 8765, 8780, 8758
16010, 8762, 8780, 8779
16011, 8764, 8781, 8778
16012, 8771, 8775, 8782
16013, 8772, 8782, 8775
16014, 8770, 8784, 8769
16015, 8785, 8769, 8784
16016, 8761, 8783, 8784
16017, 8785, 8773, 8769
16018, 8783, 960, 8785
16019, 8772, 8786, 8756
16020, 8777, 8793, 8795
16021, 8788, 8799, 8774
16022, 8799, 8949, 8774
16023, 8774, 8776, 8788
16024, 8786, 8800, 8776
16025, 8955, 8953, 8950
16026, 8796, 8795, 8793
16027, 8990, 8993, 8978
16028, 9171, 9174, 8965
16029, 960, 8787, 8796
16030, 8793, 8777, 8773
16031, 8799, 8795, 8789
16032, 8789, 8797, 8798
16033, 8945, 8774, 8949
16034, 8797, 8796, 8787
16035, 960, 8796, 8793
16036, 8798, 8797, 8787
16037, 8795, 8797, 8789
16038, 8787, 8792, 8798
16039, 8798, 8792, 8950
16040, 8799, 8789, 8949
16041, 8800, 8799, 8788
16042, 8776, 8800, 8788
16043, 8795, 8800, 8777
16044, 8832, 8818, 8809
16045, 8801, 8803, 8808
16046, 8806, 8803, 8802
16047, 8720, 8721, 8808
16048, 8801, 8802, 8803
16049, 8812, 8816, 8818
16050, 8834, 8820, 8825
16051, 8805, 8723, 8720
16052, 8806, 8720, 8803
16053, 8801, 8808, 8629
16054, 8814, 8813, 8802
16055, 8812, 8818, 8823
16056, 8804, 8819, 8830
16057, 8814, 8802, 8627
16058, 8805, 8720, 8806
16059, 8815, 8812, 8826
16060, 8829, 8823, 8819
16061, 8473, 8723, 8805
16062, 8815, 8813, 8814
16063, 8627, 8811, 8814
16064, 8826, 8807, 8827
16065, 8805, 8806, 8828
16066, 8814, 8811, 8815
16067, 8816, 8811, 8809
16068, 8812, 8815, 8816
16069, 8811, 8816, 8815
16070, 8841, 8833, 797
16071, 8817, 8823, 8818
16072, 8809, 8818, 8816
16073, 8817, 8820, 8823
16074, 8829, 8807, 8826
16075, 8823, 8829, 8812
16076, 8831, 8833, 8832
16077, 8821, 8820, 8817
16078, 8847, 8848, 8843
16079, 8834, 8824, 8804
16080, 8848, 8834, 8825
16081, 8827, 8807, 8810
16082, 8845, 8843, 8844
16083, 8825, 8820, 8821
16084, 8807, 8829, 8819
16085, 8821, 8833, 8841
16086, 8830, 8820, 8804
16087, 8826, 8813, 8815
16088, 8810, 8805, 8828
16089, 8813, 8826, 8827
16090, 8813, 8828, 8806
16091, 8810, 8828, 8827
16092, 8812, 8829, 8826
16093, 8819, 8823, 8830
16094, 8820, 8830, 8823
16095, 8818, 8832, 8817
16096, 8833, 8817, 8832
16097, 8809, 8831, 8832
16098, 8833, 8821, 8817
16099, 8831, 797, 8833
16100, 8820, 8834, 8804
16101, 8825, 8841, 8843
16102, 8836, 8847, 8822
16103, 8847, 9003, 8822
16104, 8822, 8824, 8836
16105, 8834, 8848, 8824
16106, 9011, 9009, 9006
16107, 8844, 8843, 8841
16108, 9046, 9049, 9034
16109, 9188, 9189, 9021
16110, 797, 8835, 8844
16111, 8841, 8825, 8821
16112, 8847, 8843, 8837
16113, 8837, 8845, 8846
16114, 8946, 8822, 9003
16115, 8845, 8844, 8835
16116, 797, 8844, 8841
16117, 8846, 8845, 8835
16118, 8843, 8845, 8837
16119, 8835, 8840, 8846
16120, 8846, 8840, 9006
16121, 8847, 8837, 9003
16122, 8848, 8847, 8836
16123, 8824, 8848, 8836
16124, 8843, 8848, 8825
16125, 8880, 8866, 8857
16126, 8849, 8851, 8856
16127, 8854, 8851, 8850
16128, 8733, 8734, 8856
16129, 8849, 8850, 8851
16130, 8860, 8864, 8866
16131, 8882, 8868, 8873
16132, 8853, 8736, 8733
16133, 8854, 8733, 8851
16134, 8849, 8856, 8657
16135, 8862, 8861, 8850
16136, 8860, 8866, 8871
16137, 8852, 8867, 8878
16138, 8862, 8850, 8655
16139, 8853, 8733, 8854
16140, 8863, 8860, 8874
16141, 8877, 8871, 8867
16142, 8495, 8736, 8853
16143, 8863, 8861, 8862
16144, 8655, 8859, 8862
16145, 8874, 8855, 8875
16146, 8853, 8854, 8876
16147, 8862, 8859, 8863
16148, 8864, 8859, 8857
16149, 8860, 8863, 8864
16150, 8859, 8864, 8863
16151, 8889, 8881, 1123
16152, 8865, 8871, 8866
16153, 8857, 8866, 8864
16154, 8865, 8868, 8871
16155, 8877, 8855, 8874
16156, 8871, 8877, 8860
16157, 8879, 8881, 8880
16158, 8869, 8868, 8865
16159, 8895, 8896, 8891
16160, 8882, 8872, 8852
16161, 8896, 8882, 8873
16162, 8875, 8855, 8858
16163, 8893, 8891, 8892
16164, 8873, 8868, 8869
16165, 8855, 8877, 8867
16166, 8869, 8881, 8889
16167, 8878, 8868, 8852
16168, 8874, 8861, 8863
16169, 8858, 8853, 8876
16170, 8861, 8874, 8875
16171, 8861, 8876, 8854
16172, 8858, 8876, 8875
16173, 8860, 8877, 8874
16174, 8867, 8871, 8878
16175, 8868, 8878, 8871
16176, 8866, 8880, 8865
16177, 8881, 8865, 8880
16178, 8857, 8879, 8880
16179, 8881, 8869, 8865
16180, 8879, 1123, 8881
16181, 8868, 8882, 8852
16182, 8873, 8889, 8891
16183, 8884, 8895, 8870
16184, 8895, 9059, 8870
16185, 8870, 8872, 8884
16186, 8882, 8896, 8872
16187, 9067, 9065, 9062
16188, 8892, 8891, 8889
16189, 9102, 9105, 9090
16190, 9203, 9204, 9077
16191, 1123, 8883, 8892
16192, 8889, 8873, 8869
16193, 8895, 8891, 8885
16194, 8885, 8893, 8894
16195, 8947, 8870, 9059
16196, 8893, 8892, 8883
16197, 1123, 8892, 8889
16198, 8894, 8893, 8883
16199, 8891, 8893, 8885
16200, 8883, 8888, 8894
16201, 8894, 8888, 9062
16202, 8895, 8885, 9059
16203, 8896, 8895, 8884
16204, 8872, 8896, 8884
16205, 8891, 8896, 8873
16206, 8928, 8914, 8905
16207, 8897, 8899, 8904
16208, 8902, 8899, 8898
16209, 8746, 8747, 8904
16210, 8897, 8898, 8899
16211, 8908, 8912, 8914
16212, 8930, 8916, 8921
16213, 8901, 8749, 8746
16214, 8902, 8746, 8899
16215, 8897, 8904, 8685
16216, 8910, 8909, 8898
16217, 8908, 8914, 8919
16218, 8900, 8915, 8926
16219, 8910, 8898, 8683
16220, 8901, 8746, 8902
16221, 8911, 8908, 8922
16222, 8925, 8919, 8915
16223, 8517, 8749, 8901
16224, 8911, 8909, 8910
16225, 8683, 8907, 8910
16226, 8922, 8903, 8923
16227, 8901, 8902, 8924
16228, 8910, 8907, 8911
16229, 8912, 8907, 8905
16230, 8908, 8911, 8912
16231, 8907, 8912, 8911
16232, 8937, 8929, 1286
16233, 8913, 8919, 8914
16234, 8905, 8914, 8912
16235, 8913, 8916, 8919
16236, 8925, 8903, 8922
16237, 8919, 8925, 8908
16238, 8927, 8929, 8928
16239, 8917, 8916, 8913
16240, 8943, 8944, 8939
16241, 8930, 8920, 8900
16242, 8944, 8930, 8921
16243, 8923, 8903, 8906
16244, 8941, 8939, 8940
16245, 8921, 8916, 8917
16246, 8903, 8925, 8915
16247, 8917, 8929, 8937
16248, 8926, 8916, 8900
16249, 8922, 8909, 8911
16250, 8906, 8901, 8924
16251, 8909, 8922, 8923
16252, 8909, 8924, 8902
16253, 8906, 8924, 8923
16254, 8908, 8925, 8922
16255, 8915, 8919, 8926
16256, 8916, 8926, 8919
16257, 8914, 8928, 8913
16258, 8929, 8913, 8928
16259, 8905, 8927, 8928
16260, 8929, 8917, 8913
16261, 8927, 1286, 8929
16262, 8916, 8930, 8900
16263, 8921, 8937, 8939
16264, 8932, 8943, 8918
16265, 8943, 9115, 8918
16266, 8918, 8920, 8932
16267, 8930, 8944, 8920
16268, 9123, 9121, 9118
16269, 8940, 8939, 8937
16270, 9158, 9161, 9146
16271, 9218, 9219, 9133
16272, 1286, 8931, 8940
16273, 8937, 8921, 8917
16274, 8943, 8939, 8933
16275, 8933, 8941, 8942
16276, 8948, 8918, 9115
16277, 8941, 8940, 8931
16278, 1286, 8940, 8937
16279, 8942, 8941, 8931
16280, 8939, 8941, 8933
16281, 8931, 8936, 8942
16282, 8942, 8936, 9118
16283, 8943, 8933, 9115
16284, 8944, 8943, 8932
16285, 8920, 8944, 8932
16286, 8939, 8944, 8921
16287, 8789, 8951, 8949
16288, 8949, 8951, 8953
16289, 8837, 9007, 9003
16290, 9003, 9007, 9009
16291, 8885, 9063, 9059
16292, 9059, 9063, 9065
16293, 8933, 9119, 9115
16294, 9115, 9119, 9121
16295, 8798, 8950, 8951
16296, 8954, 8960, 8958
16297, 8945, 8953, 1290
16298, 8798, 8951, 8789
16299, 8951, 8950, 8953
16300, 8953, 8945, 8949
16301, 8950, 8792, 8963
16302, 8963, 8954, 8955
16303, 8794, 8959, 8952
16304, 8954, 8958, 8955
16305, 8963, 8955, 8950
16306, 8957, 8966, 8970
16307, 8794, 8977, 8959
16308, 8967, 8970, 8966
16309, 8982, 8984, 8957
16310, 8975, 8969, 8973
16311, 9175, 8962, 1290
16312, 8964, 8973, 8972
16313, 8952, 8959, 8954
16314, 8972, 8981, 8961
16315, 8977, 8960, 8959
16316, 8965, 8956, 9171
16317, 8953, 8958, 1290
16318, 8955, 8958, 8953
16319, 8792, 8952, 8963
16320, 8954, 8963, 8952
16321, 8956, 8962, 9171
16322, 8965, 9176, 8977
16323, 8956, 8965, 8967
16324, 8970, 8967, 8971
16325, 8966, 8956, 8967
16326, 8965, 8977, 8968
16327, 8973, 8971, 8972
16328, 8971, 8973, 8969
16329, 8965, 8968, 8967
16330, 8971, 8967, 8968
16331, 8957, 8970, 8969
16332, 8971, 8968, 8972
16333, 8969, 8970, 8971
16334, 8981, 8972, 8968
16335, 8961, 8964, 8972
16336, 8975, 8982, 8969
16337, 8976, 8975, 8973
16338, 8790, 8979, 8987
16339, 8973, 8964, 8976
16340, 8988, 8991, 8990
16341, 8964, 8974, 8976
16342, 8975, 8976, 8974
16343, 8958, 8960, 9174
16344, 8981, 8980, 8961
16345, 8975, 8974, 8979
16346, 8985, 8991, 8988
16347, 8968, 8977, 8981
16348, 8985, 8983, 8984
16349, 8977, 8794, 8980
16350, 8980, 8981, 8977
16351, 8985, 8986, 8979
16352, 8957, 8969, 8982
16353, 8982, 8975, 8986
16354, 8984, 8982, 8986
16355, 8983, 8957, 8984
16356, 8996, 8998, 8989
16357, 8978, 8983, 8988
16358, 8979, 8986, 8975
16359, 8984, 8986, 8985
16360, 8983, 8985, 8988
16361, 8979, 8974, 8987
16362, 8996, 8979, 8790
16363, 8790, 8999, 8998
16364, 8978, 8988, 8990
16365, 8992, 8994, 9004
16366, 8998, 8999, 9177
16367, 8979, 8991, 8985
16368, 8989, 9177, 8994
16369, 8993, 8990, 8994
16370, 8990, 8991, 8989
16371, 9271, 9270, 9002
16372, 8992, 8978, 8993
16373, 8994, 8990, 8989
16374, 9185, 9187, 9238
16375, 8996, 8989, 8991
16376, 8790, 8998, 8996
16377, 8979, 8996, 8991
16378, 8997, 9179, 9178
16379, 9177, 8989, 8998
16380, 8993, 8994, 8992
16381, 8994, 9177, 9179
16382, 9250, 9237, 9239
16383, 8946, 9009, 1289
16384, 9001, 9004, 8994
16385, 9252, 9253, 9254
16386, 9010, 9016, 9014
16387, 8992, 9004, 8791
16388, 9180, 8997, 9000
16389, 9181, 9184, 9182
16390, 9005, 9238, 9237
16391, 8846, 9006, 9007
16392, 8846, 9007, 8837
16393, 9007, 9006, 9009
16394, 9009, 8946, 9003
16395, 9006, 8840, 9019
16396, 9019, 9010, 9011
16397, 8842, 9015, 9008
16398, 9010, 9014, 9011
16399, 9019, 9011, 9006
16400, 9013, 9022, 9026
16401, 8842, 9033, 9015
16402, 9023, 9026, 9022
16403, 9038, 9040, 9013
16404, 9031, 9025, 9029
16405, 9190, 9018, 1289
16406, 9020, 9029, 9028
16407, 9008, 9015, 9010
16408, 9028, 9037, 9017
16409, 9033, 9016, 9015
16410, 9021, 9012, 9188
16411, 9009, 9014, 1289
16412, 9011, 9014, 9009
16413, 8840, 9008, 9019
16414, 9010, 9019, 9008
16415, 9012, 9018, 9188
16416, 9021, 9191, 9033
16417, 9012, 9021, 9023
16418, 9026, 9023, 9027
16419, 9022, 9012, 9023
16420, 9021, 9033, 9024
16421, 9029, 9027, 9028
16422, 9027, 9029, 9025
16423, 9021, 9024, 9023
16424, 9027, 9023, 9024
16425, 9013, 9026, 9025
16426, 9027, 9024, 9028
16427, 9025, 9026, 9027
16428, 9037, 9028, 9024
16429, 9017, 9020, 9028
16430, 9031, 9038, 9025
16431, 9032, 9031, 9029
16432, 8838, 9035, 9043
16433, 9029, 9020, 9032
16434, 9044, 9047, 9046
16435, 9020, 9030, 9032
16436, 9031, 9032, 9030
16437, 9014, 9016, 9189
16438, 9037, 9036, 9017
16439, 9031, 9030, 9035
16440, 9041, 9047, 9044
16441, 9024, 9033, 9037
16442, 9041, 9039, 9040
16443, 9033, 8842, 9036
16444, 9036, 9037, 9033
16445, 9041, 9042, 9035
16446, 9013, 9025, 9038
16447, 9038, 9031, 9042
16448, 9040, 9038, 9042
16449, 9039, 9013, 9040
16450, 9052, 9054, 9045
16451, 9034, 9039, 9044
16452, 9035, 9042, 9031
16453, 9040, 9042, 9041
16454, 9039, 9041, 9044
16455, 9035, 9030, 9043
16456, 9052, 9035, 8838
16457, 8838, 9055, 9054
16458, 9034, 9044, 9046
16459, 9048, 9050, 9060
16460, 9054, 9055, 9192
16461, 9035, 9047, 9041
16462, 9045, 9192, 9050
16463, 9049, 9046, 9050
16464, 9046, 9047, 9045
16465, 9297, 9296, 9058
16466, 9048, 9034, 9049
16467, 9050, 9046, 9045
16468, 9200, 9202, 9241
16469, 9052, 9045, 9047
16470, 8838, 9054, 9052
16471, 9035, 9052, 9047
16472, 9053, 9194, 9193
16473, 9192, 9045, 9054
16474, 9049, 9050, 9048
16475, 9050, 9192, 9194
16476, 9276, 9240, 9242
16477, 8947, 9065, 1291
16478, 9057, 9060, 9050
16479, 9278, 9279, 9280
16480, 9066, 9072, 9070
16481, 9048, 9060, 8839
16482, 9195, 9053, 9056
16483, 9196, 9199, 9197
16484, 9061, 9241, 9240
16485, 8894, 9062, 9063
16486, 8894, 9063, 8885
16487, 9063, 9062, 9065
16488, 9065, 8947, 9059
16489, 9062, 8888, 9075
16490, 9075, 9066, 9067
16491, 8890, 9071, 9064
16492, 9066, 9070, 9067
16493, 9075, 9067, 9062
16494, 9069, 9078, 9082
16495, 8890, 9089, 9071
16496, 9079, 9082, 9078
16497, 9094, 9096, 9069
16498, 9087, 9081, 9085
16499, 9205, 9074, 1291
16500, 9076, 9085, 9084
16501, 9064, 9071, 9066
16502, 9084, 9093, 9073
16503, 9089, 9072, 9071
16504, 9077, 9068, 9203
16505, 9065, 9070, 1291
16506, 9067, 9070, 9065
16507, 8888, 9064, 9075
16508, 9066, 9075, 9064
16509, 9068, 9074, 9203
16510, 9077, 9206, 9089
16511, 9068, 9077, 9079
16512, 9082, 9079, 9083
16513, 9078, 9068, 9079
16514, 9077, 9089, 9080
16515, 9085, 9083, 9084
16516, 9083, 9085, 9081
16517, 9077, 9080, 9079
16518, 9083, 9079, 9080
16519, 9069, 9082, 9081
16520, 9083, 9080, 9084
16521, 9081, 9082, 9083
16522, 9093, 9084, 9080
16523, 9073, 9076, 9084
16524, 9087, 9094, 9081
16525, 9088, 9087, 9085
16526, 8886, 9091, 9099
16527, 9085, 9076, 9088
16528, 9100, 9103, 9102
16529, 9076, 9086, 9088
16530, 9087, 9088, 9086
16531, 9070, 9072, 9204
16532, 9093, 9092, 9073
16533, 9087, 9086, 9091
16534, 9097, 9103, 9100
16535, 9080, 9089, 9093
16536, 9097, 9095, 9096
16537, 9089, 8890, 9092
16538, 9092, 9093, 9089
16539, 9097, 9098, 9091
16540, 9069, 9081, 9094
16541, 9094, 9087, 9098
16542, 9096, 9094, 9098
16543, 9095, 9069, 9096
16544, 9108, 9110, 9101
16545, 9090, 9095, 9100
16546, 9091, 9098, 9087
16547, 9096, 9098, 9097
16548, 9095, 9097, 9100
16549, 9091, 9086, 9099
16550, 9108, 9091, 8886
16551, 8886, 9111, 9110
16552, 9090, 9100, 9102
16553, 9104, 9106, 9116
16554, 9110, 9111, 9207
16555, 9091, 9103, 9097
16556, 9101, 9207, 9106
16557, 9105, 9102, 9106
16558, 9102, 9103, 9101
16559, 9323, 9322, 9114
16560, 9104, 9090, 9105
16561, 9106, 9102, 9101
16562, 9215, 9217, 9244
16563, 9108, 9101, 9103
16564, 8886, 9110, 9108
16565, 9091, 9108, 9103
16566, 9109, 9209, 9208
16567, 9207, 9101, 9110
16568, 9105, 9106, 9104
16569, 9106, 9207, 9209
16570, 9302, 9243, 9245
16571, 8948, 9121, 1292
16572, 9113, 9116, 9106
16573, 9304, 9305, 9306
16574, 9122, 9128, 9126
16575, 9104, 9116, 8887
16576, 9210, 9109, 9112
16577, 9211, 9214, 9212
16578, 9117, 9244, 9243
16579, 8942, 9118, 9119
16580, 8942, 9119, 8933
16581, 9119, 9118, 9121
16582, 9121, 8948, 9115
16583, 9118, 8936, 9131
16584, 9131, 9122, 9123
16585, 8938, 9127, 9120
16586, 9122, 9126, 9123
16587, 9131, 9123, 9118
16588, 9125, 9134, 9138
16589, 8938, 9145, 9127
16590, 9135, 9138, 9134
16591, 9150, 9152, 9125
16592, 9143, 9137, 9141
16593, 9220, 9130, 1292
16594, 9132, 9141, 9140
16595, 9120, 9127, 9122
16596, 9140, 9149, 9129
16597, 9145, 9128, 9127
16598, 9133, 9124, 9218
16599, 9121, 9126, 1292
16600, 9123, 9126, 9121
16601, 8936, 9120, 9131
16602, 9122, 9131, 9120
16603, 9124, 9130, 9218
16604, 9133, 9221, 9145
16605, 9124, 9133, 9135
16606, 9138, 9135, 9139
16607, 9134, 9124, 9135
16608, 9133, 9145, 9136
16609, 9141, 9139, 9140
16610, 9139, 9141, 9137
16611, 9133, 9136, 9135
16612, 9139, 9135, 9136
16613, 9125, 9138, 9137
16614, 9139, 9136, 9140
16615, 9137, 9138, 9139
16616, 9149, 9140, 9136
16617, 9129, 9132, 9140
16618, 9143, 9150, 9137
16619, 9144, 9143, 9141
16620, 8934, 9147, 9155
16621, 9141, 9132, 9144
16622, 9156, 9159, 9158
16623, 9132, 9142, 9144
16624, 9143, 9144, 9142
16625, 9126, 9128, 9219
16626, 9149, 9148, 9129
16627, 9143, 9142, 9147
16628, 9153, 9159, 9156
16629, 9136, 9145, 9149
16630, 9153, 9151, 9152
16631, 9145, 8938, 9148
16632, 9148, 9149, 9145
16633, 9153, 9154, 9147
16634, 9125, 9137, 9150
16635, 9150, 9143, 9154
16636, 9152, 9150, 9154
16637, 9151, 9125, 9152
16638, 9164, 9166, 9157
16639, 9146, 9151, 9156
16640, 9147, 9154, 9143
16641, 9152, 9154, 9153
16642, 9151, 9153, 9156
16643, 9147, 9142, 9155
16644, 9164, 9147, 8934
16645, 8934, 9167, 9166
16646, 9146, 9156, 9158
16647, 9160, 9162, 9172
16648, 9166, 9167, 9222
16649, 9147, 9159, 9153
16650, 9157, 9222, 9162
16651, 9161, 9158, 9162
16652, 9158, 9159, 9157
16653, 9349, 9348, 9170
16654, 9160, 9146, 9161
16655, 9162, 9158, 9157
16656, 9230, 9232, 9247
16657, 9164, 9157, 9159
16658, 8934, 9166, 9164
16659, 9147, 9164, 9159
16660, 9165, 9224, 9223
16661, 9222, 9157, 9166
16662, 9161, 9162, 9160
16663, 9162, 9222, 9224
16664, 9328, 9246, 9248
16665, 8960, 8977, 9176
16666, 9169, 9172, 9162
16667, 9330, 9331, 9332
16668, 9174, 8962, 9175
16669, 9160, 9172, 8935
16670, 9225, 9165, 9168
16671, 9226, 9229, 9227
16672, 9173, 9247, 9246
16673, 9174, 9171, 8962
16674, 1290, 8958, 9175
16675, 9174, 9175, 8958
16676, 8965, 9174, 9176
16677, 8960, 9176, 9174
16678, 9177, 9178, 9179
16679, 9180, 9179, 8997
16680, 9177, 8999, 9178
16681, 8994, 9179, 9001
16682, 9182, 9180, 9000
16683, 9179, 9180, 9001
16684, 9182, 9183, 9181
16685, 9186, 8791, 9004
16686, 9183, 9182, 9000
16687, 9181, 9187, 9184
16688, 9000, 8995, 9183
16689, 9183, 8995, 9239
16690, 9001, 9186, 9004
16691, 9186, 9001, 9184
16692, 9184, 9001, 9180
16693, 9186, 9185, 8791
16694, 9185, 9186, 9184
16695, 9181, 9237, 9238
16696, 9185, 9184, 9187
16697, 9189, 9188, 9018
16698, 9189, 9018, 9190
16699, 9016, 9033, 9191
16700, 1289, 9014, 9190
16701, 9189, 9190, 9014
16702, 9021, 9189, 9191
16703, 9016, 9191, 9189
16704, 9192, 9193, 9194
16705, 9195, 9194, 9053
16706, 9192, 9055, 9193
16707, 9050, 9194, 9057
16708, 9197, 9195, 9056
16709, 9194, 9195, 9057
16710, 9197, 9198, 9196
16711, 9201, 8839, 9060
16712, 9198, 9197, 9056
16713, 9196, 9202, 9199
16714, 9056, 9051, 9198
16715, 9198, 9051, 9242
16716, 9057, 9201, 9060
16717, 9201, 9057, 9199
16718, 9199, 9057, 9195
16719, 9201, 9200, 8839
16720, 9200, 9201, 9199
16721, 9196, 9240, 9241
16722, 9200, 9199, 9202
16723, 9204, 9203, 9074
16724, 9204, 9074, 9205
16725, 9072, 9089, 9206
16726, 1291, 9070, 9205
16727, 9204, 9205, 9070
16728, 9077, 9204, 9206
16729, 9072, 9206, 9204
16730, 9207, 9208, 9209
16731, 9210, 9209, 9109
16732, 9207, 9111, 9208
16733, 9106, 9209, 9113
16734, 9212, 9210, 9112
16735, 9209, 9210, 9113
16736, 9212, 9213, 9211
16737, 9216, 8887, 9116
16738, 9213, 9212, 9112
16739, 9211, 9217, 9214
16740, 9112, 9107, 9213
16741, 9213, 9107, 9245
16742, 9113, 9216, 9116
16743, 9216, 9113, 9214
16744, 9214, 9113, 9210
16745, 9216, 9215, 8887
16746, 9215, 9216, 9214
16747, 9211, 9243, 9244
16748, 9215, 9214, 9217
16749, 9219, 9218, 9130
16750, 9219, 9130, 9220
16751, 9128, 9145, 9221
16752, 1292, 9126, 9220
16753, 9219, 9220, 9126
16754, 9133, 9219, 9221
16755, 9128, 9221, 9219
16756, 9222, 9223, 9224
16757, 9225, 9224, 9165
16758, 9222, 9167, 9223
16759, 9162, 9224, 9169
16760, 9227, 9225, 9168
16761, 9224, 9225, 9169
16762, 9227, 9228, 9226
16763, 9231, 8935, 9172
16764, 9228, 9227, 9168
16765, 9226, 9232, 9229
16766, 9168, 9163, 9228
16767, 9228, 9163, 9248
16768, 9169, 9231, 9172
16769, 9231, 9169, 9229
16770, 9229, 9169, 9225
16771, 9231, 9230, 8935
16772, 9230, 9231, 9229
16773, 9226, 9246, 9247
16774, 9230, 9229, 9232
16775, 9259, 9002, 9260
16776, 9259, 9260, 9258
16777, 9285, 9058, 9286
16778, 9285, 9286, 9284
16779, 9311, 9114, 9312
16780, 9311, 9312, 9310
16781, 9337, 9170, 9338
16782, 9337, 9338, 9336
16783, 9239, 9237, 9181
16784, 8995, 9251, 9239
16785, 9185, 9238, 9005
16786, 9181, 9238, 9187
16787, 9183, 9239, 9181
16788, 9251, 9253, 9250
16789, 9242, 9240, 9196
16790, 9051, 9277, 9242
16791, 9200, 9241, 9061
16792, 9196, 9241, 9202
16793, 9198, 9242, 9196
16794, 9277, 9279, 9276
16795, 9245, 9243, 9211
16796, 9107, 9303, 9245
16797, 9215, 9244, 9117
16798, 9211, 9244, 9217
16799, 9213, 9245, 9211
16800, 9303, 9305, 9302
16801, 9248, 9246, 9226
16802, 9163, 9329, 9248
16803, 9230, 9247, 9173
16804, 9226, 9247, 9232
16805, 9228, 9248, 9226
16806, 9329, 9331, 9328
16807, 9253, 9252, 9258
16808, 9251, 8995, 9249
16809, 9239, 9251, 9250
16810, 9261, 9233, 9263
16811, 9249, 9254, 9253
16812, 9258, 9252, 9259
16813, 9249, 9253, 9251
16814, 9250, 9253, 9258
16815, 9249, 9233, 9254
16816, 9261, 9254, 9233
16817, 9269, 9264, 9268
16818, 9233, 9262, 9263
16819, 9237, 9256, 9005
16820, 9256, 9250, 9258
16821, 9005, 9256, 9257
16822, 9250, 9256, 9237
16823, 9256, 9258, 9260
16824, 9261, 9259, 9252
16825, 9274, 9263, 9265
16826, 9002, 9257, 9260
16827, 9260, 9257, 9256
16828, 9254, 9261, 9252
16829, 9355, 9255, 9269
16830, 9265, 9263, 9262
16831, 9273, 9272, 9264
16832, 9265, 9266, 9264
16833, 9259, 9271, 9002
16834, 9266, 9265, 9262
16835, 9264, 9272, 9274
16836, 9262, 1298, 9266
16837, 9266, 1298, 9268
16838, 9268, 9264, 9266
16839, 9555, 9552, 9551
16840, 9369, 9370, 9368
16841, 9370, 9355, 9269
16842, 9357, 9269, 9268
16843, 9273, 9269, 9255
16844, 9259, 9261, 9271
16845, 9270, 9272, 9273
16846, 9263, 9274, 9261
16847, 9270, 9271, 9272
16848, 9274, 9271, 9261
16849, 9269, 9273, 9264
16850, 9270, 9273, 9255
16851, 9264, 9274, 9265
16852, 9271, 9274, 9272
16853, 9279, 9278, 9284
16854, 9277, 9051, 9275
16855, 9242, 9277, 9276
16856, 9287, 9234, 9289
16857, 9275, 9280, 9279
16858, 9284, 9278, 9285
16859, 9275, 9279, 9277
16860, 9276, 9279, 9284
16861, 9275, 9234, 9280
16862, 9287, 9280, 9234
16863, 9295, 9290, 9294
16864, 9234, 9288, 9289
16865, 9240, 9282, 9061
16866, 9282, 9276, 9284
16867, 9061, 9282, 9283
16868, 9276, 9282, 9240
16869, 9282, 9284, 9286
16870, 9287, 9285, 9278
16871, 9300, 9289, 9291
16872, 9058, 9283, 9286
16873, 9286, 9283, 9282
16874, 9280, 9287, 9278
16875, 9394, 9281, 9295
16876, 9291, 9289, 9288
16877, 9299, 9298, 9290
16878, 9291, 9292, 9290
16879, 9285, 9297, 9058
16880, 9292, 9291, 9288
16881, 9290, 9298, 9300
16882, 9288, 1293, 9292
16883, 9292, 1293, 9294
16884, 9294, 9290, 9292
16885, 9634, 9631, 9630
16886, 9408, 9409, 9407
16887, 9409, 9394, 9295
16888, 9396, 9295, 9294
16889, 9299, 9295, 9281
16890, 9285, 9287, 9297
16891, 9296, 9298, 9299
16892, 9289, 9300, 9287
16893, 9296, 9297, 9298
16894, 9300, 9297, 9287
16895, 9295, 9299, 9290
16896, 9296, 9299, 9281
16897, 9290, 9300, 9291
16898, 9297, 9300, 9298
16899, 9305, 9304, 9310
16900, 9303, 9107, 9301
16901, 9245, 9303, 9302
16902, 9313, 9235, 9315
16903, 9301, 9306, 9305
16904, 9310, 9304, 9311
16905, 9301, 9305, 9303
16906, 9302, 9305, 9310
16907, 9301, 9235, 9306
16908, 9313, 9306, 9235
16909, 9321, 9316, 9320
16910, 9235, 9314, 9315
16911, 9243, 9308, 9117
16912, 9308, 9302, 9310
16913, 9117, 9308, 9309
16914, 9302, 9308, 9243
16915, 9308, 9310, 9312
16916, 9313, 9311, 9304
16917, 9326, 9315, 9317
16918, 9114, 9309, 9312
16919, 9312, 9309, 9308
16920, 9306, 9313, 9304
16921, 9433, 9307, 9321
16922, 9317, 9315, 9314
16923, 9325, 9324, 9316
16924, 9317, 9318, 9316
16925, 9311, 9323, 9114
16926, 9318, 9317, 9314
16927, 9316, 9324, 9326
16928, 9314, 1299, 9318
16929, 9318, 1299, 9320
16930, 9320, 9316, 9318
16931, 9713, 9710, 9709
16932, 9447, 9448, 9446
16933, 9448, 9433, 9321
16934, 9435, 9321, 9320
16935, 9325, 9321, 9307
16936, 9311, 9313, 9323
16937, 9322, 9324, 9325
16938, 9315, 9326, 9313
16939, 9322, 9323, 9324
16940, 9326, 9323, 9313
16941, 9321, 9325, 9316
16942, 9322, 9325, 9307
16943, 9316, 9326, 9317
16944, 9323, 9326, 9324
16945, 9331, 9330, 9336
16946, 9329, 9163, 9327
16947, 9248, 9329, 9328
16948, 9339, 9236, 9341
16949, 9327, 9332, 9331
16950, 9336, 9330, 9337
16951, 9327, 9331, 9329
16952, 9328, 9331, 9336
16953, 9327, 9236, 9332
16954, 9339, 9332, 9236
16955, 9347, 9342, 9346
16956, 9236, 9340, 9341
16957, 9246, 9334, 9173
16958, 9334, 9328, 9336
16959, 9173, 9334, 9335
16960, 9328, 9334, 9246
16961, 9334, 9336, 9338
16962, 9339, 9337, 9330
16963, 9352, 9341, 9343
16964, 9170, 9335, 9338
16965, 9338, 9335, 9334
16966, 9332, 9339, 9330
16967, 9472, 9333, 9347
16968, 9343, 9341, 9340
16969, 9351, 9350, 9342
16970, 9343, 9344, 9342
16971, 9337, 9349, 9170
16972, 9344, 9343, 9340
16973, 9342, 9350, 9352
16974, 9340, 1300, 9344
16975, 9344, 1300, 9346
16976, 9346, 9342, 9344
16977, 9792, 9789, 9788
16978, 9486, 9487, 9485
16979, 9487, 9472, 9347
16980, 9474, 9347, 9346
16981, 9351, 9347, 9333
16982, 9337, 9339, 9349
16983, 9348, 9350, 9351
16984, 9341, 9352, 9339
16985, 9348, 9349, 9350
16986, 9352, 9349, 9339
16987, 9347, 9351, 9342
16988, 9348, 9351, 9333
16989, 9342, 9352, 9343
16990, 9349, 9352, 9350
16991, 9268, 1298, 9361
16992, 9269, 9357, 9370
16993, 9267, 9255, 9355
16994, 9374, 9387, 9385
16995, 9511, 9509, 9510
16996, 9359, 9360, 9362
16997, 9363, 9358, 9367
16998, 9361, 9360, 9359
16999, 9363, 9367, 9362
17000, 9359, 9362, 9371
17001, 9357, 9268, 9359
17002, 9268, 9361, 9359
17003, 9369, 9267, 9370
17004, 9377, 9376, 9378
17005, 9362, 9360, 9363
17006, 9510, 9380, 9511
17007, 9374, 9385, 9375
17008, 9378, 9376, 9365
17009, 9386, 9365, 9375
17010, 9391, 9372, 9356
17011, 9358, 9372, 9390
17012, 9371, 9357, 9359
17013, 9388, 9371, 9362
17014, 9355, 9370, 9267
17015, 9373, 9369, 9368
17016, 9357, 9368, 9370
17017, 9388, 9367, 9385
17018, 9357, 9371, 9368
17019, 9375, 9382, 9374
17020, 9375, 9365, 9376
17021, 9369, 9373, 1306
17022, 9388, 9368, 9371
17023, 9386, 9372, 9391
17024, 9376, 9377, 9366
17025, 9382, 9376, 9366
17026, 9381, 9365, 9391
17027, 9509, 9511, 9515
17028, 9367, 9390, 9389
17029, 9377, 9378, 9380
17030, 9377, 9380, 9364
17031, 9381, 9378, 9365
17032, 9383, 9512, 9521
17033, 9388, 9385, 9373
17034, 9381, 9356, 9514
17035, 9364, 9380, 9510
17036, 9381, 9511, 9378
17037, 9376, 9382, 9375
17038, 9517, 9509, 9515
17039, 9379, 9520, 9517
17040, 9390, 9367, 9358
17041, 9389, 9386, 9375
17042, 9374, 1306, 9387
17043, 9373, 9387, 1306
17044, 9388, 9373, 9368
17045, 9367, 9388, 9362
17046, 9375, 9385, 9389
17047, 9367, 9389, 9385
17048, 9372, 9386, 9390
17049, 9390, 9386, 9389
17050, 9381, 9391, 9356
17051, 9386, 9391, 9365
17052, 9294, 1293, 9400
17053, 9295, 9396, 9409
17054, 9293, 9281, 9394
17055, 9413, 9426, 9424
17056, 9590, 9588, 9589
17057, 9398, 9399, 9401
17058, 9402, 9397, 9406
17059, 9400, 9399, 9398
17060, 9402, 9406, 9401
17061, 9398, 9401, 9410
17062, 9396, 9294, 9398
17063, 9294, 9400, 9398
17064, 9408, 9293, 9409
17065, 9416, 9415, 9417
17066, 9401, 9399, 9402
17067, 9589, 9419, 9590
17068, 9413, 9424, 9414
17069, 9417, 9415, 9404
17070, 9425, 9404, 9414
17071, 9430, 9411, 9395
17072, 9397, 9411, 9429
17073, 9410, 9396, 9398
17074, 9427, 9410, 9401
17075, 9394, 9409, 9293
17076, 9412, 9408, 9407
17077, 9396, 9407, 9409
17078, 9427, 9406, 9424
17079, 9396, 9410, 9407
17080, 9414, 9421, 9413
17081, 9414, 9404, 9415
17082, 9408, 9412, 1301
17083, 9427, 9407, 9410
17084, 9425, 9411, 9430
17085, 9415, 9416, 9405
17086, 9421, 9415, 9405
17087, 9420, 9404, 9430
17088, 9588, 9590, 9594
17089, 9406, 9429, 9428
17090, 9416, 9417, 9419
17091, 9416, 9419, 9403
17092, 9420, 9417, 9404
17093, 9422, 9591, 9600
17094, 9427, 9424, 9412
17095, 9420, 9395, 9593
17096, 9403, 9419, 9589
17097, 9420, 9590, 9417
17098, 9415, 9421, 9414
17099, 9596, 9588, 9594
17100, 9418, 9599, 9596
17101, 9429, 9406, 9397
17102, 9428, 9425, 9414
17103, 9413, 1301, 9426
17104, 9412, 9426, 1301
17105, 9427, 9412, 9407
17106, 9406, 9427, 9401
17107, 9414, 9424, 9428
17108, 9406, 9428, 9424
17109, 9411, 9425, 9429
17110, 9429, 9425, 9428
17111, 9420, 9430, 9395
17112, 9425, 9430, 9404
17113, 9320, 1299, 9439
17114, 9321, 9435, 9448
17115, 9319, 9307, 9433
17116, 9452, 9465, 9463
17117, 9669, 9667, 9668
17118, 9437, 9438, 9440
17119, 9441, 9436, 9445
17120, 9439, 9438, 9437
17121, 9441, 9445, 9440
17122, 9437, 9440, 9449
17123, 9435, 9320, 9437
17124, 9320, 9439, 9437
17125, 9447, 9319, 9448
17126, 9455, 9454, 9456
17127, 9440, 9438, 9441
17128, 9668, 9458, 9669
17129, 9452, 9463, 9453
17130, 9456, 9454, 9443
17131, 9464, 9443, 9453
17132, 9469, 9450, 9434
17133, 9436, 9450, 9468
17134, 9449, 9435, 9437
17135, 9466, 9449, 9440
17136, 9433, 9448, 9319
17137, 9451, 9447, 9446
17138, 9435, 9446, 9448
17139, 9466, 9445, 9463
17140, 9435, 9449, 9446
17141, 9453, 9460, 9452
17142, 9453, 9443, 9454
17143, 9447, 9451, 1307
17144, 9466, 9446, 9449
17145, 9464, 9450, 9469
17146, 9454, 9455, 9444
17147, 9460, 9454, 9444
17148, 9459, 9443, 9469
17149, 9667, 9669, 9673
17150, 9445, 9468, 9467
17151, 9455, 9456, 9458
17152, 9455, 9458, 9442
17153, 9459, 9456, 9443
17154, 9461, 9670, 9679
17155, 9466, 9463, 9451
17156, 9459, 9434, 9672
17157, 9442, 9458, 9668
17158, 9459, 9669, 9456
17159, 9454, 9460, 9453
17160, 9675, 9667, 9673
17161, 9457, 9678, 9675
17162, 9468, 9445, 9436
17163, 9467, 9464, 9453
17164, 9452, 1307, 9465
17165, 9451, 9465, 1307
17166, 9466, 9451, 9446
17167, 9445, 9466, 9440
17168, 9453, 9463, 9467
17169, 9445, 9467, 9463
17170, 9450, 9464, 9468
17171, 9468, 9464, 9467
17172, 9459, 9469, 9434
17173, 9464, 9469, 9443
17174, 9346, 1300, 9478
17175, 9347, 9474, 9487
17176, 9345, 9333, 9472
17177, 9491, 9504, 9502
17178, 9748, 9746, 9747
17179, 9476, 9477, 9479
17180, 9480, 9475, 9484
17181, 9478, 9477, 9476
17182, 9480, 9484, 9479
17183, 9476, 9479, 9488
17184, 9474, 9346, 9476
17185, 9346, 9478, 9476
17186, 9486, 9345, 9487
17187, 9494, 9493, 9495
17188, 9479, 9477, 9480
17189, 9747, 9497, 9748
17190, 9491, 9502, 9492
17191, 9495, 9493, 9482
17192, 9503, 9482, 9492
17193, 9508, 9489, 9473
17194, 9475, 9489, 9507
17195, 9488, 9474, 9476
17196, 9505, 9488, 9479
17197, 9472, 9487, 9345
17198, 9490, 9486, 9485
17199, 9474, 9485, 9487
17200, 9505, 9484, 9502
17201, 9474, 9488, 9485
17202, 9492, 9499, 9491
17203, 9492, 9482, 9493
17204, 9486, 9490, 1308
17205, 9505, 9485, 9488
17206, 9503, 9489, 9508
17207, 9493, 9494, 9483
17208, 9499, 9493, 9483
17209, 9498, 9482, 9508
17210, 9746, 9748, 9752
17211, 9484, 9507, 9506
17212, 9494, 9495, 9497
17213, 9494, 9497, 9481
17214, 9498, 9495, 9482
17215, 9500, 9749, 9758
17216, 9505, 9502, 9490
17217, 9498, 9473, 9751
17218, 9481, 9497, 9747
17219, 9498, 9748, 9495
17220, 9493, 9499, 9492
17221, 9754, 9746, 9752
17222, 9496, 9757, 9754
17223, 9507, 9484, 9475
17224, 9506, 9503, 9492
17225, 9491, 1308, 9504
17226, 9490, 9504, 1308
17227, 9505, 9490, 9485
17228, 9484, 9505, 9479
17229, 9492, 9502, 9506
17230, 9484, 9506, 9502
17231, 9489, 9503, 9507
17232, 9507, 9503, 9506
17233, 9498, 9508, 9473
17234, 9503, 9508, 9482
17235, 9364, 9510, 9513
17236, 9380, 9378, 9511
17237, 9522, 9509, 9517
17238, 9514, 9511, 9381
17239, 9514, 9515, 9511
17240, 9509, 9513, 9510
17241, 9509, 9522, 9513
17242, 9512, 9364, 9513
17243, 9356, 9384, 9514
17244, 9514, 9384, 9515
17245, 9379, 9517, 9516
17246, 9515, 9516, 9517
17247, 9524, 9518, 9520
17248, 9515, 9384, 9516
17249, 9379, 9519, 9520
17250, 9524, 9532, 9518
17251, 9517, 9518, 9522
17252, 9524, 9520, 9519
17253, 9533, 9525, 9526
17254, 9518, 9517, 9520
17255, 9512, 9513, 9522
17256, 9532, 9521, 9518
17257, 9518, 9521, 9522
17258, 9522, 9521, 9512
17259, 9533, 9535, 9534
17260, 9529, 9533, 9526
17261, 9525, 9524, 9519
17262, 9524, 9525, 9533
17263, 9519, 9353, 9525
17264, 9525, 9353, 9526
17265, 9530, 9528, 9540
17266, 9526, 9537, 9529
17267, 9531, 9526, 9353
17268, 9523, 9535, 9354
17269, 9532, 9533, 9534
17270, 9353, 9530, 9531
17271, 9540, 9542, 9539
17272, 9537, 9526, 9531
17273, 9530, 9539, 9537
17274, 9383, 9534, 9523
17275, 9521, 9532, 9383
17276, 9383, 9532, 9534
17277, 9532, 9524, 9533
17278, 9535, 9533, 9529
17279, 9535, 9529, 9557
17280, 9523, 9534, 9535
17281, 9579, 9545, 9578
17282, 9575, 9563, 9536
17283, 9553, 9557, 9559
17284, 9537, 9539, 9559
17285, 9530, 9537, 9531
17286, 9540, 9539, 9530
17287, 9541, 9544, 9546
17288, 9542, 9540, 9528
17289, 9547, 9549, 9562
17290, 9529, 9559, 9557
17291, 9544, 9528, 9543
17292, 9542, 9541, 9558
17293, 9546, 9544, 9543
17294, 9528, 9544, 9542
17295, 9541, 9542, 9544
17296, 9546, 9543, 9547
17297, 9575, 9562, 9563
17298, 9547, 9543, 9527
17299, 9541, 9546, 9545
17300, 9549, 9547, 9527
17301, 9545, 9546, 9547
17302, 9574, 9587, 9571
17303, 9555, 9564, 9552
17304, 9552, 9527, 9551
17305, 9549, 9548, 9562
17306, 9527, 9552, 9549
17307, 9568, 9565, 9536
17308, 9549, 9552, 9548
17309, 9567, 9556, 9550
17310, 9535, 9557, 9354
17311, 9568, 9566, 9587
17312, 9559, 9560, 9553
17313, 9536, 9561, 9575
17314, 9541, 9560, 9558
17315, 9585, 9570, 9572
17316, 9542, 9558, 9539
17317, 9555, 9551, 9556
17318, 9529, 9537, 9559
17319, 9579, 9560, 9541
17320, 9354, 9557, 9553
17321, 9559, 9558, 9560
17322, 9538, 9553, 9560
17323, 9538, 9578, 9561
17324, 9580, 9562, 9575
17325, 9562, 9545, 9547
17326, 9563, 9562, 9548
17327, 9564, 9548, 9552
17328, 9563, 9548, 9564
17329, 9566, 9564, 9555
17330, 9587, 9566, 9571
17331, 9567, 9566, 9555
17332, 9572, 9567, 9550
17333, 9555, 9556, 9567
17334, 9566, 9568, 9564
17335, 9576, 9554, 9574
17336, 9566, 9567, 9571
17337, 9563, 9564, 9568
17338, 9568, 9536, 9563
17339, 9570, 9576, 9574
17340, 9582, 9585, 9583
17341, 9577, 9582, 9581
17342, 9570, 9571, 9572
17343, 9569, 9585, 9572
17344, 9567, 9572, 9571
17345, 9550, 9569, 9572
17346, 9570, 9574, 9571
17347, 9587, 9554, 9565
17348, 9554, 9576, 9573
17349, 9561, 9578, 9580
17350, 9582, 9583, 961
17351, 9585, 9582, 9577
17352, 9586, 9573, 9584
17353, 9538, 9560, 9579
17354, 9580, 9545, 9562
17355, 9545, 9579, 9541
17356, 9538, 9579, 9578
17357, 9561, 9580, 9575
17358, 9545, 9580, 9578
17359, 9573, 9576, 9584
17360, 9584, 9570, 9577
17361, 9586, 9584, 9577
17362, 9570, 9584, 9576
17363, 9577, 9581, 9586
17364, 961, 9581, 9582
17365, 9585, 9569, 9583
17366, 9570, 9585, 9577
17367, 9581, 962, 9586
17368, 9573, 9586, 962
17369, 9554, 9587, 9574
17370, 9568, 9587, 9565
17371, 9403, 9589, 9592
17372, 9419, 9417, 9590
17373, 9601, 9588, 9596
17374, 9593, 9590, 9420
17375, 9593, 9594, 9590
17376, 9588, 9592, 9589
17377, 9588, 9601, 9592
17378, 9591, 9403, 9592
17379, 9395, 9423, 9593
17380, 9593, 9423, 9594
17381, 9418, 9596, 9595
17382, 9594, 9595, 9596
17383, 9603, 9597, 9599
17384, 9594, 9423, 9595
17385, 9418, 9598, 9599
17386, 9603, 9611, 9597
17387, 9596, 9597, 9601
17388, 9603, 9599, 9598
17389, 9612, 9604, 9605
17390, 9597, 9596, 9599
17391, 9591, 9592, 9601
17392, 9611, 9600, 9597
17393, 9597, 9600, 9601
17394, 9601, 9600, 9591
17395, 9612, 9614, 9613
17396, 9608, 9612, 9605
17397, 9604, 9603, 9598
17398, 9603, 9604, 9612
17399, 9598, 9392, 9604
17400, 9604, 9392, 9605
17401, 9609, 9607, 9619
17402, 9605, 9616, 9608
17403, 9610, 9605, 9392
17404, 9602, 9614, 9393
17405, 9611, 9612, 9613
17406, 9392, 9609, 9610
17407, 9619, 9621, 9618
17408, 9616, 9605, 9610
17409, 9609, 9618, 9616
17410, 9422, 9613, 9602
17411, 9600, 9611, 9422
17412, 9422, 9611, 9613
17413, 9611, 9603, 9612
17414, 9614, 9612, 9608
17415, 9614, 9608, 9636
17416, 9602, 9613, 9614
17417, 9658, 9624, 9657
17418, 9654, 9642, 9615
17419, 9632, 9636, 9638
17420, 9616, 9618, 9638
17421, 9609, 9616, 9610
17422, 9619, 9618, 9609
17423, 9620, 9623, 9625
17424, 9621, 9619, 9607
17425, 9626, 9628, 9641
17426, 9608, 9638, 9636
17427, 9623, 9607, 9622
17428, 9621, 9620, 9637
17429, 9625, 9623, 9622
17430, 9607, 9623, 9621
17431, 9620, 9621, 9623
17432, 9625, 9622, 9626
17433, 9654, 9641, 9642
17434, 9626, 9622, 9606
17435, 9620, 9625, 9624
17436, 9628, 9626, 9606
17437, 9624, 9625, 9626
17438, 9653, 9666, 9650
17439, 9634, 9643, 9631
17440, 9631, 9606, 9630
17441, 9628, 9627, 9641
17442, 9606, 9631, 9628
17443, 9647, 9644, 9615
17444, 9628, 9631, 9627
17445, 9646, 9635, 9629
17446, 9614, 9636, 9393
17447, 9647, 9645, 9666
17448, 9638, 9639, 9632
17449, 9615, 9640, 9654
17450, 9620, 9639, 9637
17451, 9664, 9649, 9651
17452, 9621, 9637, 9618
17453, 9634, 9630, 9635
17454, 9608, 9616, 9638
17455, 9658, 9639, 9620
17456, 9393, 9636, 9632
17457, 9638, 9637, 9639
17458, 9617, 9632, 9639
17459, 9617, 9657, 9640
17460, 9659, 9641, 9654
17461, 9641, 9624, 9626
17462, 9642, 9641, 9627
17463, 9643, 9627, 9631
17464, 9642, 9627, 9643
17465, 9645, 9643, 9634
17466, 9666, 9645, 9650
17467, 9646, 9645, 9634
17468, 9651, 9646, 9629
17469, 9634, 9635, 9646
17470, 9645, 9647, 9643
17471, 9655, 9633, 9653
17472, 9645, 9646, 9650
17473, 9642, 9643, 9647
17474, 9647, 9615, 9642
17475, 9649, 9655, 9653
17476, 9661, 9664, 9662
17477, 9656, 9661, 9660
17478, 9649, 9650, 9651
17479, 9648, 9664, 9651
17480, 9646, 9651, 9650
17481, 9629, 9648, 9651
17482, 9649, 9653, 9650
17483, 9666, 9633, 9644
17484, 9633, 9655, 9652
17485, 9640, 9657, 9659
17486, 9661, 9662, 798
17487, 9664, 9661, 9656
17488, 9665, 9652, 9663
17489, 9617, 9639, 9658
17490, 9659, 9624, 9641
17491, 9624, 9658, 9620
17492, 9617, 9658, 9657
17493, 9640, 9659, 9654
17494, 9624, 9659, 9657
17495, 9652, 9655, 9663
17496, 9663, 9649, 9656
17497, 9665, 9663, 9656
17498, 9649, 9663, 9655
17499, 9656, 9660, 9665
17500, 798, 9660, 9661
17501, 9664, 9648, 9662
17502, 9649, 9664, 9656
17503, 9660, 799, 9665
17504, 9652, 9665, 799
17505, 9633, 9666, 9653
17506, 9647, 9666, 9644
17507, 9442, 9668, 9671
17508, 9458, 9456, 9669
17509, 9680, 9667, 9675
17510, 9672, 9669, 9459
17511, 9672, 9673, 9669
17512, 9667, 9671, 9668
17513, 9667, 9680, 9671
17514, 9670, 9442, 9671
17515, 9434, 9462, 9672
17516, 9672, 9462, 9673
17517, 9457, 9675, 9674
17518, 9673, 9674, 9675
17519, 9682, 9676, 9678
17520, 9673, 9462, 9674
17521, 9457, 9677, 9678
17522, 9682, 9690, 9676
17523, 9675, 9676, 9680
17524, 9682, 9678, 9677
17525, 9691, 9683, 9684
17526, 9676, 9675, 9678
17527, 9670, 9671, 9680
17528, 9690, 9679, 9676
17529, 9676, 9679, 9680
17530, 9680, 9679, 9670
17531, 9691, 9693, 9692
17532, 9687, 9691, 9684
17533, 9683, 9682, 9677
17534, 9682, 9683, 9691
17535, 9677, 9431, 9683
17536, 9683, 9431, 9684
17537, 9688, 9686, 9698
17538, 9684, 9695, 9687
17539, 9689, 9684, 9431
17540, 9681, 9693, 9432
17541, 9690, 9691, 9692
17542, 9431, 9688, 9689
17543, 9698, 9700, 9697
17544, 9695, 9684, 9689
17545, 9688, 9697, 9695
17546, 9461, 9692, 9681
17547, 9679, 9690, 9461
17548, 9461, 9690, 9692
17549, 9690, 9682, 9691
17550, 9693, 9691, 9687
17551, 9693, 9687, 9715
17552, 9681, 9692, 9693
17553, 9737, 9703, 9736
17554, 9733, 9721, 9694
17555, 9711, 9715, 9717
17556, 9695, 9697, 9717
17557, 9688, 9695, 9689
17558, 9698, 9697, 9688
17559, 9699, 9702, 9704
17560, 9700, 9698, 9686
17561, 9705, 9707, 9720
17562, 9687, 9717, 9715
17563, 9702, 9686, 9701
17564, 9700, 9699, 9716
17565, 9704, 9702, 9701
17566, 9686, 9702, 9700
17567, 9699, 9700, 9702
17568, 9704, 9701, 9705
17569, 9733, 9720, 9721
17570, 9705, 9701, 9685
17571, 9699, 9704, 9703
17572, 9707, 9705, 9685
17573, 9703, 9704, 9705
17574, 9732, 9745, 9729
17575, 9713, 9722, 9710
17576, 9710, 9685, 9709
17577, 9707, 9706, 9720
17578, 9685, 9710, 9707
17579, 9726, 9723, 9694
17580, 9707, 9710, 9706
17581, 9725, 9714, 9708
17582, 9693, 9715, 9432
17583, 9726, 9724, 9745
17584, 9717, 9718, 9711
17585, 9694, 9719, 9733
17586, 9699, 9718, 9716
17587, 9743, 9728, 9730
17588, 9700, 9716, 9697
17589, 9713, 9709, 9714
17590, 9687, 9695, 9717
17591, 9737, 9718, 9699
17592, 9432, 9715, 9711
17593, 9717, 9716, 9718
17594, 9696, 9711, 9718
17595, 9696, 9736, 9719
17596, 9738, 9720, 9733
17597, 9720, 9703, 9705
17598, 9721, 9720, 9706
17599, 9722, 9706, 9710
17600, 9721, 9706, 9722
17601, 9724, 9722, 9713
17602, 9745, 9724, 9729
17603, 9725, 9724, 9713
17604, 9730, 9725, 9708
17605, 9713, 9714, 9725
17606, 9724, 9726, 9722
17607, 9734, 9712, 9732
17608, 9724, 9725, 9729
17609, 9721, 9722, 9726
17610, 9726, 9694, 9721
17611, 9728, 9734, 9732
17612, 9740, 9743, 9741
17613, 9743, 9730, 9727
17614, 9728, 9729, 9730
17615, 1124, 9740, 9741
17616, 9725, 9730, 9729
17617, 9708, 9727, 9730
17618, 9728, 9732, 9729
17619, 9745, 9712, 9723
17620, 9712, 9734, 9731
17621, 9719, 9736, 9738
17622, 9740, 1124, 9739
17623, 9743, 9740, 9735
17624, 9744, 9731, 9742
17625, 9696, 9718, 9737
17626, 9738, 9703, 9720
17627, 9703, 9737, 9699
17628, 9696, 9737, 9736
17629, 9719, 9738, 9733
17630, 9703, 9738, 9736
17631, 9731, 9734, 9742
17632, 9742, 9728, 9735
17633, 9744, 9742, 9735
17634, 9728, 9742, 9734
17635, 9735, 9739, 9744
17636, 9739, 9735, 9740
17637, 9743, 9727, 9741
17638, 9728, 9743, 9735
17639, 9739, 1125, 9744
17640, 9731, 9744, 1125
17641, 9712, 9745, 9732
17642, 9726, 9745, 9723
17643, 9481, 9747, 9750
17644, 9497, 9495, 9748
17645, 9759, 9746, 9754
17646, 9751, 9748, 9498
17647, 9751, 9752, 9748
17648, 9746, 9750, 9747
17649, 9746, 9759, 9750
17650, 9749, 9481, 9750
17651, 9473, 9501, 9751
17652, 9751, 9501, 9752
17653, 9496, 9754, 9753
17654, 9752, 9753, 9754
17655, 9761, 9755, 9757
17656, 9752, 9501, 9753
17657, 9496, 9756, 9757
17658, 9761, 9769, 9755
17659, 9754, 9755, 9759
17660, 9761, 9757, 9756
17661, 9770, 9762, 9763
17662, 9755, 9754, 9757
17663, 9749, 9750, 9759
17664, 9769, 9758, 9755
17665, 9755, 9758, 9759
17666, 9759, 9758, 9749
17667, 9770, 9772, 9771
17668, 9766, 9770, 9763
17669, 9762, 9761, 9756
17670, 9761, 9762, 9770
17671, 9756, 9470, 9762
17672, 9762, 9470, 9763
17673, 9767, 9765, 9777
17674, 9763, 9774, 9766
17675, 9768, 9763, 9470
17676, 9760, 9772, 9471
17677, 9769, 9770, 9771
17678, 9470, 9767, 9768
17679, 9777, 9779, 9776
17680, 9774, 9763, 9768
17681, 9767, 9776, 9774
17682, 9500, 9771, 9760
17683, 9758, 9769, 9500
17684, 9500, 9769, 9771
17685, 9769, 9761, 9770
17686, 9772, 9770, 9766
17687, 9772, 9766, 9794
17688, 9760, 9771, 9772
17689, 9816, 9782, 9815
17690, 9812, 9800, 9773
17691, 9790, 9794, 9796
17692, 9774, 9776, 9796
17693, 9767, 9774, 9768
17694, 9777, 9776, 9767
17695, 9778, 9781, 9783
17696, 9779, 9777, 9765
17697, 9784, 9786, 9799
17698, 9766, 9796, 9794
17699, 9781, 9765, 9780
17700, 9779, 9778, 9795
17701, 9783, 9781, 9780
17702, 9765, 9781, 9779
17703, 9778, 9779, 9781
17704, 9783, 9780, 9784
17705, 9812, 9799, 9800
17706, 9784, 9780, 9764
17707, 9778, 9783, 9782
17708, 9786, 9784, 9764
17709, 9782, 9783, 9784
17710, 9811, 9824, 9808
17711, 9792, 9801, 9789
17712, 9789, 9764, 9788
17713, 9786, 9785, 9799
17714, 9764, 9789, 9786
17715, 9805, 9802, 9773
17716, 9786, 9789, 9785
17717, 9804, 9793, 9787
17718, 9772, 9794, 9471
17719, 9805, 9803, 9824
17720, 9796, 9797, 9790
17721, 9773, 9798, 9812
17722, 9778, 9797, 9795
17723, 9822, 9807, 9809
17724, 9779, 9795, 9776
17725, 9792, 9788, 9793
17726, 9766, 9774, 9796
17727, 9816, 9797, 9778
17728, 9471, 9794, 9790
17729, 9796, 9795, 9797
17730, 9775, 9790, 9797
17731, 9775, 9815, 9798
17732, 9817, 9799, 9812
17733, 9799, 9782, 9784
17734, 9800, 9799, 9785
17735, 9801, 9785, 9789
17736, 9800, 9785, 9801
17737, 9803, 9801, 9792
17738, 9824, 9803, 9808
17739, 9804, 9803, 9792
17740, 9809, 9804, 9787
17741, 9792, 9793, 9804
17742, 9803, 9805, 9801
17743, 9813, 9791, 9811
17744, 9803, 9804, 9808
17745, 9800, 9801, 9805
17746, 9805, 9773, 9800
17747, 9807, 9813, 9811
17748, 9819, 9822, 9820
17749, 9822, 9809, 9806
17750, 9807, 9808, 9809
17751, 1287, 9819, 9820
17752, 9804, 9809, 9808
17753, 9787, 9806, 9809
17754, 9807, 9811, 9808
17755, 9824, 9791, 9802
17756, 9791, 9813, 9810
17757, 9798, 9815, 9817
17758, 9819, 1287, 9818
17759, 9822, 9819, 9814
17760, 9823, 9810, 9821
17761, 9775, 9797, 9816
17762, 9817, 9782, 9799
17763, 9782, 9816, 9778
17764, 9775, 9816, 9815
17765, 9798, 9817, 9812
17766, 9782, 9817, 9815
17767, 9810, 9813, 9821
17768, 9821, 9807, 9814
17769, 9823, 9821, 9814
17770, 9807, 9821, 9813
17771, 9814, 9818, 9823
17772, 9818, 9814, 9819
17773, 9822, 9806, 9820
17774, 9807, 9822, 9814
17775, 9818, 1288, 9823
17776, 9810, 9823, 1288
17777, 9791, 9824, 9811
17778, 9805, 9824, 9802
*NSET, NSET=LEFT
961, 962, 9581
*NSET, NSET=RIGHT
1287, 1288, 9818
*NSET, NSET=TOP
798, 799, 9660
*NSET, NSET=BOTTOM
1124, 1125, 9739
*ELSET, ELSET=FULLMESH
1, 2, 3, 4, 5, 6, 7, 8, 9, 10, 11, 12, 13, 14, 15, 16
17, 18, 19, 20, 21, 22, 23, 24, 25, 26, 27, 28, 29, 30, 31, 32
33, 34, 35, 36, 37, 38, 39, 40, 41, 42, 43, 44, 45, 46, 47, 48
49, 50, 51, 52, 53, 54, 55, 56, 57, 58, 59, 60, 61, 62, 63, 64
65, 66, 67, 68, 69, 70, 71, 72, 73, 74, 75, 76, 77, 78, 79, 80
81, 82, 83, 84, 85, 86, 87, 88, 89, 90, 91, 92, 93, 94, 95, 96
97, 98, 99, 100, 101, 102, 103, 104, 105, 106, 107, 108, 109, 110, 111, 112
113, 114, 115, 116, 117, 118, 119, 120, 121, 122, 123, 124, 125, 126, 127, 128
129, 130, 131, 132, 133, 134, 135, 136, 137, 138, 139, 140, 141, 142, 143, 144
145, 146, 147, 148, 149, 150, 151, 152, 153, 154, 155, 156, 157, 158, 159, 160
161, 162, 163, 164, 165, 166, 167, 168, 169, 170, 171, 172, 173, 174, 175, 176
177, 178, 179, 180, 181, 182, 183, 184, 185, 186, 187, 188, 189, 190, 191, 192
193, 194, 195, 196, 197, 198, 199, 200, 201, 202, 203, 204, 205, 206, 207, 208
209, 210, 211, 212, 213, 214, 215, 216, 217, 218, 219, 220, 221, 222, 223, 224
225, 226, 227, 228, 229, 230, 231, 232, 233, 234, 235, 236, 237, 238, 239, 240
241, 242, 243, 244, 245, 246, 247, 248, 249, 250, 251, 252, 253, 254, 255, 256
257, 258, 259, 260, 261, 262, 263, 264, 265, 266, 267, 268, 269, 270, 271, 272
273, 274, 275, 276, 277, 278, 279, 280, 281, 282, 283, 284, 285, 286, 287, 288
289, 290, 291, 292, 293, 294, 295, 296, 297, 298, 299, 300, 301, 302, 303, 304
305, 306, 307, 308, 309, 310, 311, 312, 313, 314, 315, 316, 317, 318, 319, 320
321, 322, 323, 324, 325, 326, 327, 328, 329, 330, 331, 332, 333, 334, 335, 336
337, 338, 339, 340, 341, 342, 343, 344, 345, 346, 347, 348, 349, 350, 351, 352
353, 354, 355, 356, 357, 358, 359, 360, 361, 362, 363, 364, 365, 366, 367, 368
369, 370, 371, 372, 373, 374, 375, 376, 377, 378, 379, 380, 381, 382, 383, 384
385, 386, 387, 388, 389, 390, 391, 392, 393, 394, 395, 396, 397, 398, 399, 400
401, 402, 403, 404, 405, 406, 407, 408, 409, 410, 411, 412, 413, 414, 415, 416
417, 418, 419, 420, 421, 422, 423, 424, 425, 426, 427, 428, 429, 430, 431, 432
433, 434, 435, 436, 437, 438, 439, 440, 441, 442, 443, 444, 445, 446, 447, 448
449, 450, 451, 452, 453, 454, 455, 456, 457, 458, 459, 460, 461, 462, 463, 464
465, 466, 467, 468, 469, 470, 471, 472, 473, 474, 475, 476, 477, 478, 479, 480
481, 482, 483, 484, 485, 486, 487, 488, 489, 490, 491, 492, 493, 494, 495, 496
497, 498, 499, 500, 501, 502, 503, 504, 505, 506, 507, 508, 509, 510, 511, 512
513, 514, 515, 516, 517, 518, 519, 520, 521, 522, 523, 524, 525, 526, 527, 528
529, 530, 531, 532, 533, 534, 535, 536, 537, 538, 539, 540, 541, 542, 543, 544
545, 546, 547, 548, 549, 550, 551, 552, 553, 554, 555, 556, 557, 558, 559, 560
561, 562, 563, 564, 565, 566, 567, 568, 569, 570, 571, 572, 573, 574, 575, 576
577, 578, 579, 580, 581, 582, 583, 584, 585, 586, 587, 588, 589, 590, 591, 592
593, 594, 595, 596, 597, 598, 599, 600, 601, 602, 603, 604, 605, 606, 607, 608
609, 610, 611, 612, 613, 614, 615, 616, 617, 618, 619, 620, 621, 622, 623, 624
625, 626, 627, 628, 629, 630, 631, 632, 633, 634, 635, 636, 637, 638, 639, 640
641, 642, 643, 644, 645, 646, 647, 648, 649, 650, 651, 652, 653, 654, 655, 656
657, 658, 659, 660, 661, 662, 663, 664, 665, 666, 667, 668, 669, 670, 671, 672
673, 674, 675, 676, 677, 678, 679, 680, 681, 682, 683, 684, 685, 686, 687, 688
689, 690, 691, 692, 693, 694, 695, 696, 697, 698, 699, 700, 701, 702, 703, 704
705, 706, 707, 708, 709, 710, 711, 712, 713, 714, 715, 716, 717, 718, 719, 720
721, 722, 723, 724, 725, 726, 727, 728, 729, 730, 731, 732, 733, 734, 735, 736
737, 738, 739, 740, 741, 742, 743, 744, 745, 746, 747, 748, 749, 750, 751, 752
753, 754, 755, 756, 757, 758, 759, 760, 761, 762, 763, 764, 765, 766, 767, 768
769, 770, 771, 772, 773, 774, 775, 776, 777, 778, 779, 780, 781, 782, 783, 784
785, 786, 787, 788, 789, 790, 791, 792, 793, 794, 795, 796, 797, 798, 799, 800
801, 802, 803, 804, 805, 806, 807, 808, 809, 810, 811, 812, 813, 814, 815, 816
817, 818, 819, 820, 821, 822, 823, 824, 825, 826, 827, 828, 829, 830, 831, 832
833, 834, 835, 836, 837, 838, 839, 840, 841, 842, 843, 844, 845, 846, 847, 848
849, 850, 851, 852, 853, 854, 855, 856, 857, 858, 859, 860, 861, 862, 863, 864
865, 866, 867, 868, 869, 870, 871, 872, 873, 874, 875, 876, 877, 878, 879, 880
881, 882, 883, 884, 885, 886, 887, 888, 889, 890, 891, 892, 893, 894, 895, 896
897, 898, 899, 900, 901, 902, 903, 904, 905, 906, 907, 908, 909, 910, 911, 912
913, 914, 915, 916, 917, 918, 919, 920, 921, 922, 923, 924, 925, 926, 927, 928
929, 930, 931, 932, 933, 934, 935, 936, 937, 938, 939, 940, 941, 942, 943, 944
945, 946, 947, 948, 949, 950, 951, 952, 953, 954, 955, 956, 957, 958, 959, 960
961, 962, 963, 964, 965, 966, 967, 968, 969, 970, 971, 972, 973, 974, 975, 976
977, 978, 979, 980, 981, 982, 983, 984, 985, 986, 987, 988, 989, 990, 991, 992
993, 994, 995, 996, 997, 998, 999, 1000, 1001, 1002, 1003, 1004, 1005, 1006, 1007, 1008
1009, 1010, 1011, 1012, 1013, 1014, 1015, 1016, 1017, 1018, 1019, 1020, 1021, 1022, 1023, 1024
1025, 1026, 1027, 1028, 1029, 1030, 1031, 1032, 1033, 1034, 1035, 1036, 1037, 1038, 1039, 1040
1041, 1042, 1043, 1044, 1045, 1046, 1047, 1048, 1049, 1050, 1051, 1052, 1053, 1054, 1055, 1056
1057, 1058, 1059, 1060, 1061, 1062, 1063, 1064, 1065, 1066, 1067, 1068, 1069, 1070, 1071, 1072
1073, 1074, 1075, 1076, 1077, 1078, 1079, 1080, 1081, 1082, 1083, 1084, 1085, 1086, 1087, 1088
1089, 1090, 1091, 1092, 1093, 1094, 1095, 1096, 1097, 1098, 1099, 1100, 1101, 1102, 1103, 1104
1105, 1106, 1107, 1108, 1109, 1110, 1111, 1112, 1113, 1114, 1115, 1116, 1117, 1118, 1119, 1120
1121, 1122, 1123, 1124, 1125, 1126, 1127, 1128, 1129, 1130, 1131, 1132, 1133, 1134, 1135, 1136
1137, 1138, 1139, 1140, 1141, 1142, 1143, 1144, 1145, 1146, 1147, 1148, 1149, 1150, 1151, 1152
1153, 1154, 1155, 1156, 1157, 1158, 1159, 1160, 1161, 1162, 1163, 1164, 1165, 1166, 1167, 1168
1169, 1170, 1171, 1172, 1173, 1174, 1175, 1176, 1177, 1178, 1179, 1180, 1181, 1182, 1183, 1184
1185, 1186, 1187, 1188, 1189, 1190, 1191, 1192, 1193, 1194, 1195, 1196, 1197, 1198, 1199, 1200
1201, 1202, 1203, 1204, 1205, 1206, 1207, 1208, 1209, 1210, 1211, 1212, 1213, 1214, 1215, 1216
1217, 1218, 1219, 1220, 1221, 1222, 1223, 1224, 1225, 1226, 1227, 1228, 1229, 1230, 1231, 1232
1233, 1234, 1235, 1236, 1237, 1238, 1239, 1240, 1241, 1242, 1243, 1244, 1245, 1246, 1247, 1248
1249, 1250, 1251, 1252, 1253, 1254, 1255, 1256, 1257, 1258, 1259, 1260, 1261, 1262, 1263, 1264
1265, 1266, 1267, 1268, 1269, 1270, 1271, 1272, 1273, 1274, 1275, 1276, 1277, 1278, 1279, 1280
1281, 1282, 1283, 1284, 1285, 1286, 1287, 1288, 1289, 1290, 1291, 1292, 1293, 1294, 1295, 1296
1297, 1298, 1299, 1300, 1301, 1302, 1303, 1304, 1305, 1306, 1307, 1308, 1309, 1310, 1311, 1312
1313, 1314, 1315, 1316, 1317, 1318, 1319, 1320, 1321, 1322, 1323, 1324, 1325, 1326, 1327, 1328
1329, 1330, 1331, 1332, 1333, 1334, 1335, 1336, 1337, 1338, 1339, 1340, 1341, 1342, 1343, 1344
1345, 1346, 1347, 1348, 1349, 1350, 1351, 1352, 1353, 1354, 1355, 1356, 1357, 1358, 1359, 1360
1361, 1362, 1363, 1364, 1365, 1366, 1367, 1368, 1369, 1370, 1371, 1372, 1373, 1374, 1375, 1376
1377, 1378, 1379, 1380, 1381, 1382, 1383, 1384, 1385, 1386, 1387, 1388, 1389, 1390, 1391, 1392
1393, 1394, 1395, 1396, 1397, 1398, 1399, 1400, 1401, 1402, 1403, 1404, 1405, 1406, 1407, 1408
1409, 1410, 1411, 1412, 1413, 1414, 1415, 1416, 1417, 1418, 1419, 1420, 1421, 1422, 1423, 1424
1425, 1426, 1427, 1428, 1429, 1430, 1431, 1432, 1433, 1434, 1435, 1436, 1437, 1438, 1439, 1440
1441, 1442, 1443, 1444, 1445, 1446, 1447, 1448, 1449, 1450, 1451, 1452, 1453, 1454, 1455, 1456
1457, 1458, 1459, 1460, 1461, 1462, 1463, 1464, 1465, 1466, 1467, 1468, 1469, 1470, 1471, 1472
1473, 1474, 1475, 1476, 1477, 1478, 1479, 1480, 1481, 1482, 1483, 1484, 1485, 1486, 1487, 1488
1489, 1490, 1491, 1492, 1493, 1494, 1495, 1496, 1497, 1498, 1499, 1500, 1501, 1502, 1503, 1504
1505, 1506, 1507, 1508, 1509, 1510, 1511, 1512, 1513, 1514, 1515, 1516, 1517, 1518, 1519, 1520
1521, 1522, 1523, 1524, 1525, 1526, 1527, 1528, 1529, 1530, 1531, 1532, 1533, 1534, 1535, 1536
1537, 1538, 1539, 1540, 1541, 1542, 1543, 1544, 1545, 1546, 1547, 1548, 1549, 1550, 1551, 1552
1553, 1554, 1555, 1556, 1557, 1558, 1559, 1560, 1561, 1562, 1563, 1564, 1565, 1566, 1567, 1568
1569, 1570, 1571, 1572, 1573, 1574, 1575, 1576, 1577, 1578, 1579, 1580, 1581, 1582, 1583, 1584
1585, 1586, 1587, 1588, 1589, 1590, 1591, 1592, 1593, 1594, 1595, 1596, 1597, 1598, 1599, 1600
1601, 1602, 1603, 1604, 1605, 1606, 1607, 1608, 1609, 1610, 1611, 1612, 1613, 1614, 1615, 1616
1617, 1618, 1619, 1620, 1621, 1622, 1623, 1624, 1625, 1626, 1627, 1628, 1629, 1630, 1631, 1632
1633, 1634, 1635, 1636, 1637, 1638, 1639, 1640, 1641, 1642, 1643, 1644, 1645, 1646, 1647, 1648
1649, 1650, 1651, 1652, 1653, 1654, 1655, 1656, 1657, 1658, 1659, 1660, 1661, 1662, 1663, 1664
1665, 1666, 1667, 1668, 1669, 1670, 1671, 1672, 1673, 1674, 1675, 1676, 1677, 1678, 1679, 1680
1681, 1682, 1683, 1684, 1685, 1686, 1687, 1688, 1689, 1690, 1691, 1692, 1693, 1694, 1695, 1696
1697, 1698, 1699, 1700, 1701, 1702, 1703, 1704, 1705, 1706, 1707, 1708, 1709, 1710, 1711, 1712
1713, 1714, 1715, 1716, 1717, 1718, 1719, 1720, 1721, 1722, 1723, 1724, 1725, 1726, 1727, 1728
1729, 1730, 1731, 1732, 1733, 1734, 1735, 1736, 1737, 1738, 1739, 1740, 1741, 1742, 1743, 1744
1745, 1746, 1747, 1748, 1749, 1750, 1751, 1752, 1753, 1754, 1755, 1756, 1757, 1758, 1759, 1760
1761, 1762, 1763, 1764, 1765, 1766, 1767, 1768, 1769, 1770, 1771, 1772, 1773, 1774, 1775, 1776
1777, 1778, 1779, 1780, 1781, 1782, 1783, 1784, 1785, 1786, 1787, 1788, 1789, 1790, 1791, 1792
1793, 1794, 1795, 1796, 1797, 1798, 1799, 1800, 1801, 1802, 1803, 1804, 1805, 1806, 1807, 1808
1809, 1810, 1811, 1812, 1813, 1814, 1815, 1816, 1817, 1818, 1819, 1820, 1821, 1822, 1823, 1824
1825, 1826, 1827, 1828, 1829, 1830, 1831, 1832, 1833, 1834, 1835, 1836, 1837, 1838, 1839, 1840
1841, 1842, 1843, 1844, 1845, 1846, 1847, 1848, 1849, 1850, 1851, 1852, 1853, 1854, 1855, 1856
1857, 1858, 1859, 1860, 1861, 1862, 1863, 1864, 1865, 1866, 1867, 1868, 1869, 1870, 1871, 1872
1873, 1874, 1875, 1876, 1877, 1878, 1879, 1880, 1881, 1882, 1883, 1884, 1885, 1886, 1887, 1888
1889, 1890, 1891, 1892, 1893, 1894, 1895, 1896, 1897, 1898, 1899, 1900, 1901, 1902, 1903, 1904
1905, 1906, 1907, 1908, 1909, 1910, 1911, 1912, 1913, 1914, 1915, 1916, 1917, 1918, 1919, 1920
1921, 1922, 1923, 1924, 1925, 1926, 1927, 1928, 1929, 1930, 1931, 1932, 1933, 1934, 1935, 1936
1937, 1938, 1939, 1940, 1941, 1942, 1943, 1944, 1945, 1946, 1947, 1948, 1949, 1950, 1951, 1952
1953, 1954, 1955, 1956, 1957, 1958, 1959, 1960, 1961, 1962, 1963, 1964, 1965, 1966, 1967, 1968
1969, 1970, 1971, 1972, 1973, 1974, 1975, 1976, 1977, 1978, 1979, 1980, 1981, 1982, 1983, 1984
1985, 1986, 1987, 1988, 1989, 1990, 1991, 1992, 1993, 1994, 1995, 1996, 1997, 1998, 1999, 2000
2001, 2002, 2003, 2004, 2005, 2006, 2007, 2008, 2009, 2010, 2011, 2012, 2013, 2014, 2015, 2016
2017, 2018, 2019, 2020, 2021, 2022, 2023, 2024, 2025, 2026, 2027, 2028, 2029, 2030, 2031, 2032
2033, 2034, 2035, 2036, 2037, 2038, 2039, 2040, 2041, 2042, 2043, 2044, 2045, 2046, 2047, 2048
2049, 2050, 2051, 2052, 2053, 2054, 2055, 2056, 2057, 2058, 2059, 2060, 2061, 2062, 2063, 2064
2065, 2066, 2067, 2068, 2069, 2070, 2071, 2072, 2073, 2074, 2075, 2076, 2077, 2078, 2079, 2080
2081, 2082, 2083, 2084, 2085, 2086, 2087, 2088, 2089, 2090, 2091, 2092, 2093, 2094, 2095, 2096
2097, 2098, 2099, 2100, 2101, 2102, 2103, 2104, 2105, 2106, 2107, 2108, 2109, 2110, 2111, 2112
2113, 2114, 2115, 2116, 2117, 2118, 2119, 2120, 2121, 2122, 2123, 2124, 2125, 2126, 2127, 2128
2129, 2130, 2131, 2132, 2133, 2134, 2135, 2136, 2137, 2138, 2139, 2140, 2141, 2142, 2143, 2144
2145, 2146, 2147, 2148, 2149, 2150, 2151, 2152, 2153, 2154, 2155, 2156, 2157, 2158, 2159, 2160
2161, 2162, 2163, 2164, 2165, 2166, 2167, 2168, 2169, 2170, 2171, 2172, 2173, 2174, 2175, 2176
2177, 2178, 2179, 2180, 2181, 2182, 2183, 2184, 2185, 2186, 2187, 2188, 2189, 2190, 2191, 2192
2193, 2194, 2195, 2196, 2197, 2198, 2199, 2200, 2201, 2202, 2203, 2204, 2205, 2206, 2207, 2208
2209, 2210, 2211, 2212, 2213, 2214, 2215, 2216, 2217, 2218, 2219, 2220, 2221, 2222, 2223, 2224
2225, 2226, 2227, 2228, 2229, 2230, 2231, 2232, 2233, 2234, 2235, 2236, 2237, 2238, 2239, 2240
2241, 2242, 2243, 2244, 2245, 2246, 2247, 2248, 2249, 2250, 2251, 2252, 2253, 2254, 2255, 2256
2257, 2258, 2259, 2260, 2261, 2262, 2263, 2264, 2265, 2266, 2267, 2268, 2269, 2270, 2271, 2272
2273, 2274, 2275, 2276, 2277, 2278, 2279, 2280, 2281, 2282, 2283, 2284, 2285, 2286, 2287, 2288
2289, 2290, 2291, 2292, 2293, 2294, 2295, 2296, 2297, 2298, 2299, 2300, 2301, 2302, 2303, 2304
2305, 2306, 2307, 2308, 2309, 2310, 2311, 2312, 2313, 2314, 2315, 2316, 2317, 2318, 2319, 2320
2321, 2322, 2323, 2324, 2325, 2326, 2327, 2328, 2329, 2330, 2331, 2332, 2333, 2334, 2335, 2336
2337, 2338, 2339, 2340, 2341, 2342, 2343, 2344, 2345, 2346, 2347, 2348, 2349, 2350, 2351, 2352
2353, 2354, 2355, 2356, 2357, 2358, 2359, 2360, 2361, 2362, 2363, 2364, 2365, 2366, 2367, 2368
2369, 2370, 2371, 2372, 2373, 2374, 2375, 2376, 2377, 2378, 2379, 2380, 2381, 2382, 2383, 2384
2385, 2386, 2387, 2388, 2389, 2390, 2391, 2392, 2393, 2394, 2395, 2396, 2397, 2398, 2399, 2400
2401, 2402, 2403, 2404, 2405, 2406, 2407, 2408, 2409, 2410, 2411, 2412, 2413, 2414, 2415, 2416
2417, 2418, 2419, 2420, 2421, 2422, 2423, 2424, 2425, 2426, 2427, 2428, 2429, 2430, 2431, 2432
2433, 2434, 2435, 2436, 2437, 2438, 2439, 2440, 2441, 2442, 2443, 2444, 2445, 2446, 2447, 2448
2449, 2450, 2451, 2452, 2453, 2454, 2455, 2456, 2457, 2458, 2459, 2460, 2461, 2462, 2463, 2464
2465, 2466, 2467, 2468, 2469, 2470, 2471, 2472, 2473, 2474, 2475, 2476, 2477, 2478, 2479, 2480
2481, 2482, 2483, 2484, 2485, 2486, 2487, 2488, 2489, 2490, 2491, 2492, 2493, 2494, 2495, 2496
2497, 2498, 2499, 2500, 2501, 2502, 2503, 2504, 2505, 2506, 2507, 2508, 2509, 2510, 2511, 2512
2513, 2514, 2515, 2516, 2517, 2518, 2519, 2520, 2521, 2522, 2523, 2524, 2525, 2526, 2527, 2528
2529, 2530, 2531, 2532, 2533, 2534, 2535, 2536, 2537, 2538, 2539, 2540, 2541, 2542, 2543, 2544
2545, 2546, 2547, 2548, 2549, 2550, 2551, 2552, 2553, 2554, 2555, 2556, 2557, 2558, 2559, 2560
2561, 2562, 2563, 2564, 2565, 2566, 2567, 2568, 2569, 2570, 2571, 2572, 2573, 2574, 2575, 2576
2577, 2578, 2579, 2580, 2581, 2582, 2583, 2584, 2585, 2586, 2587, 2588, 2589, 2590, 2591, 2592
2593, 2594, 2595, 2596, 2597, 2598, 2599, 2600, 2601, 2602, 2603, 2604, 2605, 2606, 2607, 2608
2609, 2610, 2611, 2612, 2613, 2614, 2615, 2616, 2617, 2618, 2619, 2620, 2621, 2622, 2623, 2624
2625, 2626, 2627, 2628, 2629, 2630, 2631, 2632, 2633, 2634, 2635, 2636, 2637, 2638, 2639, 2640
2641, 2642, 2643, 2644, 2645, 2646, 2647, 2648, 2649, 2650, 2651, 2652, 2653, 2654, 2655, 2656
2657, 2658, 2659, 2660, 2661, 2662, 2663, 2664, 2665, 2666, 2667, 2668, 2669, 2670, 2671, 2672
2673, 2674, 2675, 2676, 2677, 2678, 2679, 2680, 2681, 2682, 2683, 2684, 2685, 2686, 2687, 2688
2689, 2690, 2691, 2692, 2693, 2694, 2695, 2696, 2697, 2698, 2699, 2700, 2701, 2702, 2703, 2704
2705, 2706, 2707, 2708, 2709, 2710, 2711, 2712, 2713, 2714, 2715, 2716, 2717, 2718, 2719, 2720
2721, 2722, 2723, 2724, 2725, 2726, 2727, 2728, 2729, 2730, 2731, 2732, 2733, 2734, 2735, 2736
2737, 2738, 2739, 2740, 2741, 2742, 2743, 2744, 2745, 2746, 2747, 2748, 2749, 2750, 2751, 2752
2753, 2754, 2755, 2756, 2757, 2758, 2759, 2760, 2761, 2762, 2763, 2764, 2765, 2766, 2767, 2768
2769, 2770, 2771, 2772, 2773, 2774, 2775, 2776, 2777, 2778, 2779, 2780, 2781, 2782, 2783, 2784
2785, 2786, 2787, 2788, 2789, 2790, 2791, 2792, 2793, 2794, 2795, 2796, 2797, 2798, 2799, 2800
2801, 2802, 2803, 2804, 2805, 2806, 2807, 2808, 2809, 2810, 2811, 2812, 2813, 2814, 2815, 2816
2817, 2818, 2819, 2820, 2821, 2822, 2823, 2824, 2825, 2826, 2827, 2828, 2829, 2830, 2831, 2832
2833, 2834, 2835, 2836, 2837, 2838, 2839, 2840, 2841, 2842, 2843, 2844, 2845, 2846, 2847, 2848
2849, 2850, 2851, 2852, 2853, 2854, 2855, 2856, 2857, 2858, 2859, 2860, 2861, 2862, 2863, 2864
2865, 2866, 2867, 2868, 2869, 2870, 2871, 2872, 2873, 2874, 2875, 2876, 2877, 2878, 2879, 2880
2881, 2882, 2883, 2884, 2885, 2886, 2887, 2888, 2889, 2890, 2891, 2892, 2893, 2894, 2895, 2896
2897, 2898, 2899, 2900, 2901, 2902, 2903, 2904, 2905, 2906, 2907, 2908, 2909, 2910, 2911, 2912
2913, 2914, 2915, 2916, 2917, 2918, 2919, 2920, 2921, 2922, 2923, 2924, 2925, 2926, 2927, 2928
2929, 2930, 2931, 2932, 2933, 2934, 2935, 2936, 2937, 2938, 2939, 2940, 2941, 2942, 2943, 2944
2945, 2946, 2947, 2948, 2949, 2950, 2951, 2952, 2953, 2954, 2955, 2956, 2957, 2958, 2959, 2960
2961, 2962, 2963, 2964, 2965, 2966, 2967, 2968, 2969, 2970, 2971, 2972, 2973, 2974, 2975, 2976
2977, 2978, 2979, 2980, 2981, 2982, 2983, 2984, 2985, 2986, 2987, 2988, 2989, 2990, 2991, 2992
2993, 2994, 2995, 2996, 2997, 2998, 2999, 3000, 3001, 3002, 3003, 3004, 3005, 3006, 3007, 3008
3009, 3010, 3011, 3012, 3013, 3014, 3015, 3016, 3017, 3018, 3019, 3020, 3021, 3022, 3023, 3024
3025, 3026, 3027, 3028, 3029, 3030, 3031, 3032, 3033, 3034, 3035, 3036, 3037, 3038, 3039, 3040
3041, 3042, 3043, 3044, 3045, 3046, 3047, 3048, 3049, 3050, 3051, 3052, 3053, 3054, 3055, 3056
3057, 3058, 3059, 3060, 3061, 3062, 3063, 3064, 3065, 3066, 3067, 3068, 3069, 3070, 3071, 3072
3073, 3074, 3075, 3076, 3077, 3078, 3079, 3080, 3081, 3082, 3083, 3084, 3085, 3086, 3087, 3088
3089, 3090, 3091, 3092, 3093, 3094, 3095, 3096, 3097, 3098, 3099, 3100, 3101, 3102, 3103, 3104
3105, 3106, 3107, 3108, 3109, 3110, 3111, 3112, 3113, 3114, 3115, 3116, 3117, 3118, 3119, 3120
3121, 3122, 3123, 3124, 3125, 3126, 3127, 3128, 3129, 3130, 3131, 3132, 3133, 3134, 3135, 3136
3137, 3138, 3139, 3140, 3141, 3142, 3143, 3144, 3145, 3146, 3147, 3148, 3149, 3150, 3151, 3152
3153, 3154, 3155, 3156, 3157, 3158, 3159, 3160, 3161, 3162, 3163, 3164, 3165, 3166, 3167, 3168
3169, 3170, 3171, 3172, 3173, 3174, 3175, 3176, 3177, 3178, 3179, 3180, 3181, 3182, 3183, 3184
3185, 3186, 3187, 3188, 3189, 3190, 3191, 3192, 3193, 3194, 3195, 3196, 3197, 3198, 3199, 3200
3201, 3202, 3203, 3204, 3205, 3206, 3207, 3208, 3209, 3210, 3211, 3212, 3213, 3214, 3215, 3216
3217, 3218, 3219, 3220, 3221, 3222, 3223, 3224, 3225, 3226, 3227, 3228, 3229, 3230, 3231, 3232
3233, 3234, 3235, 3236, 3237, 3238, 3239, 3240, 3241, 3242, 3243, 3244, 3245, 3246, 3247, 3248
3249, 3250, 3251, 3252, 3253, 3254, 3255, 3256, 3257, 3258, 3259, 3260, 3261, 3262, 3263, 3264
3265, 3266, 3267, 3268, 3269, 3270, 3271, 3272, 3273, 3274, 3275, 3276, 3277, 3278, 3279, 3280
3281, 3282, 3283, 3284, 3285, 3286, 3287, 3288, 3289, 3290, 3291, 3292, 3293, 3294, 3295, 3296
3297, 3298, 3299, 3300, 3301, 3302, 3303, 3304, 3305, 3306, 3307, 3308, 3309, 3310, 3311, 3312
3313, 3314, 3315, 3316, 3317, 3318, 3319, 3320, 3321, 3322, 3323, 3324, 3325, 3326, 3327, 3328
3329, 3330, 3331, 3332, 3333, 3334, 3335, 3336, 3337, 3338, 3339, 3340, 3341, 3342, 3343, 3344
3345, 3346, 3347, 3348, 3349, 3350, 3351, 3352, 3353, 3354, 3355, 3356, 3357, 3358, 3359, 3360
3361, 3362, 3363, 3364, 3365, 3366, 3367, 3368, 3369, 3370, 3371, 3372, 3373, 3374, 3375, 3376
3377, 3378, 3379, 3380, 3381, 3382, 3383, 3384, 3385, 3386, 3387, 3388, 3389, 3390, 3391, 3392
3393, 3394, 3395, 3396, 3397, 3398, 3399, 3400, 3401, 3402, 3403, 3404, 3405, 3406, 3407, 3408
3409, 3410, 3411, 3412, 3413, 3414, 3415, 3416, 3417, 3418, 3419, 3420, 3421, 3422, 3423, 3424
3425, 3426, 3427, 3428, 3429, 3430, 3431, 3432, 3433, 3434, 3435, 3436, 3437, 3438, 3439, 3440
3441, 3442, 3443, 3444, 3445, 3446, 3447, 3448, 3449, 3450, 3451, 3452, 3453, 3454, 3455, 3456
3457, 3458, 3459, 3460, 3461, 3462, 3463, 3464, 3465, 3466, 3467, 3468, 3469, 3470, 3471, 3472
3473, 3474, 3475, 3476, 3477, 3478, 3479, 3480, 3481, 3482, 3483, 3484, 3485, 3486, 3487, 3488
3489, 3490, 3491, 3492, 3493, 3494, 3495, 3496, 3497, 3498, 3499, 3500, 3501, 3502, 3503, 3504
3505, 3506, 3507, 3508, 3509, 3510, 3511, 3512, 3513, 3514, 3515, 3516, 3517, 3518, 3519, 3520
3521, 3522, 3523, 3524, 3525, 3526, 3527, 3528, 3529, 3530, 3531, 3532, 3533, 3534, 3535, 3536
3537, 3538, 3539, 3540, 3541, 3542, 3543, 3544, 3545, 3546, 3547, 3548, 3549, 3550, 3551, 3552
3553, 3554, 3555, 3556, 3557, 3558, 3559, 3560, 3561, 3562, 3563, 3564, 3565, 3566, 3567, 3568
3569, 3570, 3571, 3572, 3573, 3574, 3575, 3576, 3577, 3578, 3579, 3580, 3581, 3582, 3583, 3584
3585, 3586, 3587, 3588, 3589, 3590, 3591, 3592, 3593, 3594, 3595, 3596, 3597, 3598, 3599, 3600
3601, 3602, 3603, 3604, 3605, 3606, 3607, 3608, 3609, 3610, 3611, 3612, 3613, 3614, 3615, 3616
3617, 3618, 3619, 3620, 3621, 3622, 3623, 3624, 3625, 3626, 3627, 3628, 3629, 3630, 3631, 3632
3633, 3634, 3635, 3636, 3637, 3638, 3639, 3640, 3641, 3642, 3643, 3644, 3645, 3646, 3647, 3648
3649, 3650, 3651, 3652, 3653, 3654, 3655, 3656, 3657, 3658, 3659, 3660, 3661, 3662, 3663, 3664
3665, 3666, 3667, 3668, 3669, 3670, 3671, 3672, 3673, 3674, 3675, 3676, 3677, 3678, 3679, 3680
3681, 3682, 3683, 3684, 3685, 3686, 3687, 3688, 3689, 3690, 3691, 3692, 3693, 3694, 3695, 3696
3697, 3698, 3699, 3700, 3701, 3702, 3703, 3704, 3705, 3706, 3707, 3708, 3709, 3710, 3711, 3712
3713, 3714, 3715, 3716, 3717, 3718, 3719, 3720, 3721, 3722, 3723, 3724, 3725, 3726, 3727, 3728
3729, 3730, 3731, 3732, 3733, 3734, 3735, 3736, 3737, 3738, 3739, 3740, 3741, 3742, 3743, 3744
3745, 3746, 3747, 3748, 3749, 3750, 3751, 3752, 3753, 3754, 3755, 3756, 3757, 3758, 3759, 3760
3761, 3762, 3763, 3764, 3765, 3766, 3767, 3768, 3769, 3770, 3771, 3772, 3773, 3774, 3775, 3776
3777, 3778, 3779, 3780, 3781, 3782, 3783, 3784, 3785, 3786, 3787, 3788, 3789, 3790, 3791, 3792
3793, 3794, 3795, 3796, 3797, 3798, 3799, 3800, 3801, 3802, 3803, 3804, 3805, 3806, 3807, 3808
3809, 3810, 3811, 3812, 3813, 3814, 3815, 3816, 3817, 3818, 3819, 3820, 3821, 3822, 3823, 3824
3825, 3826, 3827, 3828, 3829, 3830, 3831, 3832, 3833, 3834, 3835, 3836, 3837, 3838, 3839, 3840
3841, 3842, 3843, 3844, 3845, 3846, 3847, 3848, 3849, 3850, 3851, 3852, 3853, 3854, 3855, 3856
3857, 3858, 3859, 3860, 3861, 3862, 3863, 3864, 3865, 3866, 3867, 3868, 3869, 3870, 3871, 3872
3873, 3874, 3875, 3876, 3877, 3878, 3879, 3880, 3881, 3882, 3883, 3884, 3885, 3886, 3887, 3888
3889, 3890, 3891, 3892, 3893, 3894, 3895, 3896, 3897, 3898, 3899, 3900, 3901, 3902, 3903, 3904
3905, 3906, 3907, 3908, 3909, 3910, 3911, 3912, 3913, 3914, 3915, 3916, 3917, 3918, 3919, 3920
3921, 3922, 3923, 3924, 3925, 3926, 3927, 3928, 3929, 3930, 3931, 3932, 3933, 3934, 3935, 3936
3937, 3938, 3939, 3940, 3941, 3942, 3943, 3944, 3945, 3946, 3947, 3948, 3949, 3950, 3951, 3952
3953, 3954, 3955, 3956, 3957, 3958, 3959, 3960, 3961, 3962, 3963, 3964, 3965, 3966, 3967, 3968
3969, 3970, 3971, 3972, 3973, 3974, 3975, 3976, 3977, 3978, 3979, 3980, 3981, 3982, 3983, 3984
3985, 3986, 3987, 3988, 3989, 3990, 3991, 3992, 3993, 3994, 3995, 3996, 3997, 3998, 3999, 4000
4001, 4002, 4003, 4004, 4005, 4006, 4007, 4008, 4009, 4010, 4011, 4012, 4013, 4014, 4015, 4016
4017, 4018, 4019, 4020, 4021, 4022, 4023, 4024, 4025, 4026, 4027, 4028, 4029, 4030, 4031, 4032
4033, 4034, 4035, 4036, 4037, 4038, 4039, 4040, 4041, 4042, 4043, 4044, 4045, 4046, 4047, 4048
4049, 4050, 4051, 4052, 4053, 4054, 4055, 4056, 4057, 4058, 4059, 4060, 4061, 4062, 4063, 4064
4065, 4066, 4067, 4068, 4069, 4070, 4071, 4072, 4073, 4074, 4075, 4076, 4077, 4078, 4079, 4080
4081, 4082, 4083, 4084, 4085, 4086, 4087, 4088, 4089, 4090, 4091, 4092, 4093, 4094, 4095, 4096
4097, 4098, 4099, 4100, 4101, 4102, 4103, 4104, 4105, 4106, 4107, 4108, 4109, 4110, 4111, 4112
4113, 4114, 4115, 4116, 4117, 4118, 4119, 4120, 4121, 4122, 4123, 4124, 4125, 4126, 4127, 4128
4129, 4130, 4131, 4132, 4133, 4134, 4135, 4136, 4137, 4138, 4139, 4140, 4141, 4142, 4143, 4144
4145, 4146, 4147, 4148, 4149, 4150, 4151, 4152, 4153, 4154, 4155, 4156, 4157, 4158, 4159, 4160
4161, 4162, 4163, 4164, 4165, 4166, 4167, 4168, 4169, 4170, 4171, 4172, 4173, 4174, 4175, 4176
4177, 4178, 4179, 4180, 4181, 4182, 4183, 4184, 4185, 4186, 4187, 4188, 4189, 4190, 4191, 4192
4193, 4194, 4195, 4196, 4197, 4198, 4199, 4200, 4201, 4202, 4203, 4204, 4205, 4206, 4207, 4208
4209, 4210, 4211, 4212, 4213, 4214, 4215, 4216, 4217, 4218, 4219, 4220, 4221, 4222, 4223, 4224
4225, 4226, 4227, 4228, 4229, 4230, 4231, 4232, 4233, 4234, 4235, 4236, 4237, 4238, 4239, 4240
4241, 4242, 4243, 4244, 4245, 4246, 4247, 4248, 4249, 4250, 4251, 4252, 4253, 4254, 4255, 4256
4257, 4258, 4259, 4260, 4261, 4262, 4263, 4264, 4265, 4266, 4267, 4268, 4269, 4270, 4271, 4272
4273, 4274, 4275, 4276, 4277, 4278, 4279, 4280, 4281, 4282, 4283, 4284, 4285, 4286, 4287, 4288
4289, 4290, 4291, 4292, 4293, 4294, 4295, 4296, 4297, 4298, 4299, 4300, 4301, 4302, 4303, 4304
4305, 4306, 4307, 4308, 4309, 4310, 4311, 4312, 4313, 4314, 4315, 4316, 4317, 4318, 4319, 4320
4321, 4322, 4323, 4324, 4325, 4326, 4327, 4328, 4329, 4330, 4331, 4332, 4333, 4334, 4335, 4336
4337, 4338, 4339, 4340, 4341, 4342, 4343, 4344, 4345, 4346, 4347, 4348, 4349, 4350, 4351, 4352
4353, 4354, 4355, 4356, 4357, 4358, 4359, 4360, 4361, 4362, 4363, 4364, 4365, 4366, 4367, 4368
4369, 4370, 4371, 4372, 4373, 4374, 4375, 4376, 4377, 4378, 4379, 4380, 4381, 4382, 4383, 4384
4385, 4386, 4387, 4388, 4389, 4390, 4391, 4392, 4393, 4394, 4395, 4396, 4397, 4398, 4399, 4400
4401, 4402, 4403, 4404, 4405, 4406, 4407, 4408, 4409, 4410, 4411, 4412, 4413, 4414, 4415, 4416
4417, 4418, 4419, 4420, 4421, 4422, 4423, 4424, 4425, 4426, 4427, 4428, 4429, 4430, 4431, 4432
4433, 4434, 4435, 4436, 4437, 4438, 4439, 4440, 4441, 4442, 4443, 4444, 4445, 4446, 4447, 4448
4449, 4450, 4451, 4452, 4453, 4454, 4455, 4456, 4457, 4458, 4459, 4460, 4461, 4462, 4463, 4464
4465, 4466, 4467, 4468, 4469, 4470, 4471, 4472, 4473, 4474, 4475, 4476, 4477, 4478, 4479, 4480
4481, 4482, 4483, 4484, 4485, 4486, 4487, 4488, 4489, 4490, 4491, 4492, 4493, 4494, 4495, 4496
4497, 4498, 4499, 4500, 4501, 4502, 4503, 4504, 4505, 4506, 4507, 4508, 4509, 4510, 4511, 4512
4513, 4514, 4515, 4516, 4517, 4518, 4519, 4520, 4521, 4522, 4523, 4524, 4525, 4526, 4527, 4528
4529, 4530, 4531, 4532, 4533, 4534, 4535, 4536, 4537, 4538, 4539, 4540, 4541, 4542, 4543, 4544
4545, 4546, 4547, 4548, 4549, 4550, 4551, 4552, 4553, 4554, 4555, 4556, 4557, 4558, 4559, 4560
4561, 4562, 4563, 4564, 4565, 4566, 4567, 4568, 4569, 4570, 4571, 4572, 4573, 4574, 4575, 4576
4577, 4578, 4579, 4580, 4581, 4582, 4583, 4584, 4585, 4586, 4587, 4588, 4589, 4590, 4591, 4592
4593, 4594, 4595, 4596, 4597, 4598, 4599, 4600, 4601, 4602, 4603, 4604, 4605, 4606, 4607, 4608
4609, 4610, 4611, 4612, 4613, 4614, 4615, 4616, 4617, 4618, 4619, 4620, 4621, 4622, 4623, 4624
4625, 4626, 4627, 4628, 4629, 4630, 4631, 4632, 4633, 4634, 4635, 4636, 4637, 4638, 4639, 4640
4641, 4642, 4643, 4644, 4645, 4646, 4647, 4648, 4649, 4650, 4651, 4652, 4653, 4654, 4655, 4656
4657, 4658, 4659, 4660, 4661, 4662, 4663, 4664, 4665, 4666, 4667, 4668, 4669, 4670, 4671, 4672
4673, 4674, 4675, 4676, 4677, 4678, 4679, 4680, 4681, 4682, 4683, 4684, 4685, 4686, 4687, 4688
4689, 4690, 4691, 4692, 4693, 4694, 4695, 4696, 4697, 4698, 4699, 4700, 4701, 4702, 4703, 4704
4705, 4706, 4707, 4708, 4709, 4710, 4711, 4712, 4713, 4714, 4715, 4716, 4717, 4718, 4719, 4720
4721, 4722, 4723, 4724, 4725, 4726, 4727, 4728, 4729, 4730, 4731, 4732, 4733, 4734, 4735, 4736
4737, 4738, 4739, 4740, 4741, 4742, 4743, 4744, 4745, 4746, 4747, 4748, 4749, 4750, 4751, 4752
4753, 4754, 4755, 4756, 4757, 4758, 4759, 4760, 4761, 4762, 4763, 4764, 4765, 4766, 4767, 4768
4769, 4770, 4771, 4772, 4773, 4774, 4775, 4776, 4777, 4778, 4779, 4780, 4781, 4782, 4783, 4784
4785, 4786, 4787, 4788, 4789, 4790, 4791, 4792, 4793, 4794, 4795, 4796, 4797, 4798, 4799, 4800
4801, 4802, 4803, 4804, 4805, 4806, 4807, 4808, 4809, 4810, 4811, 4812, 4813, 4814, 4815, 4816
4817, 4818, 4819, 4820, 4821, 4822, 4823, 4824, 4825, 4826, 4827, 4828, 4829, 4830, 4831, 4832
4833, 4834, 4835, 4836, 4837, 4838, 4839, 4840, 4841, 4842, 4843, 4844, 4845, 4846, 4847, 4848
4849, 4850, 4851, 4852, 4853, 4854, 4855, 4856, 4857, 4858, 4859, 4860, 4861, 4862, 4863, 4864
4865, 4866, 4867, 4868, 4869, 4870, 4871, 4872, 4873, 4874, 4875, 4876, 4877, 4878, 4879, 4880
4881, 4882, 4883, 4884, 4885, 4886, 4887, 4888, 4889, 4890, 4891, 4892, 4893, 4894, 4895, 4896
4897, 4898, 4899, 4900, 4901, 4902, 4903, 4904, 4905, 4906, 4907, 4908, 4909, 4910, 4911, 4912
4913, 4914, 4915, 4916, 4917, 4918, 4919, 4920, 4921, 4922, 4923, 4924, 4925, 4926, 4927, 4928
4929, 4930, 4931, 4932, 4933, 4934, 4935, 4936, 4937, 4938, 4939, 4940, 4941, 4942, 4943, 4944
4945, 4946, 4947, 4948, 4949, 4950, 4951, 4952, 4953, 4954, 4955, 4956, 4957, 4958, 4959, 4960
4961, 4962, 4963, 4964, 4965, 4966, 4967, 4968, 4969, 4970, 4971, 4972, 4973, 4974, 4975, 4976
4977, 4978, 4979, 4980, 4981, 4982, 4983, 4984, 4985, 4986, 4987, 4988, 4989, 4990, 4991, 4992
4993, 4994, 4995, 4996, 4997, 4998, 4999, 5000, 5001, 5002, 5003, 5004, 5005, 5006, 5007, 5008
5009, 5010, 5011, 5012, 5013, 5014, 5015, 5016, 5017, 5018, 5019, 5020, 5021, 5022, 5023, 5024
5025, 5026, 5027, 5028, 5029, 5030, 5031, 5032, 5033, 5034, 5035, 5036, 5037, 5038, 5039, 5040
5041, 5042, 5043, 5044, 5045, 5046, 5047, 5048, 5049, 5050, 5051, 5052, 5053, 5054, 5055, 5056
5057, 5058, 5059, 5060, 5061, 5062, 5063, 5064, 5065, 5066, 5067, 5068, 5069, 5070, 5071, 5072
5073, 5074, 5075, 5076, 5077, 5078, 5079, 5080, 5081, 5082, 5083, 5084, 5085, 5086, 5087, 5088
5089, 5090, 5091, 5092, 5093, 5094, 5095, 5096, 5097, 5098, 5099, 5100, 5101, 5102, 5103, 5104
5105, 5106, 5107, 5108, 5109, 5110, 5111, 5112, 5113, 5114, 5115, 5116, 5117, 5118, 5119, 5120
5121, 5122, 5123, 5124, 5125, 5126, 5127, 5128, 5129, 5130, 5131, 5132, 5133, 5134, 5135, 5136
5137, 5138, 5139, 5140, 5141, 5142, 5143, 5144, 5145, 5146, 5147, 5148, 5149, 5150, 5151, 5152
5153, 5154, 5155, 5156, 5157, 5158, 5159, 5160, 5161, 5162, 5163, 5164, 5165, 5166, 5167, 5168
5169, 5170, 5171, 5172, 5173, 5174, 5175, 5176, 5177, 5178, 5179, 5180, 5181, 5182, 5183, 5184
5185, 5186, 5187, 5188, 5189, 5190, 5191, 5192, 5193, 5194, 5195, 5196, 5197, 5198, 5199, 5200
5201, 5202, 5203, 5204, 5205, 5206, 5207, 5208, 5209, 5210, 5211, 5212, 5213, 5214, 5215, 5216
5217, 5218, 5219, 5220, 5221, 5222, 5223, 5224, 5225, 5226, 5227, 5228, 5229, 5230, 5231, 5232
5233, 5234, 5235, 5236, 5237, 5238, 5239, 5240, 5241, 5242, 5243, 5244, 5245, 5246, 5247, 5248
5249, 5250, 5251, 5252, 5253, 5254, 5255, 5256, 5257, 5258, 5259, 5260, 5261, 5262, 5263, 5264
5265, 5266, 5267, 5268, 5269, 5270, 5271, 5272, 5273, 5274, 5275, 5276, 5277, 5278, 5279, 5280
5281, 5282, 5283, 5284, 5285, 5286, 5287, 5288, 5289, 5290, 5291, 5292, 5293, 5294, 5295, 5296
5297, 5298, 5299, 5300, 5301, 5302, 5303, 5304, 5305, 5306, 5307, 5308, 5309, 5310, 5311, 5312
5313, 5314, 5315, 5316, 5317, 5318, 5319, 5320, 5321, 5322, 5323, 5324, 5325, 5326, 5327, 5328
5329, 5330, 5331, 5332, 5333, 5334, 5335, 5336, 5337, 5338, 5339, 5340, 5341, 5342, 5343, 5344
5345, 5346, 5347, 5348, 5349, 5350, 5351, 5352, 5353, 5354, 5355, 5356, 5357, 5358, 5359, 5360
5361, 5362, 5363, 5364, 5365, 5366, 5367, 5368, 5369, 5370, 5371, 5372, 5373, 5374, 5375, 5376
5377, 5378, 5379, 5380, 5381, 5382, 5383, 5384, 5385, 5386, 5387, 5388, 5389, 5390, 5391, 5392
5393, 5394, 5395, 5396, 5397, 5398, 5399, 5400, 5401, 5402, 5403, 5404, 5405, 5406, 5407, 5408
5409, 5410, 5411, 5412, 5413, 5414, 5415, 5416, 5417, 5418, 5419, 5420, 5421, 5422, 5423, 5424
5425, 5426, 5427, 5428, 5429, 5430, 5431, 5432, 5433, 5434, 5435, 5436, 5437, 5438, 5439, 5440
5441, 5442, 5443, 5444, 5445, 5446, 5447, 5448, 5449, 5450, 5451, 5452, 5453, 5454, 5455, 5456
5457, 5458, 5459, 5460, 5461, 5462, 5463, 5464, 5465, 5466, 5467, 5468, 5469, 5470, 5471, 5472
5473, 5474, 5475, 5476, 5477, 5478, 5479, 5480, 5481, 5482, 5483, 5484, 5485, 5486, 5487, 5488
5489, 5490, 5491, 5492, 5493, 5494, 5495, 5496, 5497, 5498, 5499, 5500, 5501, 5502, 5503, 5504
5505, 5506, 5507, 5508, 5509, 5510, 5511, 5512, 5513, 5514, 5515, 5516, 5517, 5518, 5519, 5520
5521, 5522, 5523, 5524, 5525, 5526, 5527, 5528, 5529, 5530, 5531, 5532, 5533, 5534, 5535, 5536
5537, 5538, 5539, 5540, 5541, 5542, 5543, 5544, 5545, 5546, 5547, 5548, 5549, 5550, 5551, 5552
5553, 5554, 5555, 5556, 5557, 5558, 5559, 5560, 5561, 5562, 5563, 5564, 5565, 5566, 5567, 5568
5569, 5570, 5571, 5572, 5573, 5574, 5575, 5576, 5577, 5578, 5579, 5580, 5581, 5582, 5583, 5584
5585, 5586, 5587, 5588, 5589, 5590, 5591, 5592, 5593, 5594, 5595, 5596, 5597, 5598, 5599, 5600
5601, 5602, 5603, 5604, 5605, 5606, 5607, 5608, 5609, 5610, 5611, 5612, 5613, 5614, 5615, 5616
5617, 5618, 5619, 5620, 5621, 5622, 5623, 5624, 5625, 5626, 5627, 5628, 5629, 5630, 5631, 5632
5633, 5634, 5635, 5636, 5637, 5638, 5639, 5640, 5641, 5642, 5643, 5644, 5645, 5646, 5647, 5648
5649, 5650, 5651, 5652, 5653, 5654, 5655, 5656, 5657, 5658, 5659, 5660, 5661, 5662, 5663, 5664
5665, 5666, 5667, 5668, 5669, 5670, 5671, 5672, 5673, 5674, 5675, 5676, 5677, 5678, 5679, 5680
5681, 5682, 5683, 5684, 5685, 5686, 5687, 5688, 5689, 5690, 5691, 5692, 5693, 5694, 5695, 5696
5697, 5698, 5699, 5700, 5701, 5702, 5703, 5704, 5705, 5706, 5707, 5708, 5709, 5710, 5711, 5712
5713, 5714, 5715, 5716, 5717, 5718, 5719, 5720, 5721, 5722, 5723, 5724, 5725, 5726, 5727, 5728
5729, 5730, 5731, 5732, 5733, 5734, 5735, 5736, 5737, 5738, 5739, 5740, 5741, 5742, 5743, 5744
5745, 5746, 5747, 5748, 5749, 5750, 5751, 5752, 5753, 5754, 5755, 5756, 5757, 5758, 5759, 5760
5761, 5762, 5763, 5764, 5765, 5766, 5767, 5768, 5769, 5770, 5771, 5772, 5773, 5774, 5775, 5776
5777, 5778, 5779, 5780, 5781, 5782, 5783, 5784, 5785, 5786, 5787, 5788, 5789, 5790, 5791, 5792
5793, 5794, 5795, 5796, 5797, 5798, 5799, 5800, 5801, 5802, 5803, 5804, 5805, 5806, 5807, 5808
5809, 5810, 5811, 5812, 5813, 5814, 5815, 5816, 5817, 5818, 5819, 5820, 5821, 5822, 5823, 5824
5825, 5826, 5827, 5828, 5829, 5830, 5831, 5832, 5833, 5834, 5835, 5836, 5837, 5838, 5839, 5840
5841, 5842, 5843, 5844, 5845, 5846, 5847, 5848, 5849, 5850, 5851, 5852, 5853, 5854, 5855, 5856
5857, 5858, 5859, 5860, 5861, 5862, 5863, 5864, 5865, 5866, 5867, 5868, 5869, 5870, 5871, 5872
5873, 5874, 5875, 5876, 5877, 5878, 5879, 5880, 5881, 5882, 5883, 5884, 5885, 5886, 5887, 5888
5889, 5890, 5891, 5892, 5893, 5894, 5895, 5896, 5897, 5898, 5899, 5900, 5901, 5902, 5903, 5904
5905, 5906, 5907, 5908, 5909, 5910, 5911, 5912, 5913, 5914, 5915, 5916, 5917, 5918, 5919, 5920
5921, 5922, 5923, 5924, 5925, 5926, 5927, 5928, 5929, 5930, 5931, 5932, 5933, 5934, 5935, 5936
5937, 5938, 5939, 5940, 5941, 5942, 5943, 5944, 5945, 5946, 5947, 5948, 5949, 5950, 5951, 5952
5953, 5954, 5955, 5956, 5957, 5958, 5959, 5960, 5961, 5962, 5963, 5964, 5965, 5966, 5967, 5968
5969, 5970, 5971, 5972, 5973, 5974, 5975, 5976, 5977, 5978, 5979, 5980, 5981, 5982, 5983, 5984
5985, 5986, 5987, 5988, 5989, 5990, 5991, 5992, 5993, 5994, 5995, 5996, 5997, 5998, 5999, 6000
6001, 6002, 6003, 6004, 6005, 6006, 6007, 6008, 6009, 6010, 6011, 6012, 6013, 6014, 6015, 6016
6017, 6018, 6019, 6020, 6021, 6022, 6023, 6024, 6025, 6026, 6027, 6028, 6029, 6030, 6031, 6032
6033, 6034, 6035, 6036, 6037, 6038, 6039, 6040, 6041, 6042, 6043, 6044, 6045, 6046, 6047, 6048
6049, 6050, 6051, 6052, 6053, 6054, 6055, 6056, 6057, 6058, 6059, 6060, 6061, 6062, 6063, 6064
6065, 6066, 6067, 6068, 6069, 6070, 6071, 6072, 6073, 6074, 6075, 6076, 6077, 6078, 6079, 6080
6081, 6082, 6083, 6084, 6085, 6086, 6087, 6088, 6089, 6090, 6091, 6092, 6093, 6094, 6095, 6096
6097, 6098, 6099, 6100, 6101, 6102, 6103, 6104, 6105, 6106, 6107, 6108, 6109, 6110, 6111, 6112
6113, 6114, 6115, 6116, 6117, 6118, 6119, 6120, 6121, 6122, 6123, 6124, 6125, 6126, 6127, 6128
6129, 6130, 6131, 6132, 6133, 6134, 6135, 6136, 6137, 6138, 6139, 6140, 6141, 6142, 6143, 6144
6145, 6146, 6147, 6148, 6149, 6150, 6151, 6152, 6153, 6154, 6155, 6156, 6157, 6158, 6159, 6160
6161, 6162, 6163, 6164, 6165, 6166, 6167, 6168, 6169, 6170, 6171, 6172, 6173, 6174, 6175, 6176
6177, 6178, 6179, 6180, 6181, 6182, 6183, 6184, 6185, 6186, 6187, 6188, 6189, 6190, 6191, 6192
6193, 6194, 6195, 6196, 6197, 6198, 6199, 6200, 6201, 6202, 6203, 6204, 6205, 6206, 6207, 6208
6209, 6210, 6211, 6212, 6213, 6214, 6215, 6216, 6217, 6218, 6219, 6220, 6221, 6222, 6223, 6224
6225, 6226, 6227, 6228, 6229, 6230, 6231, 6232, 6233, 6234, 6235, 6236, 6237, 6238, 6239, 6240
6241, 6242, 6243, 6244, 6245, 6246, 6247, 6248, 6249, 6250, 6251, 6252, 6253, 6254, 6255, 6256
6257, 6258, 6259, 6260, 6261, 6262, 6263, 6264, 6265, 6266, 6267, 6268, 6269, 6270, 6271, 6272
6273, 6274, 6275, 6276, 6277, 6278, 6279, 6280, 6281, 6282, 6283, 6284, 6285, 6286, 6287, 6288
6289, 6290, 6291, 6292, 6293, 6294, 6295, 6296, 6297, 6298, 6299, 6300, 6301, 6302, 6303, 6304
6305, 6306, 6307, 6308, 6309, 6310, 6311, 6312, 6313, 6314, 6315, 6316, 6317, 6318, 6319, 6320
6321, 6322, 6323, 6324, 6325, 6326, 6327, 6328, 6329, 6330, 6331, 6332, 6333, 6334, 6335, 6336
6337, 6338, 6339, 6340, 6341, 6342, 6343, 6344, 6345, 6346, 6347, 6348, 6349, 6350, 6351, 6352
6353, 6354, 6355, 6356, 6357, 6358, 6359, 6360, 6361, 6362, 6363, 6364, 6365, 6366, 6367, 6368
6369, 6370, 6371, 6372, 6373, 6374, 6375, 6376, 6377, 6378, 6379, 6380, 6381, 6382, 6383, 6384
6385, 6386, 6387, 6388, 6389, 6390, 6391, 6392, 6393, 6394, 6395, 6396, 6397, 6398, 6399, 6400
6401, 6402, 6403, 6404, 6405, 6406, 6407, 6408, 6409, 6410, 6411, 6412, 6413, 6414, 6415, 6416
6417, 6418, 6419, 6420, 6421, 6422, 6423, 6424, 6425, 6426, 6427, 6428, 6429, 6430, 6431, 6432
6433, 6434, 6435, 6436, 6437, 6438, 6439, 6440, 6441, 6442, 6443, 6444, 6445, 6446, 6447, 6448
6449, 6450, 6451, 6452, 6453, 6454, 6455, 6456, 6457, 6458, 6459, 6460, 6461, 6462, 6463, 6464
6465, 6466, 6467, 6468, 6469, 6470, 6471, 6472, 6473, 6474, 6475, 6476, 6477, 6478, 6479, 6480
6481, 6482, 6483, 6484, 6485, 6486, 6487, 6488, 6489, 6490, 6491, 6492, 6493, 6494, 6495, 6496
6497, 6498, 6499, 6500, 6501, 6502, 6503, 6504, 6505, 6506, 6507, 6508, 6509, 6510, 6511, 6512
6513, 6514, 6515, 6516, 6517, 6518, 6519, 6520, 6521, 6522, 6523, 6524, 6525, 6526, 6527, 6528
6529, 6530, 6531, 6532, 6533, 6534, 6535, 6536, 6537, 6538, 6539, 6540, 6541, 6542, 6543, 6544
6545, 6546, 6547, 6548, 6549, 6550, 6551, 6552, 6553, 6554, 6555, 6556, 6557, 6558, 6559, 6560
6561, 6562, 6563, 6564, 6565, 6566, 6567, 6568, 6569, 6570, 6571, 6572, 6573, 6574, 6575, 6576
6577, 6578, 6579, 6580, 6581, 6582, 6583, 6584, 6585, 6586, 6587, 6588, 6589, 6590, 6591, 6592
6593, 6594, 6595, 6596, 6597, 6598, 6599, 6600, 6601, 6602, 6603, 6604, 6605, 6606, 6607, 6608
6609, 6610, 6611, 6612, 6613, 6614, 6615, 6616, 6617, 6618, 6619, 6620, 6621, 6622, 6623, 6624
6625, 6626, 6627, 6628, 6629, 6630, 6631, 6632, 6633, 6634, 6635, 6636, 6637, 6638, 6639, 6640
6641, 6642, 6643, 6644, 6645, 6646, 6647, 6648, 6649, 6650, 6651, 6652, 6653, 6654, 6655, 6656
6657, 6658, 6659, 6660, 6661, 6662, 6663, 6664, 6665, 6666, 6667, 6668, 6669, 6670, 6671, 6672
6673, 6674, 6675, 6676, 6677, 6678, 6679, 6680, 6681, 6682, 6683, 6684, 6685, 6686, 6687, 6688
6689, 6690, 6691, 6692, 6693, 6694, 6695, 6696, 6697, 6698, 6699, 6700, 6701, 6702, 6703, 6704
6705, 6706, 6707, 6708, 6709, 6710, 6711, 6712, 6713, 6714, 6715, 6716, 6717, 6718, 6719, 6720
6721, 6722, 6723, 6724, 6725, 6726, 6727, 6728, 6729, 6730, 6731, 6732, 6733, 6734, 6735, 6736
6737, 6738, 6739, 6740, 6741, 6742, 6743, 6744, 6745, 6746, 6747, 6748, 6749, 6750, 6751, 6752
6753, 6754, 6755, 6756, 6757, 6758, 6759, 6760, 6761, 6762, 6763, 6764, 6765, 6766, 6767, 6768
6769, 6770, 6771, 6772, 6773, 6774, 6775, 6776, 6777, 6778, 6779, 6780, 6781, 6782, 6783, 6784
6785, 6786, 6787, 6788, 6789, 6790, 6791, 6792, 6793, 6794, 6795, 6796, 6797, 6798, 6799, 6800
6801, 6802, 6803, 6804, 6805, 6806, 6807, 6808, 6809, 6810, 6811, 6812, 6813, 6814, 6815, 6816
6817, 6818, 6819, 6820, 6821, 6822, 6823, 6824, 6825, 6826, 6827, 6828, 6829, 6830, 6831, 6832
6833, 6834, 6835, 6836, 6837, 6838, 6839, 6840, 6841, 6842, 6843, 6844, 6845, 6846, 6847, 6848
6849, 6850, 6851, 6852, 6853, 6854, 6855, 6856, 6857, 6858, 6859, 6860, 6861, 6862, 6863, 6864
6865, 6866, 6867, 6868, 6869, 6870, 6871, 6872, 6873, 6874, 6875, 6876, 6877, 6878, 6879, 6880
6881, 6882, 6883, 6884, 6885, 6886, 6887, 6888, 6889, 6890, 6891, 6892, 6893, 6894, 6895, 6896
6897, 6898, 6899, 6900, 6901, 6902, 6903, 6904, 6905, 6906, 6907, 6908, 6909, 6910, 6911, 6912
6913, 6914, 6915, 6916, 6917, 6918, 6919, 6920, 6921, 6922, 6923, 6924, 6925, 6926, 6927, 6928
6929, 6930, 6931, 6932, 6933, 6934, 6935, 6936, 6937, 6938, 6939, 6940, 6941, 6942, 6943, 6944
6945, 6946, 6947, 6948, 6949, 6950, 6951, 6952, 6953, 6954, 6955, 6956, 6957, 6958, 6959, 6960
6961, 6962, 6963, 6964, 6965, 6966, 6967, 6968, 6969, 6970, 6971, 6972, 6973, 6974, 6975, 6976
6977, 6978, 6979, 6980, 6981, 6982, 6983, 6984, 6985, 6986, 6987, 6988, 6989, 6990, 6991, 6992
6993, 6994, 6995, 6996, 6997, 6998, 6999, 7000, 7001, 7002, 7003, 7004, 7005, 7006, 7007, 7008
7009, 7010, 7011, 7012, 7013, 7014, 7015, 7016, 7017, 7018, 7019, 7020, 7021, 7022, 7023, 7024
7025, 7026, 7027, 7028, 7029, 7030, 7031, 7032, 7033, 7034, 7035, 7036, 7037, 7038, 7039, 7040
7041, 7042, 7043, 7044, 7045, 7046, 7047, 7048, 7049, 7050, 7051, 7052, 7053, 7054, 7055, 7056
7057, 7058, 7059, 7060, 7061, 7062, 7063, 7064, 7065, 7066, 7067, 7068, 7069, 7070, 7071, 7072
7073, 7074, 7075, 7076, 7077, 7078, 7079, 7080, 7081, 7082, 7083, 7084, 7085, 7086, 7087, 7088
7089, 7090, 7091, 7092, 7093, 7094, 7095, 7096, 7097, 7098, 7099, 7100, 7101, 7102, 7103, 7104
7105, 7106, 7107, 7108, 7109, 7110, 7111, 7112, 7113, 7114, 7115, 7116, 7117, 7118, 7119, 7120
7121, 7122, 7123, 7124, 7125, 7126, 7127, 7128, 7129, 7130, 7131, 7132, 7133, 7134, 7135, 7136
7137, 7138, 7139, 7140, 7141, 7142, 7143, 7144, 7145, 7146, 7147, 7148, 7149, 7150, 7151, 7152
7153, 7154, 7155, 7156, 7157, 7158, 7159, 7160, 7161, 7162, 7163, 7164, 7165, 7166, 7167, 7168
7169, 7170, 7171, 7172, 7173, 7174, 7175, 7176, 7177, 7178, 7179, 7180, 7181, 7182, 7183, 7184
7185, 7186, 7187, 7188, 7189, 7190, 7191, 7192, 7193, 7194, 7195, 7196, 7197, 7198, 7199, 7200
7201, 7202, 7203, 7204, 7205, 7206, 7207, 7208, 7209, 7210, 7211, 7212, 7213, 7214, 7215, 7216
7217, 7218, 7219, 7220, 7221, 7222, 7223, 7224, 7225, 7226, 7227, 7228, 7229, 7230, 7231, 7232
7233, 7234, 7235, 7236, 7237, 7238, 7239, 7240, 7241, 7242, 7243, 7244, 7245, 7246, 7247, 7248
7249, 7250, 7251, 7252, 7253, 7254, 7255, 7256, 7257, 7258, 7259, 7260, 7261, 7262, 7263, 7264
7265, 7266, 7267, 7268, 7269, 7270, 7271, 7272, 7273, 7274, 7275, 7276, 7277, 7278, 7279, 7280
7281, 7282, 7283, 7284, 7285, 7286, 7287, 7288, 7289, 7290, 7291, 7292, 7293, 7294, 7295, 7296
7297, 7298, 7299, 7300, 7301, 7302, 7303, 7304, 7305, 7306, 7307, 7308, 7309, 7310, 7311, 7312
7313, 7314, 7315, 7316, 7317, 7318, 7319, 7320, 7321, 7322, 7323, 7324, 7325, 7326, 7327, 7328
7329, 7330, 7331, 7332, 7333, 7334, 7335, 7336, 7337, 7338, 7339, 7340, 7341, 7342, 7343, 7344
7345, 7346, 7347, 7348, 7349, 7350, 7351, 7352, 7353, 7354, 7355, 7356, 7357, 7358, 7359, 7360
7361, 7362, 7363, 7364, 7365, 7366, 7367, 7368, 7369, 7370, 7371, 7372, 7373, 7374, 7375, 7376
7377, 7378, 7379, 7380, 7381, 7382, 7383, 7384, 7385, 7386, 7387, 7388, 7389, 7390, 7391, 7392
7393, 7394, 7395, 7396, 7397, 7398, 7399, 7400, 7401, 7402, 7403, 7404, 7405, 7406, 7407, 7408
7409, 7410, 7411, 7412, 7413, 7414, 7415, 7416, 7417, 7418, 7419, 7420, 7421, 7422, 7423, 7424
7425, 7426, 7427, 7428, 7429, 7430, 7431, 7432, 7433, 7434, 7435, 7436, 7437, 7438, 7439, 7440
7441, 7442, 7443, 7444, 7445, 7446, 7447, 7448, 7449, 7450, 7451, 7452, 7453, 7454, 7455, 7456
7457, 7458, 7459, 7460, 7461, 7462, 7463, 7464, 7465, 7466, 7467, 7468, 7469, 7470, 7471, 7472
7473, 7474, 7475, 7476, 7477, 7478, 7479, 7480, 7481, 7482, 7483, 7484, 7485, 7486, 7487, 7488
7489, 7490, 7491, 7492, 7493, 7494, 7495, 7496, 7497, 7498, 7499, 7500, 7501, 7502, 7503, 7504
7505, 7506, 7507, 7508, 7509, 7510, 7511, 7512, 7513, 7514, 7515, 7516, 7517, 7518, 7519, 7520
7521, 7522, 7523, 7524, 7525, 7526, 7527, 7528, 7529, 7530, 7531, 7532, 7533, 7534, 7535, 7536
7537, 7538, 7539, 7540, 7541, 7542, 7543, 7544, 7545, 7546, 7547, 7548, 7549, 7550, 7551, 7552
7553, 7554, 7555, 7556, 7557, 7558, 7559, 7560, 7561, 7562, 7563, 7564, 7565, 7566, 7567, 7568
7569, 7570, 7571, 7572, 7573, 7574, 7575, 7576, 7577, 7578, 7579, 7580, 7581, 7582, 7583, 7584
7585, 7586, 7587, 7588, 7589, 7590, 7591, 7592, 7593, 7594, 7595, 7596, 7597, 7598, 7599, 7600
7601, 7602, 7603, 7604, 7605, 7606, 7607, 7608, 7609, 7610, 7611, 7612, 7613, 7614, 7615, 7616
7617, 7618, 7619, 7620, 7621, 7622, 7623, 7624, 7625, 7626, 7627, 7628, 7629, 7630, 7631, 7632
7633, 7634, 7635, 7636, 7637, 7638, 7639, 7640, 7641, 7642, 7643, 7644, 7645, 7646, 7647, 7648
7649, 7650, 7651, 7652, 7653, 7654, 7655, 7656, 7657, 7658, 7659, 7660, 7661, 7662, 7663, 7664
7665, 7666, 7667, 7668, 7669, 7670, 7671, 7672, 7673, 7674, 7675, 7676, 7677, 7678, 7679, 7680
7681, 7682, 7683, 7684, 7685, 7686, 7687, 7688, 7689, 7690, 7691, 7692, 7693, 7694, 7695, 7696
7697, 7698, 7699, 7700, 7701, 7702, 7703, 7704, 7705, 7706, 7707, 7708, 7709, 7710, 7711, 7712
7713, 7714, 7715, 7716, 7717, 7718, 7719, 7720, 7721, 7722, 7723, 7724, 7725, 7726, 7727, 7728
7729, 7730, 7731, 7732, 7733, 7734, 7735, 7736, 7737, 7738, 7739, 7740, 7741, 7742, 7743, 7744
7745, 7746, 7747, 7748, 7749, 7750, 7751, 7752, 7753, 7754, 7755, 7756, 7757, 7758, 7759, 7760
7761, 7762, 7763, 7764, 7765, 7766, 7767, 7768, 7769, 7770, 7771, 7772, 7773, 7774, 7775, 7776
7777, 7778, 7779, 7780, 7781, 7782, 7783, 7784, 7785, 7786, 7787, 7788, 7789, 7790, 7791, 7792
7793, 7794, 7795, 7796, 7797, 7798, 7799, 7800, 7801, 7802, 7803, 7804, 7805, 7806, 7807, 7808
7809, 7810, 7811, 7812, 7813, 7814, 7815, 7816, 7817, 7818, 7819, 7820, 7821, 7822, 7823, 7824
7825, 7826, 7827, 7828, 7829, 7830, 7831, 7832, 7833, 7834, 7835, 7836, 7837, 7838, 7839, 7840
7841, 7842, 7843, 7844, 7845, 7846, 7847, 7848, 7849, 7850, 7851, 7852, 7853, 7854, 7855, 7856
7857, 7858, 7859, 7860, 7861, 7862, 7863, 7864, 7865, 7866, 7867, 7868, 7869, 7870, 7871, 7872
7873, 7874, 7875, 7876, 7877, 7878, 7879, 7880, 7881, 7882, 7883, 7884, 7885, 7886, 7887, 7888
7889, 7890, 7891, 7892, 7893, 7894, 7895, 7896, 7897, 7898, 7899, 7900, 7901, 7902, 7903, 7904
7905, 7906, 7907, 7908, 7909, 7910, 7911, 7912, 7913, 7914, 7915, 7916, 7917, 7918, 7919, 7920
7921, 7922, 7923, 7924, 7925, 7926, 7927, 7928, 7929, 7930, 7931, 7932, 7933, 7934, 7935, 7936
7937, 7938, 7939, 7940, 7941, 7942, 7943, 7944, 7945, 7946, 7947, 7948, 7949, 7950, 7951, 7952
7953, 7954, 7955, 7956, 7957, 7958, 7959, 7960, 7961, 7962, 7963, 7964, 7965, 7966, 7967, 7968
7969, 7970, 7971, 7972, 7973, 7974, 7975, 7976, 7977, 7978, 7979, 7980, 7981, 7982, 7983, 7984
7985, 7986, 7987, 7988, 7989, 7990, 7991, 7992, 7993, 7994, 7995, 7996, 7997, 7998, 7999, 8000
8001, 8002, 8003, 8004, 8005, 8006, 8007, 8008, 8009, 8010, 8011, 8012, 8013, 8014, 8015, 8016
8017, 8018, 8019, 8020, 8021, 8022, 8023, 8024, 8025, 8026, 8027, 8028, 8029, 8030, 8031, 8032
8033, 8034, 8035, 8036, 8037, 8038, 8039, 8040, 8041, 8042, 8043, 8044, 8045, 8046, 8047, 8048
8049, 8050, 8051, 8052, 8053, 8054, 8055, 8056, 8057, 8058, 8059, 8060, 8061, 8062, 8063, 8064
8065, 8066, 8067, 8068, 8069, 8070, 8071, 8072, 8073, 8074, 8075, 8076, 8077, 8078, 8079, 8080
8081, 8082, 8083, 8084, 8085, 8086, 8087, 8088, 8089, 8090, 8091, 8092, 8093, 8094, 8095, 8096
8097, 8098, 8099, 8100, 8101, 8102, 8103, 8104, 8105, 8106, 8107, 8108, 8109, 8110, 8111, 8112
8113, 8114, 8115, 8116, 8117, 8118, 8119, 8120, 8121, 8122, 8123, 8124, 8125, 8126, 8127, 8128
8129, 8130, 8131, 8132, 8133, 8134, 8135, 8136, 8137, 8138, 8139, 8140, 8141, 8142, 8143, 8144
8145, 8146, 8147, 8148, 8149, 8150, 8151, 8152, 8153, 8154, 8155, 8156, 8157, 8158, 8159, 8160
8161, 8162, 8163, 8164, 8165, 8166, 8167, 8168, 8169, 8170, 8171, 8172, 8173, 8174, 8175, 8176
8177, 8178, 8179, 8180, 8181, 8182, 8183, 8184, 8185, 8186, 8187, 8188, 8189, 8190, 8191, 8192
8193, 8194, 8195, 8196, 8197, 8198, 8199, 8200, 8201, 8202, 8203, 8204, 8205, 8206, 8207, 8208
8209, 8210, 8211, 8212, 8213, 8214, 8215, 8216, 8217, 8218, 8219, 8220, 8221, 8222, 8223, 8224
8225, 8226, 8227, 8228, 8229, 8230, 8231, 8232, 8233, 8234, 8235, 8236, 8237, 8238, 8239, 8240
8241, 8242, 8243, 8244, 8245, 8246, 8247, 8248, 8249, 8250, 8251, 8252, 8253, 8254, 8255, 8256
8257, 8258, 8259, 8260, 8261, 8262, 8263, 8264, 8265, 8266, 8267, 8268, 8269, 8270, 8271, 8272
8273, 8274, 8275, 8276, 8277, 8278, 8279, 8280, 8281, 8282, 8283, 8284, 8285, 8286, 8287, 8288
8289, 8290, 8291, 8292, 8293, 8294, 8295, 8296, 8297, 8298, 8299, 8300, 8301, 8302, 8303, 8304
8305, 8306, 8307, 8308, 8309, 8310, 8311, 8312, 8313, 8314, 8315, 8316, 8317, 8318, 8319, 8320
8321, 8322, 8323, 8324, 8325, 8326, 8327, 8328, 8329, 8330, 8331, 8332, 8333, 8334, 8335, 8336
8337, 8338, 8339, 8340, 8341, 8342, 8343, 8344, 8345, 8346, 8347, 8348, 8349, 8350, 8351, 8352
8353, 8354, 8355, 8356, 8357, 8358, 8359, 8360, 8361, 8362, 8363, 8364, 8365, 8366, 8367, 8368
8369, 8370, 8371, 8372, 8373, 8374, 8375, 8376, 8377, 8378, 8379, 8380, 8381, 8382, 8383, 8384
8385, 8386, 8387, 8388, 8389, 8390, 8391, 8392, 8393, 8394, 8395, 8396, 8397, 8398, 8399, 8400
8401, 8402, 8403, 8404, 8405, 8406, 8407, 8408, 8409, 8410, 8411, 8412, 8413, 8414, 8415, 8416
8417, 8418, 8419, 8420, 8421, 8422, 8423, 8424, 8425, 8426, 8427, 8428, 8429, 8430, 8431, 8432
8433, 8434, 8435, 8436, 8437, 8438, 8439, 8440, 8441, 8442, 8443, 8444, 8445, 8446, 8447, 8448
8449, 8450, 8451, 8452, 8453, 8454, 8455, 8456, 8457, 8458, 8459, 8460, 8461, 8462, 8463, 8464
8465, 8466, 8467, 8468, 8469, 8470, 8471, 8472, 8473, 8474, 8475, 8476, 8477, 8478, 8479, 8480
8481, 8482, 8483, 8484, 8485, 8486, 8487, 8488, 8489, 8490, 8491, 8492, 8493, 8494, 8495, 8496
8497, 8498, 8499, 8500, 8501, 8502, 8503, 8504, 8505, 8506, 8507, 8508, 8509, 8510, 8511, 8512
8513, 8514, 8515, 8516, 8517, 8518, 8519, 8520, 8521, 8522, 8523, 8524, 8525, 8526, 8527, 8528
8529, 8530, 8531, 8532, 8533, 8534, 8535, 8536, 8537, 8538, 8539, 8540, 8541, 8542, 8543, 8544
8545, 8546, 8547, 8548, 8549, 8550, 8551, 8552, 8553, 8554, 8555, 8556, 8557, 8558, 8559, 8560
8561, 8562, 8563, 8564, 8565, 8566, 8567, 8568, 8569, 8570, 8571, 8572, 8573, 8574, 8575, 8576
8577, 8578, 8579, 8580, 8581, 8582, 8583, 8584, 8585, 8586, 8587, 8588, 8589, 8590, 8591, 8592
8593, 8594, 8595, 8596, 8597, 8598, 8599, 8600, 8601, 8602, 8603, 8604, 8605, 8606, 8607, 8608
8609, 8610, 8611, 8612, 8613, 8614, 8615, 8616, 8617, 8618, 8619, 8620, 8621, 8622, 8623, 8624
8625, 8626, 8627, 8628, 8629, 8630, 8631, 8632, 8633, 8634, 8635, 8636, 8637, 8638, 8639, 8640
8641, 8642, 8643, 8644, 8645, 8646, 8647, 8648, 8649, 8650, 8651, 8652, 8653, 8654, 8655, 8656
8657, 8658, 8659, 8660, 8661, 8662, 8663, 8664, 8665, 8666, 8667, 8668, 8669, 8670, 8671, 8672
8673, 8674, 8675, 8676, 8677, 8678, 8679, 8680, 8681, 8682, 8683, 8684, 8685, 8686, 8687, 8688
8689, 8690, 8691, 8692, 8693, 8694, 8695, 8696, 8697, 8698, 8699, 8700, 8701, 8702, 8703, 8704
8705, 8706, 8707, 8708, 8709, 8710, 8711, 8712, 8713, 8714, 8715, 8716, 8717, 8718, 8719, 8720
8721, 8722, 8723, 8724, 8725, 8726, 8727, 8728, 8729, 8730, 8731, 8732, 8733, 8734, 8735, 8736
8737, 8738, 8739, 8740, 8741, 8742, 8743, 8744, 8745, 8746, 8747, 8748, 8749, 8750, 8751, 8752
8753, 8754, 8755, 8756, 8757, 8758, 8759, 8760, 8761, 8762, 8763, 8764, 8765, 8766, 8767, 8768
8769, 8770, 8771, 8772, 8773, 8774, 8775, 8776, 8777, 8778, 8779, 8780, 8781, 8782, 8783, 8784
8785, 8786, 8787, 8788, 8789, 8790, 8791, 8792, 8793, 8794, 8795, 8796, 8797, 8798, 8799, 8800
8801, 8802, 8803, 8804, 8805, 8806, 8807, 8808, 8809, 8810, 8811, 8812, 8813, 8814, 8815, 8816
8817, 8818, 8819, 8820, 8821, 8822, 8823, 8824, 8825, 8826, 8827, 8828, 8829, 8830, 8831, 8832
8833, 8834, 8835, 8836, 8837, 8838, 8839, 8840, 8841, 8842, 8843, 8844, 8845, 8846, 8847, 8848
8849, 8850, 8851, 8852, 8853, 8854, 8855, 8856, 8857, 8858, 8859, 8860, 8861, 8862, 8863, 8864
8865, 8866, 8867, 8868, 8869, 8870, 8871, 8872, 8873, 8874, 8875, 8876, 8877, 8878, 8879, 8880
8881, 8882, 8883, 8884, 8885, 8886, 8887, 8888, 8889, 8890, 8891, 8892, 8893, 8894, 8895, 8896
8897, 8898, 8899, 8900, 8901, 8902, 8903, 8904, 8905, 8906, 8907, 8908, 8909, 8910, 8911, 8912
8913, 8914, 8915, 8916, 8917, 8918, 8919, 8920, 8921, 8922, 8923, 8924, 8925, 8926, 8927, 8928
8929, 8930, 8931, 8932, 8933, 8934, 8935, 8936, 8937, 8938, 8939, 8940, 8941, 8942, 8943, 8944
8945, 8946, 8947, 8948, 8949, 8950, 8951, 8952, 8953, 8954, 8955, 8956, 8957, 8958, 8959, 8960
8961, 8962, 8963, 8964, 8965, 8966, 8967, 8968, 8969, 8970, 8971, 8972, 8973, 8974, 8975, 8976
8977, 8978, 8979, 8980, 8981, 8982, 8983, 8984, 8985, 8986, 8987, 8988, 8989, 8990, 8991, 8992
8993, 8994, 8995, 8996, 8997, 8998, 8999, 9000, 9001, 9002, 9003, 9004, 9005, 9006, 9007, 9008
9009, 9010, 9011, 9012, 9013, 9014, 9015, 9016, 9017, 9018, 9019, 9020, 9021, 9022, 9023, 9024
9025, 9026, 9027, 9028, 9029, 9030, 9031, 9032, 9033, 9034, 9035, 9036, 9037, 9038, 9039, 9040
9041, 9042, 9043, 9044, 9045, 9046, 9047, 9048, 9049, 9050, 9051, 9052, 9053, 9054, 9055, 9056
9057, 9058, 9059, 9060, 9061, 9062, 9063, 9064, 9065, 9066, 9067, 9068, 9069, 9070, 9071, 9072
9073, 9074, 9075, 9076, 9077, 9078, 9079, 9080, 9081, 9082, 9083, 9084, 9085, 9086, 9087, 9088
9089, 9090, 9091, 9092, 9093, 9094, 9095, 9096, 9097, 9098, 9099, 9100, 9101, 9102, 9103, 9104
9105, 9106, 9107, 9108, 9109, 9110, 9111, 9112, 9113, 9114, 9115, 9116, 9117, 9118, 9119, 9120
9121, 9122, 9123, 9124, 9125, 9126, 9127, 9128, 9129, 9130, 9131, 9132, 9133, 9134, 9135, 9136
9137, 9138, 9139, 9140, 9141, 9142, 9143, 9144, 9145, 9146, 9147, 9148, 9149, 9150, 9151, 9152
9153, 9154, 9155, 9156, 9157, 9158, 9159, 9160, 9161, 9162, 9163, 9164, 9165, 9166, 9167, 9168
9169, 9170, 9171, 9172, 9173, 9174, 9175, 9176, 9177, 9178, 9179, 9180, 9181, 9182, 9183, 9184
9185, 9186, 9187, 9188, 9189, 9190, 9191, 9192, 9193, 9194, 9195, 9196, 9197, 9198, 9199, 9200
9201, 9202, 9203, 9204, 9205, 9206, 9207, 9208, 9209, 9210, 9211, 9212, 9213, 9214, 9215, 9216
9217, 9218, 9219, 9220, 9221, 9222, 9223, 9224, 9225, 9226, 9227, 9228, 9229, 9230, 9231, 9232
9233, 9234, 9235, 9236, 9237, 9238, 9239, 9240, 9241, 9242, 9243, 9244, 9245, 9246, 9247, 9248
9249, 9250, 9251, 9252, 9253, 9254, 9255, 9256, 9257, 9258, 9259, 9260, 9261, 9262, 9263, 9264
9265, 9266, 9267, 9268, 9269, 9270, 9271, 9272, 9273, 9274, 9275, 9276, 9277, 9278, 9279, 9280
9281, 9282, 9283, 9284, 9285, 9286, 9287, 9288, 9289, 9290, 9291, 9292, 9293, 9294, 9295, 9296
9297, 9298, 9299, 9300, 9301, 9302, 9303, 9304, 9305, 9306, 9307, 9308, 9309, 9310, 9311, 9312
9313, 9314, 9315, 9316, 9317, 9318, 9319, 9320, 9321, 9322, 9323, 9324, 9325, 9326, 9327, 9328
9329, 9330, 9331, 9332, 9333, 9334, 9335, 9336, 9337, 9338, 9339, 9340, 9341, 9342, 9343, 9344
9345, 9346, 9347, 9348, 9349, 9350, 9351, 9352, 9353, 9354, 9355, 9356, 9357, 9358, 9359, 9360
9361, 9362, 9363, 9364, 9365, 9366, 9367, 9368, 9369, 9370, 9371, 9372, 9373, 9374, 9375, 9376
9377, 9378, 9379, 9380, 9381, 9382, 9383, 9384, 9385, 9386, 9387, 9388, 9389, 9390, 9391, 9392
9393, 9394, 9395, 9396, 9397, 9398, 9399, 9400, 9401, 9402, 9403, 9404, 9405, 9406, 9407, 9408
9409, 9410, 9411, 9412, 9413, 9414, 9415, 9416, 9417, 9418, 9419, 9420, 9421, 9422, 9423, 9424
9425, 9426, 9427, 9428, 9429, 9430, 9431, 9432, 9433, 9434, 9435, 9436, 9437, 9438, 9439, 9440
9441, 9442, 9443, 9444, 9445, 9446, 9447, 9448, 9449, 9450, 9451, 9452, 9453, 9454, 9455, 9456
9457, 9458, 9459, 9460, 9461, 9462, 9463, 9464, 9465, 9466, 9467, 9468, 9469, 9470, 9471, 9472
9473, 9474, 9475, 9476, 9477, 9478, 9479, 9480, 9481, 9482, 9483, 9484, 9485, 9486, 9487, 9488
9489, 9490, 9491, 9492, 9493, 9494, 9495, 9496, 9497, 9498, 9499, 9500, 9501, 9502, 9503, 9504
9505, 9506, 9507, 9508, 9509, 9510, 9511, 9512, 9513, 9514, 9515, 9516, 9517, 9518, 9519, 9520
9521, 9522, 9523, 9524, 9525, 9526, 9527, 9528, 9529, 9530, 9531, 9532, 9533, 9534, 9535, 9536
9537, 9538, 9539, 9540, 9541, 9542, 9543, 9544, 9545, 9546, 9547, 9548, 9549, 9550, 9551, 9552
9553, 9554, 9555, 9556, 9557, 9558, 9559, 9560, 9561, 9562, 9563, 9564, 9565, 9566, 9567, 9568
9569, 9570, 9571, 9572, 9573, 9574, 9575, 9576, 9577, 9578, 9579, 9580, 9581, 9582, 9583, 9584
9585, 9586, 9587, 9588, 9589, 9590, 9591, 9592, 9593, 9594, 9595, 9596, 9597, 9598, 9599, 9600
9601, 9602, 9603, 9604, 9605, 9606, 9607, 9608, 9609, 9610, 9611, 9612, 9613, 9614, 9615, 9616
9617, 9618, 9619, 9620, 9621, 9622, 9623, 9624, 9625, 9626, 9627, 9628, 9629, 9630, 9631, 9632
9633, 9634, 9635, 9636, 9637, 9638, 9639, 9640, 9641, 9642, 9643, 9644, 9645, 9646, 9647, 9648
9649, 9650, 9651, 9652, 9653, 9654, 9655, 9656, 9657, 9658, 9659, 9660, 9661, 9662, 9663, 9664
9665, 9666, 9667, 9668, 9669, 9670, 9671, 9672, 9673, 9674, 9675, 9676, 9677, 9678, 9679, 9680
9681, 9682, 9683, 9684, 9685, 9686, 9687, 9688, 9689, 9690, 9691, 9692, 9693, 9694, 9695, 9696
9697, 9698, 9699, 9700, 9701, 9702, 9703, 9704, 9705, 9706, 9707, 9708, 9709, 9710, 9711, 9712
9713, 9714, 9715, 9716, 9717, 9718, 9719, 9720, 9721, 9722, 9723, 9724, 9725, 9726, 9727, 9728
9729, 9730, 9731, 9732, 9733, 9734, 9735, 9736, 9737, 9738, 9739, 9740, 9741, 9742, 9743, 9744
9745, 9746, 9747, 9748, 9749, 9750, 9751, 9752, 9753, 9754, 9755, 9756, 9757, 9758, 9759, 9760
9761, 9762, 9763, 9764, 9765, 9766, 9767, 9768, 9769, 9770, 9771, 9772, 9773, 9774, 9775, 9776
9777, 9778, 9779, 9780, 9781, 9782, 9783, 9784, 9785, 9786, 9787, 9788, 9789, 9790, 9791, 9792
9793, 9794, 9795, 9796, 9797, 9798, 9799, 9800, 9801, 9802, 9803, 9804, 9805, 9806, 9807, 9808
9809, 9810, 9811, 9812, 9813, 9814, 9815, 9816, 9817, 9818, 9819, 9820, 9821, 9822, 9823, 9824
9825, 9826, 9827, 9828, 9829, 9830, 9831, 9832, 9833, 9834, 9835, 9836, 9837, 9838, 9839, 9840
9841, 9842, 9843, 9844, 9845, 9846, 9847, 9848, 9849, 9850, 9851, 9852, 9853, 9854, 9855, 9856
9857, 9858, 9859, 9860, 9861, 9862, 9863, 9864, 9865, 9866, 9867, 9868, 9869, 9870, 9871, 9872
9873, 9874, 9875, 9876, 9877, 9878, 9879, 9880, 9881, 9882, 9883, 9884, 9885, 9886, 9887, 9888
9889, 9890, 9891, 9892, 9893, 9894, 9895, 9896, 9897, 9898, 9899, 9900, 9901, 9902, 9903, 9904
9905, 9906, 9907, 9908, 9909, 9910, 9911, 9912, 9913, 9914, 9915, 9916, 9917, 9918, 9919, 9920
9921, 9922, 9923, 9924, 9925, 9926, 9927, 9928, 9929, 9930, 9931, 9932, 9933, 9934, 9935, 9936
9937, 9938, 9939, 9940, 9941, 9942, 9943, 9944, 9945, 9946, 9947, 9948, 9949, 9950, 9951, 9952
9953, 9954, 9955, 9956, 9957, 9958, 9959, 9960, 9961, 9962, 9963, 9964, 9965, 9966, 9967, 9968
9969, 9970, 9971, 9972, 9973, 9974, 9975, 9976, 9977, 9978, 9979, 9980, 9981, 9982, 9983, 9984
9985, 9986, 9987, 9988, 9989, 9990, 9991, 9992, 9993, 9994, 9995, 9996, 9997, 9998, 9999, 10000
10001, 10002, 10003, 10004, 10005, 10006, 10007, 10008, 10009, 10010, 10011, 10012, 10013, 10014, 10015, 10016
10017, 10018, 10019, 10020, 10021, 10022, 10023, 10024, 10025, 10026, 10027, 10028, 10029, 10030, 10031, 10032
10033, 10034, 10035, 10036, 10037, 10038, 10039, 10040, 10041, 10042, 10043, 10044, 10045, 10046, 10047, 10048
10049, 10050, 10051, 10052, 10053, 10054, 10055, 10056, 10057, 10058, 10059, 10060, 10061, 10062, 10063, 10064
10065, 10066, 10067, 10068, 10069, 10070, 10071, 10072, 10073, 10074, 10075, 10076, 10077, 10078, 10079, 10080
10081, 10082, 10083, 10084, 10085, 10086, 10087, 10088, 10089, 10090, 10091, 10092, 10093, 10094, 10095, 10096
10097, 10098, 10099, 10100, 10101, 10102, 10103, 10104, 10105, 10106, 10107, 10108, 10109, 10110, 10111, 10112
10113, 10114, 10115, 10116, 10117, 10118, 10119, 10120, 10121, 10122, 10123, 10124, 10125, 10126, 10127, 10128
10129, 10130, 10131, 10132, 10133, 10134, 10135, 10136, 10137, 10138, 10139, 10140, 10141, 10142, 10143, 10144
10145, 10146, 10147, 10148, 10149, 10150, 10151, 10152, 10153, 10154, 10155, 10156, 10157, 10158, 10159, 10160
10161, 10162, 10163, 10164, 10165, 10166, 10167, 10168, 10169, 10170, 10171, 10172, 10173, 10174, 10175, 10176
10177, 10178, 10179, 10180, 10181, 10182, 10183, 10184, 10185, 10186, 10187, 10188, 10189, 10190, 10191, 10192
10193, 10194, 10195, 10196, 10197, 10198, 10199, 10200, 10201, 10202, 10203, 10204, 10205, 10206, 10207, 10208
10209, 10210, 10211, 10212, 10213, 10214, 10215, 10216, 10217, 10218, 10219, 10220, 10221, 10222, 10223, 10224
10225, 10226, 10227, 10228, 10229, 10230, 10231, 10232, 10233, 10234, 10235, 10236, 10237, 10238, 10239, 10240
10241, 10242, 10243, 10244, 10245, 10246, 10247, 10248, 10249, 10250, 10251, 10252, 10253, 10254, 10255, 10256
10257, 10258, 10259, 10260, 10261, 10262, 10263, 10264, 10265, 10266, 10267, 10268, 10269, 10270, 10271, 10272
10273, 10274, 10275, 10276, 10277, 10278, 10279, 10280, 10281, 10282, 10283, 10284, 10285, 10286, 10287, 10288
10289, 10290, 10291, 10292, 10293, 10294, 10295, 10296, 10297, 10298, 10299, 10300, 10301, 10302, 10303, 10304
10305, 10306, 10307, 10308, 10309, 10310, 10311, 10312, 10313, 10314, 10315, 10316, 10317, 10318, 10319, 10320
10321, 10322, 10323, 10324, 10325, 10326, 10327, 10328, 10329, 10330, 10331, 10332, 10333, 10334, 10335, 10336
10337, 10338, 10339, 10340, 10341, 10342, 10343, 10344, 10345, 10346, 10347, 10348, 10349, 10350, 10351, 10352
10353, 10354, 10355, 10356, 10357, 10358, 10359, 10360, 10361, 10362, 10363, 10364, 10365, 10366, 10367, 10368
10369, 10370, 10371, 10372, 10373, 10374, 10375, 10376, 10377, 10378, 10379, 10380, 10381, 10382, 10383, 10384
10385, 10386, 10387, 10388, 10389, 10390, 10391, 10392, 10393, 10394, 10395, 10396, 10397, 10398, 10399, 10400
10401, 10402, 10403, 10404, 10405, 10406, 10407, 10408, 10409, 10410, 10411, 10412, 10413, 10414, 10415, 10416
10417, 10418, 10419, 10420, 10421, 10422, 10423, 10424, 10425, 10426, 10427, 10428, 10429, 10430, 10431, 10432
10433, 10434, 10435, 10436, 10437, 10438, 10439, 10440, 10441, 10442, 10443, 10444, 10445, 10446, 10447, 10448
10449, 10450, 10451, 10452, 10453, 10454, 10455, 10456, 10457, 10458, 10459, 10460, 10461, 10462, 10463, 10464
10465, 10466, 10467, 10468, 10469, 10470, 10471, 10472, 10473, 10474, 10475, 10476, 10477, 10478, 10479, 10480
10481, 10482, 10483, 10484, 10485, 10486, 10487, 10488, 10489, 10490, 10491, 10492, 10493, 10494, 10495, 10496
10497, 10498, 10499, 10500, 10501, 10502, 10503, 10504, 10505, 10506, 10507, 10508, 10509, 10510, 10511, 10512
10513, 10514, 10515, 10516, 10517, 10518, 10519, 10520, 10521, 10522, 10523, 10524, 10525, 10526, 10527, 10528
10529, 10530, 10531, 10532, 10533, 10534, 10535, 10536, 10537, 10538, 10539, 10540, 10541, 10542, 10543, 10544
10545, 10546, 10547, 10548, 10549, 10550, 10551, 10552, 10553, 10554, 10555, 10556, 10557, 10558, 10559, 10560
10561, 10562, 10563, 10564, 10565, 10566, 10567, 10568, 10569, 10570, 10571, 10572, 10573, 10574, 10575, 10576
10577, 10578, 10579, 10580, 10581, 10582, 10583, 10584, 10585, 10586, 10587, 10588, 10589, 10590, 10591, 10592
10593, 10594, 10595, 10596, 10597, 10598, 10599, 10600, 10601, 10602, 10603, 10604, 10605, 10606, 10607, 10608
10609, 10610, 10611, 10612, 10613, 10614, 10615, 10616, 10617, 10618, 10619, 10620, 10621, 10622, 10623, 10624
10625, 10626, 10627, 10628, 10629, 10630, 10631, 10632, 10633, 10634, 10635, 10636, 10637, 10638, 10639, 10640
10641, 10642, 10643, 10644, 10645, 10646, 10647, 10648, 10649, 10650, 10651, 10652, 10653, 10654, 10655, 10656
10657, 10658, 10659, 10660, 10661, 10662, 10663, 10664, 10665, 10666, 10667, 10668, 10669, 10670, 10671, 10672
10673, 10674, 10675, 10676, 10677, 10678, 10679, 10680, 10681, 10682, 10683, 10684, 10685, 10686, 10687, 10688
10689, 10690, 10691, 10692, 10693, 10694, 10695, 10696, 10697, 10698, 10699, 10700, 10701, 10702, 10703, 10704
10705, 10706, 10707, 10708, 10709, 10710, 10711, 10712, 10713, 10714, 10715, 10716, 10717, 10718, 10719, 10720
10721, 10722, 10723, 10724, 10725, 10726, 10727, 10728, 10729, 10730, 10731, 10732, 10733, 10734, 10735, 10736
10737, 10738, 10739, 10740, 10741, 10742, 10743, 10744, 10745, 10746, 10747, 10748, 10749, 10750, 10751, 10752
10753, 10754, 10755, 10756, 10757, 10758, 10759, 10760, 10761, 10762, 10763, 10764, 10765, 10766, 10767, 10768
10769, 10770, 10771, 10772, 10773, 10774, 10775, 10776, 10777, 10778, 10779, 10780, 10781, 10782, 10783, 10784
10785, 10786, 10787, 10788, 10789, 10790, 10791, 10792, 10793, 10794, 10795, 10796, 10797, 10798, 10799, 10800
10801, 10802, 10803, 10804, 10805, 10806, 10807, 10808, 10809, 10810, 10811, 10812, 10813, 10814, 10815, 10816
10817, 10818, 10819, 10820, 10821, 10822, 10823, 10824, 10825, 10826, 10827, 10828, 10829, 10830, 10831, 10832
10833, 10834, 10835, 10836, 10837, 10838, 10839, 10840, 10841, 10842, 10843, 10844, 10845, 10846, 10847, 10848
10849, 10850, 10851, 10852, 10853, 10854, 10855, 10856, 10857, 10858, 10859, 10860, 10861, 10862, 10863, 10864
10865, 10866, 10867, 10868, 10869, 10870, 10871, 10872, 10873, 10874, 10875, 10876, 10877, 10878, 10879, 10880
10881, 10882, 10883, 10884, 10885, 10886, 10887, 10888, 10889, 10890, 10891, 10892, 10893, 10894, 10895, 10896
10897, 10898, 10899, 10900, 10901, 10902, 10903, 10904, 10905, 10906, 10907, 10908, 10909, 10910, 10911, 10912
10913, 10914, 10915, 10916, 10917, 10918, 10919, 10920, 10921, 10922, 10923, 10924, 10925, 10926, 10927, 10928
10929, 10930, 10931, 10932, 10933, 10934, 10935, 10936, 10937, 10938, 10939, 10940, 10941, 10942, 10943, 10944
10945, 10946, 10947, 10948, 10949, 10950, 10951, 10952, 10953, 10954, 10955, 10956, 10957, 10958, 10959, 10960
10961, 10962, 10963, 10964, 10965, 10966, 10967, 10968, 10969, 10970, 10971, 10972, 10973, 10974, 10975, 10976
10977, 10978, 10979, 10980, 10981, 10982, 10983, 10984, 10985, 10986, 10987, 10988, 10989, 10990, 10991, 10992
10993, 10994, 10995, 10996, 10997, 10998, 10999, 11000, 11001, 11002, 11003, 11004, 11005, 11006, 11007, 11008
11009, 11010, 11011, 11012, 11013, 11014, 11015, 11016, 11017, 11018, 11019, 11020, 11021, 11022, 11023, 11024
11025, 11026, 11027, 11028, 11029, 11030, 11031, 11032, 11033, 11034, 11035, 11036, 11037, 11038, 11039, 11040
11041, 11042, 11043, 11044, 11045, 11046, 11047, 11048, 11049, 11050, 11051, 11052, 11053, 11054, 11055, 11056
11057, 11058, 11059, 11060, 11061, 11062, 11063, 11064, 11065, 11066, 11067, 11068, 11069, 11070, 11071, 11072
11073, 11074, 11075, 11076, 11077, 11078, 11079, 11080, 11081, 11082, 11083, 11084, 11085, 11086, 11087, 11088
11089, 11090, 11091, 11092, 11093, 11094, 11095, 11096, 11097, 11098, 11099, 11100, 11101, 11102, 11103, 11104
11105, 11106, 11107, 11108, 11109, 11110, 11111, 11112, 11113, 11114, 11115, 11116, 11117, 11118, 11119, 11120
11121, 11122, 11123, 11124, 11125, 11126, 11127, 11128, 11129, 11130, 11131, 11132, 11133, 11134, 11135, 11136
11137, 11138, 11139, 11140, 11141, 11142, 11143, 11144, 11145, 11146, 11147, 11148, 11149, 11150, 11151, 11152
11153, 11154, 11155, 11156, 11157, 11158, 11159, 11160, 11161, 11162, 11163, 11164, 11165, 11166, 11167, 11168
11169, 11170, 11171, 11172, 11173, 11174, 11175, 11176, 11177, 11178, 11179, 11180, 11181, 11182, 11183, 11184
11185, 11186, 11187, 11188, 11189, 11190, 11191, 11192, 11193, 11194, 11195, 11196, 11197, 11198, 11199, 11200
11201, 11202, 11203, 11204, 11205, 11206, 11207, 11208, 11209, 11210, 11211, 11212, 11213, 11214, 11215, 11216
11217, 11218, 11219, 11220, 11221, 11222, 11223, 11224, 11225, 11226, 11227, 11228, 11229, 11230, 11231, 11232
11233, 11234, 11235, 11236, 11237, 11238, 11239, 11240, 11241, 11242, 11243, 11244, 11245, 11246, 11247, 11248
11249, 11250, 11251, 11252, 11253, 11254, 11255, 11256, 11257, 11258, 11259, 11260, 11261, 11262, 11263, 11264
11265, 11266, 11267, 11268, 11269, 11270, 11271, 11272, 11273, 11274, 11275, 11276, 11277, 11278, 11279, 11280
11281, 11282, 11283, 11284, 11285, 11286, 11287, 11288, 11289, 11290, 11291, 11292, 11293, 11294, 11295, 11296
11297, 11298, 11299, 11300, 11301, 11302, 11303, 11304, 11305, 11306, 11307, 11308, 11309, 11310, 11311, 11312
11313, 11314, 11315, 11316, 11317, 11318, 11319, 11320, 11321, 11322, 11323, 11324, 11325, 11326, 11327, 11328
11329, 11330, 11331, 11332, 11333, 11334, 11335, 11336, 11337, 11338, 11339, 11340, 11341, 11342, 11343, 11344
11345, 11346, 11347, 11348, 11349, 11350, 11351, 11352, 11353, 11354, 11355, 11356, 11357, 11358, 11359, 11360
11361, 11362, 11363, 11364, 11365, 11366, 11367, 11368, 11369, 11370, 11371, 11372, 11373, 11374, 11375, 11376
11377, 11378, 11379, 11380, 11381, 11382, 11383, 11384, 11385, 11386, 11387, 11388, 11389, 11390, 11391, 11392
11393, 11394, 11395, 11396, 11397, 11398, 11399, 11400, 11401, 11402, 11403, 11404, 11405, 11406, 11407, 11408
11409, 11410, 11411, 11412, 11413, 11414, 11415, 11416, 11417, 11418, 11419, 11420, 11421, 11422, 11423, 11424
11425, 11426, 11427, 11428, 11429, 11430, 11431, 11432, 11433, 11434, 11435, 11436, 11437, 11438, 11439, 11440
11441, 11442, 11443, 11444, 11445, 11446, 11447, 11448, 11449, 11450, 11451, 11452, 11453, 11454, 11455, 11456
11457, 11458, 11459, 11460, 11461, 11462, 11463, 11464, 11465, 11466, 11467, 11468, 11469, 11470, 11471, 11472
11473, 11474, 11475, 11476, 11477, 11478, 11479, 11480, 11481, 11482, 11483, 11484, 11485, 11486, 11487, 11488
11489, 11490, 11491, 11492, 11493, 11494, 11495, 11496, 11497, 11498, 11499, 11500, 11501, 11502, 11503, 11504
11505, 11506, 11507, 11508, 11509, 11510, 11511, 11512, 11513, 11514, 11515, 11516, 11517, 11518, 11519, 11520
11521, 11522, 11523, 11524, 11525, 11526, 11527, 11528, 11529, 11530, 11531, 11532, 11533, 11534, 11535, 11536
11537, 11538, 11539, 11540, 11541, 11542, 11543, 11544, 11545, 11546, 11547, 11548, 11549, 11550, 11551, 11552
11553, 11554, 11555, 11556, 11557, 11558, 11559, 11560, 11561, 11562, 11563, 11564, 11565, 11566, 11567, 11568
11569, 11570, 11571, 11572, 11573, 11574, 11575, 11576, 11577, 11578, 11579, 11580, 11581, 11582, 11583, 11584
11585, 11586, 11587, 11588, 11589, 11590, 11591, 11592, 11593, 11594, 11595, 11596, 11597, 11598, 11599, 11600
11601, 11602, 11603, 11604, 11605, 11606, 11607, 11608, 11609, 11610, 11611, 11612, 11613, 11614, 11615, 11616
11617, 11618, 11619, 11620, 11621, 11622, 11623, 11624, 11625, 11626, 11627, 11628, 11629, 11630, 11631, 11632
11633, 11634, 11635, 11636, 11637, 11638, 11639, 11640, 11641, 11642, 11643, 11644, 11645, 11646, 11647, 11648
11649, 11650, 11651, 11652, 11653, 11654, 11655, 11656, 11657, 11658, 11659, 11660, 11661, 11662, 11663, 11664
11665, 11666, 11667, 11668, 11669, 11670, 11671, 11672, 11673, 11674, 11675, 11676, 11677, 11678, 11679, 11680
11681, 11682, 11683, 11684, 11685, 11686, 11687, 11688, 11689, 11690, 11691, 11692, 11693, 11694, 11695, 11696
11697, 11698, 11699, 11700, 11701, 11702, 11703, 11704, 11705, 11706, 11707, 11708, 11709, 11710, 11711, 11712
11713, 11714, 11715, 11716, 11717, 11718, 11719, 11720, 11721, 11722, 11723, 11724, 11725, 11726, 11727, 11728
11729, 11730, 11731, 11732, 11733, 11734, 11735, 11736, 11737, 11738, 11739, 11740, 11741, 11742, 11743, 11744
11745, 11746, 11747, 11748, 11749, 11750, 11751, 11752, 11753, 11754, 11755, 11756, 11757, 11758, 11759, 11760
11761, 11762, 11763, 11764, 11765, 11766, 11767, 11768, 11769, 11770, 11771, 11772, 11773, 11774, 11775, 11776
11777, 11778, 11779, 11780, 11781, 11782, 11783, 11784, 11785, 11786, 11787, 11788, 11789, 11790, 11791, 11792
11793, 11794, 11795, 11796, 11797, 11798, 11799, 11800, 11801, 11802, 11803, 11804, 11805, 11806, 11807, 11808
11809, 11810, 11811, 11812, 11813, 11814, 11815, 11816, 11817, 11818, 11819, 11820, 11821, 11822, 11823, 11824
11825, 11826, 11827, 11828, 11829, 11830, 11831, 11832, 11833, 11834, 11835, 11836, 11837, 11838, 11839, 11840
11841, 11842, 11843, 11844, 11845, 11846, 11847, 11848, 11849, 11850, 11851, 11852, 11853, 11854, 11855, 11856
11857, 11858, 11859, 11860, 11861, 11862, 11863, 11864, 11865, 11866, 11867, 11868, 11869, 11870, 11871, 11872
11873, 11874, 11875, 11876, 11877, 11878, 11879, 11880, 11881, 11882, 11883, 11884, 11885, 11886, 11887, 11888
11889, 11890, 11891, 11892, 11893, 11894, 11895, 11896, 11897, 11898, 11899, 11900, 11901, 11902, 11903, 11904
11905, 11906, 11907, 11908, 11909, 11910, 11911, 11912, 11913, 11914, 11915, 11916, 11917, 11918, 11919, 11920
11921, 11922, 11923, 11924, 11925, 11926, 11927, 11928, 11929, 11930, 11931, 11932, 11933, 11934, 11935, 11936
11937, 11938, 11939, 11940, 11941, 11942, 11943, 11944, 11945, 11946, 11947, 11948, 11949, 11950, 11951, 11952
11953, 11954, 11955, 11956, 11957, 11958, 11959, 11960, 11961, 11962, 11963, 11964, 11965, 11966, 11967, 11968
11969, 11970, 11971, 11972, 11973, 11974, 11975, 11976, 11977, 11978, 11979, 11980, 11981, 11982, 11983, 11984
11985, 11986, 11987, 11988, 11989, 11990, 11991, 11992, 11993, 11994, 11995, 11996, 11997, 11998, 11999, 12000
12001, 12002, 12003, 12004, 12005, 12006, 12007, 12008, 12009, 12010, 12011, 12012, 12013, 12014, 12015, 12016
12017, 12018, 12019, 12020, 12021, 12022, 12023, 12024, 12025, 12026, 12027, 12028, 12029, 12030, 12031, 12032
12033, 12034, 12035, 12036, 12037, 12038, 12039, 12040, 12041, 12042, 12043, 12044, 12045, 12046, 12047, 12048
12049, 12050, 12051, 12052, 12053, 12054, 12055, 12056, 12057, 12058, 12059, 12060, 12061, 12062, 12063, 12064
12065, 12066, 12067, 12068, 12069, 12070, 12071, 12072, 12073, 12074, 12075, 12076, 12077, 12078, 12079, 12080
12081, 12082, 12083, 12084, 12085, 12086, 12087, 12088, 12089, 12090, 12091, 12092, 12093, 12094, 12095, 12096
12097, 12098, 12099, 12100, 12101, 12102, 12103, 12104, 12105, 12106, 12107, 12108, 12109, 12110, 12111, 12112
12113, 12114, 12115, 12116, 12117, 12118, 12119, 12120, 12121, 12122, 12123, 12124, 12125, 12126, 12127, 12128
12129, 12130, 12131, 12132, 12133, 12134, 12135, 12136, 12137, 12138, 12139, 12140, 12141, 12142, 12143, 12144
12145, 12146, 12147, 12148, 12149, 12150, 12151, 12152, 12153, 12154, 12155, 12156, 12157, 12158, 12159, 12160
12161, 12162, 12163, 12164, 12165, 12166, 12167, 12168, 12169, 12170, 12171, 12172, 12173, 12174, 12175, 12176
12177, 12178, 12179, 12180, 12181, 12182, 12183, 12184, 12185, 12186, 12187, 12188, 12189, 12190, 12191, 12192
12193, 12194, 12195, 12196, 12197, 12198, 12199, 12200, 12201, 12202, 12203, 12204, 12205, 12206, 12207, 12208
12209, 12210, 12211, 12212, 12213, 12214, 12215, 12216, 12217, 12218, 12219, 12220, 12221, 12222, 12223, 12224
12225, 12226, 12227, 12228, 12229, 12230, 12231, 12232, 12233, 12234, 12235, 12236, 12237, 12238, 12239, 12240
12241, 12242, 12243, 12244, 12245, 12246, 12247, 12248, 12249, 12250, 12251, 12252, 12253, 12254, 12255, 12256
12257, 12258, 12259, 12260, 12261, 12262, 12263, 12264, 12265, 12266, 12267, 12268, 12269, 12270, 12271, 12272
12273, 12274, 12275, 12276, 12277, 12278, 12279, 12280, 12281, 12282, 12283, 12284, 12285, 12286, 12287, 12288
12289, 12290, 12291, 12292, 12293, 12294, 12295, 12296, 12297, 12298, 12299, 12300, 12301, 12302, 12303, 12304
12305, 12306, 12307, 12308, 12309, 12310, 12311, 12312, 12313, 12314, 12315, 12316, 12317, 12318, 12319, 12320
12321, 12322, 12323, 12324, 12325, 12326, 12327, 12328, 12329, 12330, 12331, 12332, 12333, 12334, 12335, 12336
12337, 12338, 12339, 12340, 12341, 12342, 12343, 12344, 12345, 12346, 12347, 12348, 12349, 12350, 12351, 12352
12353, 12354, 12355, 12356, 12357, 12358, 12359, 12360, 12361, 12362, 12363, 12364, 12365, 12366, 12367, 12368
12369, 12370, 12371, 12372, 12373, 12374, 12375, 12376, 12377, 12378, 12379, 12380, 12381, 12382, 12383, 12384
12385, 12386, 12387, 12388, 12389, 12390, 12391, 12392, 12393, 12394, 12395, 12396, 12397, 12398, 12399, 12400
12401, 12402, 12403, 12404, 12405, 12406, 12407, 12408, 12409, 12410, 12411, 12412, 12413, 12414, 12415, 12416
12417, 12418, 12419, 12420, 12421, 12422, 12423, 12424, 12425, 12426, 12427, 12428, 12429, 12430, 12431, 12432
12433, 12434, 12435, 12436, 12437, 12438, 12439, 12440, 12441, 12442, 12443, 12444, 12445, 12446, 12447, 12448
12449, 12450, 12451, 12452, 12453, 12454, 12455, 12456, 12457, 12458, 12459, 12460, 12461, 12462, 12463, 12464
12465, 12466, 12467, 12468, 12469, 12470, 12471, 12472, 12473, 12474, 12475, 12476, 12477, 12478, 12479, 12480
12481, 12482, 12483, 12484, 12485, 12486, 12487, 12488, 12489, 12490, 12491, 12492, 12493, 12494, 12495, 12496
12497, 12498, 12499, 12500, 12501, 12502, 12503, 12504, 12505, 12506, 12507, 12508, 12509, 12510, 12511, 12512
12513, 12514, 12515, 12516, 12517, 12518, 12519, 12520, 12521, 12522, 12523, 12524, 12525, 12526, 12527, 12528
12529, 12530, 12531, 12532, 12533, 12534, 12535, 12536, 12537, 12538, 12539, 12540, 12541, 12542, 12543, 12544
12545, 12546, 12547, 12548, 12549, 12550, 12551, 12552, 12553, 12554, 12555, 12556, 12557, 12558, 12559, 12560
12561, 12562, 12563, 12564, 12565, 12566, 12567, 12568, 12569, 12570, 12571, 12572, 12573, 12574, 12575, 12576
12577, 12578, 12579, 12580, 12581, 12582, 12583, 12584, 12585, 12586, 12587, 12588, 12589, 12590, 12591, 12592
12593, 12594, 12595, 12596, 12597, 12598, 12599, 12600, 12601, 12602, 12603, 12604, 12605, 12606, 12607, 12608
12609, 12610, 12611, 12612, 12613, 12614, 12615, 12616, 12617, 12618, 12619, 12620, 12621, 12622, 12623, 12624
12625, 12626, 12627, 12628, 12629, 12630, 12631, 12632, 12633, 12634, 12635, 12636, 12637, 12638, 12639, 12640
12641, 12642, 12643, 12644, 12645, 12646, 12647, 12648, 12649, 12650, 12651, 12652, 12653, 12654, 12655, 12656
12657, 12658, 12659, 12660, 12661, 12662, 12663, 12664, 12665, 12666, 12667, 12668, 12669, 12670, 12671, 12672
12673, 12674, 12675, 12676, 12677, 12678, 12679, 12680, 12681, 12682, 12683, 12684, 12685, 12686, 12687, 12688
12689, 12690, 12691, 12692, 12693, 12694, 12695, 12696, 12697, 12698, 12699, 12700, 12701, 12702, 12703, 12704
12705, 12706, 12707, 12708, 12709, 12710, 12711, 12712, 12713, 12714, 12715, 12716, 12717, 12718, 12719, 12720
12721, 12722, 12723, 12724, 12725, 12726, 12727, 12728, 12729, 12730, 12731, 12732, 12733, 12734, 12735, 12736
12737, 12738, 12739, 12740, 12741, 12742, 12743, 12744, 12745, 12746, 12747, 12748, 12749, 12750, 12751, 12752
12753, 12754, 12755, 12756, 12757, 12758, 12759, 12760, 12761, 12762, 12763, 12764, 12765, 12766, 12767, 12768
12769, 12770, 12771, 12772, 12773, 12774, 12775, 12776, 12777, 12778, 12779, 12780, 12781, 12782, 12783, 12784
12785, 12786, 12787, 12788, 12789, 12790, 12791, 12792, 12793, 12794, 12795, 12796, 12797, 12798, 12799, 12800
12801, 12802, 12803, 12804, 12805, 12806, 12807, 12808, 12809, 12810, 12811, 12812, 12813, 12814, 12815, 12816
12817, 12818, 12819, 12820, 12821, 12822, 12823, 12824, 12825, 12826, 12827, 12828, 12829, 12830, 12831, 12832
12833, 12834, 12835, 12836, 12837, 12838, 12839, 12840, 12841, 12842, 12843, 12844, 12845, 12846, 12847, 12848
12849, 12850, 12851, 12852, 12853, 12854, 12855, 12856, 12857, 12858, 12859, 12860, 12861, 12862, 12863, 12864
12865, 12866, 12867, 12868, 12869, 12870, 12871, 12872, 12873, 12874, 12875, 12876, 12877, 12878, 12879, 12880
12881, 12882, 12883, 12884, 12885, 12886, 12887, 12888, 12889, 12890, 12891, 12892, 12893, 12894, 12895, 12896
12897, 12898, 12899, 12900, 12901, 12902, 12903, 12904, 12905, 12906, 12907, 12908, 12909, 12910, 12911, 12912
12913, 12914, 12915, 12916, 12917, 12918, 12919, 12920, 12921, 12922, 12923, 12924, 12925, 12926, 12927, 12928
12929, 12930, 12931, 12932, 12933, 12934, 12935, 12936, 12937, 12938, 12939, 12940, 12941, 12942, 12943, 12944
12945, 12946, 12947, 12948, 12949, 12950, 12951, 12952, 12953, 12954, 12955, 12956, 12957, 12958, 12959, 12960
12961, 12962, 12963, 12964, 12965, 12966, 12967, 12968, 12969, 12970, 12971, 12972, 12973, 12974, 12975, 12976
12977, 12978, 12979, 12980, 12981, 12982, 12983, 12984, 12985, 12986, 12987, 12988, 12989, 12990, 12991, 12992
12993, 12994, 12995, 12996, 12997, 12998, 12999, 13000, 13001, 13002, 13003, 13004, 13005, 13006, 13007, 13008
13009, 13010, 13011, 13012, 13013, 13014, 13015, 13016, 13017, 13018, 13019, 13020, 13021, 13022, 13023, 13024
13025, 13026, 13027, 13028, 13029, 13030, 13031, 13032, 13033, 13034, 13035, 13036, 13037, 13038, 13039, 13040
13041, 13042, 13043, 13044, 13045, 13046, 13047, 13048, 13049, 13050, 13051, 13052, 13053, 13054, 13055, 13056
13057, 13058, 13059, 13060, 13061, 13062, 13063, 13064, 13065, 13066, 13067, 13068, 13069, 13070, 13071, 13072
13073, 13074, 13075, 13076, 13077, 13078, 13079, 13080, 13081, 13082, 13083, 13084, 13085, 13086, 13087, 13088
13089, 13090, 13091, 13092, 13093, 13094, 13095, 13096, 13097, 13098, 13099, 13100, 13101, 13102, 13103, 13104
13105, 13106, 13107, 13108, 13109, 13110, 13111, 13112, 13113, 13114, 13115, 13116, 13117, 13118, 13119, 13120
13121, 13122, 13123, 13124, 13125, 13126, 13127, 13128, 13129, 13130, 13131, 13132, 13133, 13134, 13135, 13136
13137, 13138, 13139, 13140, 13141, 13142, 13143, 13144, 13145, 13146, 13147, 13148, 13149, 13150, 13151, 13152
13153, 13154, 13155, 13156, 13157, 13158, 13159, 13160, 13161, 13162, 13163, 13164, 13165, 13166, 13167, 13168
13169, 13170, 13171, 13172, 13173, 13174, 13175, 13176, 13177, 13178, 13179, 13180, 13181, 13182, 13183, 13184
13185, 13186, 13187, 13188, 13189, 13190, 13191, 13192, 13193, 13194, 13195, 13196, 13197, 13198, 13199, 13200
13201, 13202, 13203, 13204, 13205, 13206, 13207, 13208, 13209, 13210, 13211, 13212, 13213, 13214, 13215, 13216
13217, 13218, 13219, 13220, 13221, 13222, 13223, 13224, 13225, 13226, 13227, 13228, 13229, 13230, 13231, 13232
13233, 13234, 13235, 13236, 13237, 13238, 13239, 13240, 13241, 13242, 13243, 13244, 13245, 13246, 13247, 13248
13249, 13250, 13251, 13252, 13253, 13254, 13255, 13256, 13257, 13258, 13259, 13260, 13261, 13262, 13263, 13264
13265, 13266, 13267, 13268, 13269, 13270, 13271, 13272, 13273, 13274, 13275, 13276, 13277, 13278, 13279, 13280
13281, 13282, 13283, 13284, 13285, 13286, 13287, 13288, 13289, 13290, 13291, 13292, 13293, 13294, 13295, 13296
13297, 13298, 13299, 13300, 13301, 13302, 13303, 13304, 13305, 13306, 13307, 13308, 13309, 13310, 13311, 13312
13313, 13314, 13315, 13316, 13317, 13318, 13319, 13320, 13321, 13322, 13323, 13324, 13325, 13326, 13327, 13328
13329, 13330, 13331, 13332, 13333, 13334, 13335, 13336, 13337, 13338, 13339, 13340, 13341, 13342, 13343, 13344
13345, 13346, 13347, 13348, 13349, 13350, 13351, 13352, 13353, 13354, 13355, 13356, 13357, 13358, 13359, 13360
13361, 13362, 13363, 13364, 13365, 13366, 13367, 13368, 13369, 13370, 13371, 13372, 13373, 13374, 13375, 13376
13377, 13378, 13379, 13380, 13381, 13382, 13383, 13384, 13385, 13386, 13387, 13388, 13389, 13390, 13391, 13392
13393, 13394, 13395, 13396, 13397, 13398, 13399, 13400, 13401, 13402, 13403, 13404, 13405, 13406, 13407, 13408
13409, 13410, 13411, 13412, 13413, 13414, 13415, 13416, 13417, 13418, 13419, 13420, 13421, 13422, 13423, 13424
13425, 13426, 13427, 13428, 13429, 13430, 13431, 13432, 13433, 13434, 13435, 13436, 13437, 13438, 13439, 13440
13441, 13442, 13443, 13444, 13445, 13446, 13447, 13448, 13449, 13450, 13451, 13452, 13453, 13454, 13455, 13456
13457, 13458, 13459, 13460, 13461, 13462, 13463, 13464, 13465, 13466, 13467, 13468, 13469, 13470, 13471, 13472
13473, 13474, 13475, 13476, 13477, 13478, 13479, 13480, 13481, 13482, 13483, 13484, 13485, 13486, 13487, 13488
13489, 13490, 13491, 13492, 13493, 13494, 13495, 13496, 13497, 13498, 13499, 13500, 13501, 13502, 13503, 13504
13505, 13506, 13507, 13508, 13509, 13510, 13511, 13512, 13513, 13514, 13515, 13516, 13517, 13518, 13519, 13520
13521, 13522, 13523, 13524, 13525, 13526, 13527, 13528, 13529, 13530, 13531, 13532, 13533, 13534, 13535, 13536
13537, 13538, 13539, 13540, 13541, 13542, 13543, 13544, 13545, 13546, 13547, 13548, 13549, 13550, 13551, 13552
13553, 13554, 13555, 13556, 13557, 13558, 13559, 13560, 13561, 13562, 13563, 13564, 13565, 13566, 13567, 13568
13569, 13570, 13571, 13572, 13573, 13574, 13575, 13576, 13577, 13578, 13579, 13580, 13581, 13582, 13583, 13584
13585, 13586, 13587, 13588, 13589, 13590, 13591, 13592, 13593, 13594, 13595, 13596, 13597, 13598, 13599, 13600
13601, 13602, 13603, 13604, 13605, 13606, 13607, 13608, 13609, 13610, 13611, 13612, 13613, 13614, 13615, 13616
13617, 13618, 13619, 13620, 13621, 13622, 13623, 13624, 13625, 13626, 13627, 13628, 13629, 13630, 13631, 13632
13633, 13634, 13635, 13636, 13637, 13638, 13639, 13640, 13641, 13642, 13643, 13644, 13645, 13646, 13647, 13648
13649, 13650, 13651, 13652, 13653, 13654, 13655, 13656, 13657, 13658, 13659, 13660, 13661, 13662, 13663, 13664
13665, 13666, 13667, 13668, 13669, 13670, 13671, 13672, 13673, 13674, 13675, 13676, 13677, 13678, 13679, 13680
13681, 13682, 13683, 13684, 13685, 13686, 13687, 13688, 13689, 13690, 13691, 13692, 13693, 13694, 13695, 13696
13697, 13698, 13699, 13700, 13701, 13702, 13703, 13704, 13705, 13706, 13707, 13708, 13709, 13710, 13711, 13712
13713, 13714, 13715, 13716, 13717, 13718, 13719, 13720, 13721, 13722, 13723, 13724, 13725, 13726, 13727, 13728
13729, 13730, 13731, 13732, 13733, 13734, 13735, 13736, 13737, 13738, 13739, 13740, 13741, 13742, 13743, 13744
13745, 13746, 13747, 13748, 13749, 13750, 13751, 13752, 13753, 13754, 13755, 13756, 13757, 13758, 13759, 13760
13761, 13762, 13763, 13764, 13765, 13766, 13767, 13768, 13769, 13770, 13771, 13772, 13773, 13774, 13775, 13776
13777, 13778, 13779, 13780, 13781, 13782, 13783, 13784, 13785, 13786, 13787, 13788, 13789, 13790, 13791, 13792
13793, 13794, 13795, 13796, 13797, 13798, 13799, 13800, 13801, 13802, 13803, 13804, 13805, 13806, 13807, 13808
13809, 13810, 13811, 13812, 13813, 13814, 13815, 13816, 13817, 13818, 13819, 13820, 13821, 13822, 13823, 13824
13825, 13826, 13827, 13828, 13829, 13830, 13831, 13832, 13833, 13834, 13835, 13836, 13837, 13838, 13839, 13840
13841, 13842, 13843, 13844, 13845, 13846, 13847, 13848, 13849, 13850, 13851, 13852, 13853, 13854, 13855, 13856
13857, 13858, 13859, 13860, 13861, 13862, 13863, 13864, 13865, 13866, 13867, 13868, 13869, 13870, 13871, 13872
13873, 13874, 13875, 13876, 13877, 13878, 13879, 13880, 13881, 13882, 13883, 13884, 13885, 13886, 13887, 13888
13889, 13890, 13891, 13892, 13893, 13894, 13895, 13896, 13897, 13898, 13899, 13900, 13901, 13902, 13903, 13904
13905, 13906, 13907, 13908, 13909, 13910, 13911, 13912, 13913, 13914, 13915, 13916, 13917, 13918, 13919, 13920
13921, 13922, 13923, 13924, 13925, 13926, 13927, 13928, 13929, 13930, 13931, 13932, 13933, 13934, 13935, 13936
13937, 13938, 13939, 13940, 13941, 13942, 13943, 13944, 13945, 13946, 13947, 13948, 13949, 13950, 13951, 13952
13953, 13954, 13955, 13956, 13957, 13958, 13959, 13960, 13961, 13962, 13963, 13964, 13965, 13966, 13967, 13968
13969, 13970, 13971, 13972, 13973, 13974, 13975, 13976, 13977, 13978, 13979, 13980, 13981, 13982, 13983, 13984
13985, 13986, 13987, 13988, 13989, 13990, 13991, 13992, 13993, 13994, 13995, 13996, 13997, 13998, 13999, 14000
14001, 14002, 14003, 14004, 14005, 14006, 14007, 14008, 14009, 14010, 14011, 14012, 14013, 14014, 14015, 14016
14017, 14018, 14019, 14020, 14021, 14022, 14023, 14024, 14025, 14026, 14027, 14028, 14029, 14030, 14031, 14032
14033, 14034, 14035, 14036, 14037, 14038, 14039, 14040, 14041, 14042, 14043, 14044, 14045, 14046, 14047, 14048
14049, 14050, 14051, 14052, 14053, 14054, 14055, 14056, 14057, 14058, 14059, 14060, 14061, 14062, 14063, 14064
14065, 14066, 14067, 14068, 14069, 14070, 14071, 14072, 14073, 14074, 14075, 14076, 14077, 14078, 14079, 14080
14081, 14082, 14083, 14084, 14085, 14086, 14087, 14088, 14089, 14090, 14091, 14092, 14093, 14094, 14095, 14096
14097, 14098, 14099, 14100, 14101, 14102, 14103, 14104, 14105, 14106, 14107, 14108, 14109, 14110, 14111, 14112
14113, 14114, 14115, 14116, 14117, 14118, 14119, 14120, 14121, 14122, 14123, 14124, 14125, 14126, 14127, 14128
14129, 14130, 14131, 14132, 14133, 14134, 14135, 14136, 14137, 14138, 14139, 14140, 14141, 14142, 14143, 14144
14145, 14146, 14147, 14148, 14149, 14150, 14151, 14152, 14153, 14154, 14155, 14156, 14157, 14158, 14159, 14160
14161, 14162, 14163, 14164, 14165, 14166, 14167, 14168, 14169, 14170, 14171, 14172, 14173, 14174, 14175, 14176
14177, 14178, 14179, 14180, 14181, 14182, 14183, 14184, 14185, 14186, 14187, 14188, 14189, 14190, 14191, 14192
14193, 14194, 14195, 14196, 14197, 14198, 14199, 14200, 14201, 14202, 14203, 14204, 14205, 14206, 14207, 14208
14209, 14210, 14211, 14212, 14213, 14214, 14215, 14216, 14217, 14218, 14219, 14220, 14221, 14222, 14223, 14224
14225, 14226, 14227, 14228, 14229, 14230, 14231, 14232, 14233, 14234, 14235, 14236, 14237, 14238, 14239, 14240
14241, 14242, 14243, 14244, 14245, 14246, 14247, 14248, 14249, 14250, 14251, 14252, 14253, 14254, 14255, 14256
14257, 14258, 14259, 14260, 14261, 14262, 14263, 14264, 14265, 14266, 14267, 14268, 14269, 14270, 14271, 14272
14273, 14274, 14275, 14276, 14277, 14278, 14279, 14280, 14281, 14282, 14283, 14284, 14285, 14286, 14287, 14288
14289, 14290, 14291, 14292, 14293, 14294, 14295, 14296, 14297, 14298, 14299, 14300, 14301, 14302, 14303, 14304
14305, 14306, 14307, 14308, 14309, 14310, 14311, 14312, 14313, 14314, 14315, 14316, 14317, 14318, 14319, 14320
14321, 14322, 14323, 14324, 14325, 14326, 14327, 14328, 14329, 14330, 14331, 14332, 14333, 14334, 14335, 14336
14337, 14338, 14339, 14340, 14341, 14342, 14343, 14344, 14345, 14346, 14347, 14348, 14349, 14350, 14351, 14352
14353, 14354, 14355, 14356, 14357, 14358, 14359, 14360, 14361, 14362, 14363, 14364, 14365, 14366, 14367, 14368
14369, 14370, 14371, 14372, 14373, 14374, 14375, 14376, 14377, 14378, 14379, 14380, 14381, 14382, 14383, 14384
14385, 14386, 14387, 14388, 14389, 14390, 14391, 14392, 14393, 14394, 14395, 14396, 14397, 14398, 14399, 14400
14401, 14402, 14403, 14404, 14405, 14406, 14407, 14408, 14409, 14410, 14411, 14412, 14413, 14414, 14415, 14416
14417, 14418, 14419, 14420, 14421, 14422, 14423, 14424, 14425, 14426, 14427, 14428, 14429, 14430, 14431, 14432
14433, 14434, 14435, 14436, 14437, 14438, 14439, 14440, 14441, 14442, 14443, 14444, 14445, 14446, 14447, 14448
14449, 14450, 14451, 14452, 14453, 14454, 14455, 14456, 14457, 14458, 14459, 14460, 14461, 14462, 14463, 14464
14465, 14466, 14467, 14468, 14469, 14470, 14471, 14472, 14473, 14474, 14475, 14476, 14477, 14478, 14479, 14480
14481, 14482, 14483, 14484, 14485, 14486, 14487, 14488, 14489, 14490, 14491, 14492, 14493, 14494, 14495, 14496
14497, 14498, 14499, 14500, 14501, 14502, 14503, 14504, 14505, 14506, 14507, 14508, 14509, 14510, 14511, 14512
14513, 14514, 14515, 14516, 14517, 14518, 14519, 14520, 14521, 14522, 14523, 14524, 14525, 14526, 14527, 14528
14529, 14530, 14531, 14532, 14533, 14534, 14535, 14536, 14537, 14538, 14539, 14540, 14541, 14542, 14543, 14544
14545, 14546, 14547, 14548, 14549, 14550, 14551, 14552, 14553, 14554, 14555, 14556, 14557, 14558, 14559, 14560
14561, 14562, 14563, 14564, 14565, 14566, 14567, 14568, 14569, 14570, 14571, 14572, 14573, 14574, 14575, 14576
14577, 14578, 14579, 14580, 14581, 14582, 14583, 14584, 14585, 14586, 14587, 14588, 14589, 14590, 14591, 14592
14593, 14594, 14595, 14596, 14597, 14598, 14599, 14600, 14601, 14602, 14603, 14604, 14605, 14606, 14607, 14608
14609, 14610, 14611, 14612, 14613, 14614, 14615, 14616, 14617, 14618, 14619, 14620, 14621, 14622, 14623, 14624
14625, 14626, 14627, 14628, 14629, 14630, 14631, 14632, 14633, 14634, 14635, 14636, 14637, 14638, 14639, 14640
14641, 14642, 14643, 14644, 14645, 14646, 14647, 14648, 14649, 14650, 14651, 14652, 14653, 14654, 14655, 14656
14657, 14658, 14659, 14660, 14661, 14662, 14663, 14664, 14665, 14666, 14667, 14668, 14669, 14670, 14671, 14672
14673, 14674, 14675, 14676, 14677, 14678, 14679, 14680, 14681, 14682, 14683, 14684, 14685, 14686, 14687, 14688
14689, 14690, 14691, 14692, 14693, 14694, 14695, 14696, 14697, 14698, 14699, 14700, 14701, 14702, 14703, 14704
14705, 14706, 14707, 14708, 14709, 14710, 14711, 14712, 14713, 14714, 14715, 14716, 14717, 14718, 14719, 14720
14721, 14722, 14723, 14724, 14725, 14726, 14727, 14728, 14729, 14730, 14731, 14732, 14733, 14734, 14735, 14736
14737, 14738, 14739, 14740, 14741, 14742, 14743, 14744, 14745, 14746, 14747, 14748, 14749, 14750, 14751, 14752
14753, 14754, 14755, 14756, 14757, 14758, 14759, 14760, 14761, 14762, 14763, 14764, 14765, 14766, 14767, 14768
14769, 14770, 14771, 14772, 14773, 14774, 14775, 14776, 14777, 14778, 14779, 14780, 14781, 14782, 14783, 14784
14785, 14786, 14787, 14788, 14789, 14790, 14791, 14792, 14793, 14794, 14795, 14796, 14797, 14798, 14799, 14800
14801, 14802, 14803, 14804, 14805, 14806, 14807, 14808, 14809, 14810, 14811, 14812, 14813, 14814, 14815, 14816
14817, 14818, 14819, 14820, 14821, 14822, 14823, 14824, 14825, 14826, 14827, 14828, 14829, 14830, 14831, 14832
14833, 14834, 14835, 14836, 14837, 14838, 14839, 14840, 14841, 14842, 14843, 14844, 14845, 14846, 14847, 14848
14849, 14850, 14851, 14852, 14853, 14854, 14855, 14856, 14857, 14858, 14859, 14860, 14861, 14862, 14863, 14864
14865, 14866, 14867, 14868, 14869, 14870, 14871, 14872, 14873, 14874, 14875, 14876, 14877, 14878, 14879, 14880
14881, 14882, 14883, 14884, 14885, 14886, 14887, 14888, 14889, 14890, 14891, 14892, 14893, 14894, 14895, 14896
14897, 14898, 14899, 14900, 14901, 14902, 14903, 14904, 14905, 14906, 14907, 14908, 14909, 14910, 14911, 14912
14913, 14914, 14915, 14916, 14917, 14918, 14919, 14920, 14921, 14922, 14923, 14924, 14925, 14926, 14927, 14928
14929, 14930, 14931, 14932, 14933, 14934, 14935, 14936, 14937, 14938, 14939, 14940, 14941, 14942, 14943, 14944
14945, 14946, 14947, 14948, 14949, 14950, 14951, 14952, 14953, 14954, 14955, 14956, 14957, 14958, 14959, 14960
14961, 14962, 14963, 14964, 14965, 14966, 14967, 14968, 14969, 14970, 14971, 14972, 14973, 14974, 14975, 14976
14977, 14978, 14979, 14980, 14981, 14982, 14983, 14984, 14985, 14986, 14987, 14988, 14989, 14990, 14991, 14992
14993, 14994, 14995, 14996, 14997, 14998, 14999, 15000, 15001, 15002, 15003, 15004, 15005, 15006, 15007, 15008
15009, 15010, 15011, 15012, 15013, 15014, 15015, 15016, 15017, 15018, 15019, 15020, 15021, 15022, 15023, 15024
15025, 15026, 15027, 15028, 15029, 15030, 15031, 15032, 15033, 15034, 15035, 15036, 15037, 15038, 15039, 15040
15041, 15042, 15043, 15044, 15045, 15046, 15047, 15048, 15049, 15050, 15051, 15052, 15053, 15054, 15055, 15056
15057, 15058, 15059, 15060, 15061, 15062, 15063, 15064, 15065, 15066, 15067, 15068, 15069, 15070, 15071, 15072
15073, 15074, 15075, 15076, 15077, 15078, 15079, 15080, 15081, 15082, 15083, 15084, 15085, 15086, 15087, 15088
15089, 15090, 15091, 15092, 15093, 15094, 15095, 15096, 15097, 15098, 15099, 15100, 15101, 15102, 15103, 15104
15105, 15106, 15107, 15108, 15109, 15110, 15111, 15112, 15113, 15114, 15115, 15116, 15117, 15118, 15119, 15120
15121, 15122, 15123, 15124, 15125, 15126, 15127, 15128, 15129, 15130, 15131, 15132, 15133, 15134, 15135, 15136
15137, 15138, 15139, 15140, 15141, 15142, 15143, 15144, 15145, 15146, 15147, 15148, 15149, 15150, 15151, 15152
15153, 15154, 15155, 15156, 15157, 15158, 15159, 15160, 15161, 15162, 15163, 15164, 15165, 15166, 15167, 15168
15169, 15170, 15171, 15172, 15173, 15174, 15175, 15176, 15177, 15178, 15179, 15180, 15181, 15182, 15183, 15184
15185, 15186, 15187, 15188, 15189, 15190, 15191, 15192, 15193, 15194, 15195, 15196, 15197, 15198, 15199, 15200
15201, 15202, 15203, 15204, 15205, 15206, 15207, 15208, 15209, 15210, 15211, 15212, 15213, 15214, 15215, 15216
15217, 15218, 15219, 15220, 15221, 15222, 15223, 15224, 15225, 15226, 15227, 15228, 15229, 15230, 15231, 15232
15233, 15234, 15235, 15236, 15237, 15238, 15239, 15240, 15241, 15242, 15243, 15244, 15245, 15246, 15247, 15248
15249, 15250, 15251, 15252, 15253, 15254, 15255, 15256, 15257, 15258, 15259, 15260, 15261, 15262, 15263, 15264
15265, 15266, 15267, 15268, 15269, 15270, 15271, 15272, 15273, 15274, 15275, 15276, 15277, 15278, 15279, 15280
15281, 15282, 15283, 15284, 15285, 15286, 15287, 15288, 15289, 15290, 15291, 15292, 15293, 15294, 15295, 15296
15297, 15298, 15299, 15300, 15301, 15302, 15303, 15304, 15305, 15306, 15307, 15308, 15309, 15310, 15311, 15312
15313, 15314, 15315, 15316, 15317, 15318, 15319, 15320, 15321, 15322, 15323, 15324, 15325, 15326, 15327, 15328
15329, 15330, 15331, 15332, 15333, 15334, 15335, 15336, 15337, 15338, 15339, 15340, 15341, 15342, 15343, 15344
15345, 15346, 15347, 15348, 15349, 15350, 15351, 15352, 15353, 15354, 15355, 15356, 15357, 15358, 15359, 15360
15361, 15362, 15363, 15364, 15365, 15366, 15367, 15368, 15369, 15370, 15371, 15372, 15373, 15374, 15375, 15376
15377, 15378, 15379, 15380, 15381, 15382, 15383, 15384, 15385, 15386, 15387, 15388, 15389, 15390, 15391, 15392
15393, 15394, 15395, 15396, 15397, 15398, 15399, 15400, 15401, 15402, 15403, 15404, 15405, 15406, 15407, 15408
15409, 15410, 15411, 15412, 15413, 15414, 15415, 15416, 15417, 15418, 15419, 15420, 15421, 15422, 15423, 15424
15425, 15426, 15427, 15428, 15429, 15430, 15431, 15432, 15433, 15434, 15435, 15436, 15437, 15438, 15439, 15440
15441, 15442, 15443, 15444, 15445, 15446, 15447, 15448, 15449, 15450, 15451, 15452, 15453, 15454, 15455, 15456
15457, 15458, 15459, 15460, 15461, 15462, 15463, 15464, 15465, 15466, 15467, 15468, 15469, 15470, 15471, 15472
15473, 15474, 15475, 15476, 15477, 15478, 15479, 15480, 15481, 15482, 15483, 15484, 15485, 15486, 15487, 15488
15489, 15490, 15491, 15492, 15493, 15494, 15495, 15496, 15497, 15498, 15499, 15500, 15501, 15502, 15503, 15504
15505, 15506, 15507, 15508, 15509, 15510, 15511, 15512, 15513, 15514, 15515, 15516, 15517, 15518, 15519, 15520
15521, 15522, 15523, 15524, 15525, 15526, 15527, 15528, 15529, 15530, 15531, 15532, 15533, 15534, 15535, 15536
15537, 15538, 15539, 15540, 15541, 15542, 15543, 15544, 15545, 15546, 15547, 15548, 15549, 15550, 15551, 15552
15553, 15554, 15555, 15556, 15557, 15558, 15559, 15560, 15561, 15562, 15563, 15564, 15565, 15566, 15567, 15568
15569, 15570, 15571, 15572, 15573, 15574, 15575, 15576, 15577, 15578, 15579, 15580, 15581, 15582, 15583, 15584
15585, 15586, 15587, 15588, 15589, 15590, 15591, 15592, 15593, 15594, 15595, 15596, 15597, 15598, 15599, 15600
15601, 15602, 15603, 15604, 15605, 15606, 15607, 15608, 15609, 15610, 15611, 15612, 15613, 15614, 15615, 15616
15617, 15618, 15619, 15620, 15621, 15622, 15623, 15624, 15625, 15626, 15627, 15628, 15629, 15630, 15631, 15632
15633, 15634, 15635, 15636, 15637, 15638, 15639, 15640, 15641, 15642, 15643, 15644, 15645, 15646, 15647, 15648
15649, 15650, 15651, 15652, 15653, 15654, 15655, 15656, 15657, 15658, 15659, 15660, 15661, 15662, 15663, 15664
15665, 15666, 15667, 15668, 15669, 15670, 15671, 15672, 15673, 15674, 15675, 15676, 15677, 15678, 15679, 15680
15681, 15682, 15683, 15684, 15685, 15686, 15687, 15688, 15689, 15690, 15691, 15692, 15693, 15694, 15695, 15696
15697, 15698, 15699, 15700, 15701, 15702, 15703, 15704, 15705, 15706, 15707, 15708, 15709, 15710, 15711, 15712
15713, 15714, 15715, 15716, 15717, 15718, 15719, 15720, 15721, 15722, 15723, 15724, 15725, 15726, 15727, 15728
15729, 15730, 15731, 15732, 15733, 15734, 15735, 15736, 15737, 15738, 15739, 15740, 15741, 15742, 15743, 15744
15745, 15746, 15747, 15748, 15749, 15750, 15751, 15752, 15753, 15754, 15755, 15756, 15757, 15758, 15759, 15760
15761, 15762, 15763, 15764, 15765, 15766, 15767, 15768, 15769, 15770, 15771, 15772, 15773, 15774, 15775, 15776
15777, 15778, 15779, 15780, 15781, 15782, 15783, 15784, 15785, 15786, 15787, 15788, 15789, 15790, 15791, 15792
15793, 15794, 15795, 15796, 15797, 15798, 15799, 15800, 15801, 15802, 15803, 15804, 15805, 15806, 15807, 15808
15809, 15810, 15811, 15812, 15813, 15814, 15815, 15816, 15817, 15818, 15819, 15820, 15821, 15822, 15823, 15824
15825, 15826, 15827, 15828, 15829, 15830, 15831, 15832, 15833, 15834, 15835, 15836, 15837, 15838, 15839, 15840
15841, 15842, 15843, 15844, 15845, 15846, 15847, 15848, 15849, 15850, 15851, 15852, 15853, 15854, 15855, 15856
15857, 15858, 15859, 15860, 15861, 15862, 15863, 15864, 15865, 15866, 15867, 15868, 15869, 15870, 15871, 15872
15873, 15874, 15875, 15876, 15877, 15878, 15879, 15880, 15881, 15882, 15883, 15884, 15885, 15886, 15887, 15888
15889, 15890, 15891, 15892, 15893, 15894, 15895, 15896, 15897, 15898, 15899, 15900, 15901, 15902, 15903, 15904
15905, 15906, 15907, 15908, 15909, 15910, 15911, 15912, 15913, 15914, 15915, 15916, 15917, 15918, 15919, 15920
15921, 15922, 15923, 15924, 15925, 15926, 15927, 15928, 15929, 15930, 15931, 15932, 15933, 15934, 15935, 15936
15937, 15938, 15939, 15940, 15941, 15942, 15943, 15944, 15945, 15946, 15947, 15948, 15949, 15950, 15951, 15952
15953, 15954, 15955, 15956, 15957, 15958, 15959, 15960, 15961, 15962, 15963, 15964, 15965, 15966, 15967, 15968
15969, 15970, 15971, 15972, 15973, 15974, 15975, 15976, 15977, 15978, 15979, 15980, 15981, 15982, 15983, 15984
15985, 15986, 15987, 15988, 15989, 15990, 15991, 15992, 15993, 15994, 15995, 15996, 15997, 15998, 15999, 16000
16001, 16002, 16003, 16004, 16005, 16006, 16007, 16008, 16009, 16010, 16011, 16012, 16013, 16014, 16015, 16016
16017, 16018, 16019, 16020, 16021, 16022, 16023, 16024, 16025, 16026, 16027, 16028, 16029, 16030, 16031, 16032
16033, 16034, 16035, 16036, 16037, 16038, 16039, 16040, 16041, 16042, 16043, 16044, 16045, 16046, 16047, 16048
16049, 16050, 16051, 16052, 16053, 16054, 16055, 16056, 16057, 16058, 16059, 16060, 16061, 16062, 16063, 16064
16065, 16066, 16067, 16068, 16069, 16070, 16071, 16072, 16073, 16074, 16075, 16076, 16077, 16078, 16079, 16080
16081, 16082, 16083, 16084, 16085, 16086, 16087, 16088, 16089, 16090, 16091, 16092, 16093, 16094, 16095, 16096
16097, 16098, 16099, 16100, 16101, 16102, 16103, 16104, 16105, 16106, 16107, 16108, 16109, 16110, 16111, 16112
16113, 16114, 16115, 16116, 16117, 16118, 16119, 16120, 16121, 16122, 16123, 16124, 16125, 16126, 16127, 16128
16129, 16130, 16131, 16132, 16133, 16134, 16135, 16136, 16137, 16138, 16139, 16140, 16141, 16142, 16143, 16144
16145, 16146, 16147, 16148, 16149, 16150, 16151, 16152, 16153, 16154, 16155, 16156, 16157, 16158, 16159, 16160
16161, 16162, 16163, 16164, 16165, 16166, 16167, 16168, 16169, 16170, 16171, 16172, 16173, 16174, 16175, 16176
16177, 16178, 16179, 16180, 16181, 16182, 16183, 16184, 16185, 16186, 16187, 16188, 16189, 16190, 16191, 16192
16193, 16194, 16195, 16196, 16197, 16198, 16199, 16200, 16201, 16202, 16203, 16204, 16205, 16206, 16207, 16208
16209, 16210, 16211, 16212, 16213, 16214, 16215, 16216, 16217, 16218, 16219, 16220, 16221, 16222, 16223, 16224
16225, 16226, 16227, 16228, 16229, 16230, 16231, 16232, 16233, 16234, 16235, 16236, 16237, 16238, 16239, 16240
16241, 16242, 16243, 16244, 16245, 16246, 16247, 16248, 16249, 16250, 16251, 16252, 16253, 16254, 16255, 16256
16257, 16258, 16259, 16260, 16261, 16262, 16263, 16264, 16265, 16266, 16267, 16268, 16269, 16270, 16271, 16272
16273, 16274, 16275, 16276, 16277, 16278, 16279, 16280, 16281, 16282, 16283, 16284, 16285, 16286, 16287, 16288
16289, 16290, 16291, 16292, 16293, 16294, 16295, 16296, 16297, 16298, 16299, 16300, 16301, 16302, 16303, 16304
16305, 16306, 16307, 16308, 16309, 16310, 16311, 16312, 16313, 16314, 16315, 16316, 16317, 16318, 16319, 16320
16321, 16322, 16323, 16324, 16325, 16326, 16327, 16328, 16329, 16330, 16331, 16332, 16333, 16334, 16335, 16336
16337, 16338, 16339, 16340, 16341, 16342, 16343, 16344, 16345, 16346, 16347, 16348, 16349, 16350, 16351, 16352
16353, 16354, 16355, 16356, 16357, 16358, 16359, 16360, 16361, 16362, 16363, 16364, 16365, 16366, 16367, 16368
16369, 16370, 16371, 16372, 16373, 16374, 16375, 16376, 16377, 16378, 16379, 16380, 16381, 16382, 16383, 16384
16385, 16386, 16387, 16388, 16389, 16390, 16391, 16392, 16393, 16394, 16395, 16396, 16397, 16398, 16399, 16400
16401, 16402, 16403, 16404, 16405, 16406, 16407, 16408, 16409, 16410, 16411, 16412, 16413, 16414, 16415, 16416
16417, 16418, 16419, 16420, 16421, 16422, 16423, 16424, 16425, 16426, 16427, 16428, 16429, 16430, 16431, 16432
16433, 16434, 16435, 16436, 16437, 16438, 16439, 16440, 16441, 16442, 16443, 16444, 16445, 16446, 16447, 16448
16449, 16450, 16451, 16452, 16453, 16454, 16455, 16456, 16457, 16458, 16459, 16460, 16461, 16462, 16463, 16464
16465, 16466, 16467, 16468, 16469, 16470, 16471, 16472, 16473, 16474, 16475, 16476, 16477, 16478, 16479, 16480
16481, 16482, 16483, 16484, 16485, 16486, 16487, 16488, 16489, 16490, 16491, 16492, 16493, 16494, 16495, 16496
16497, 16498, 16499, 16500, 16501, 16502, 16503, 16504, 16505, 16506, 16507, 16508, 16509, 16510, 16511, 16512
16513, 16514, 16515, 16516, 16517, 16518, 16519, 16520, 16521, 16522, 16523, 16524, 16525, 16526, 16527, 16528
16529, 16530, 16531, 16532, 16533, 16534, 16535, 16536, 16537, 16538, 16539, 16540, 16541, 16542, 16543, 16544
16545, 16546, 16547, 16548, 16549, 16550, 16551, 16552, 16553, 16554, 16555, 16556, 16557, 16558, 16559, 16560
16561, 16562, 16563, 16564, 16565, 16566, 16567, 16568, 16569, 16570, 16571, 16572, 16573, 16574, 16575, 16576
16577, 16578, 16579, 16580, 16581, 16582, 16583, 16584, 16585, 16586, 16587, 16588, 16589, 16590, 16591, 16592
16593, 16594, 16595, 16596, 16597, 16598, 16599, 16600, 16601, 16602, 16603, 16604, 16605, 16606, 16607, 16608
16609, 16610, 16611, 16612, 16613, 16614, 16615, 16616, 16617, 16618, 16619, 16620, 16621, 16622, 16623, 16624
16625, 16626, 16627, 16628, 16629, 16630, 16631, 16632, 16633, 16634, 16635, 16636, 16637, 16638, 16639, 16640
16641, 16642, 16643, 16644, 16645, 16646, 16647, 16648, 16649, 16650, 16651, 16652, 16653, 16654, 16655, 16656
16657, 16658, 16659, 16660, 16661, 16662, 16663, 16664, 16665, 16666, 16667, 16668, 16669, 16670, 16671, 16672
16673, 16674, 16675, 16676, 16677, 16678, 16679, 16680, 16681, 16682, 16683, 16684, 16685, 16686, 16687, 16688
16689, 16690, 16691, 16692, 16693, 16694, 16695, 16696, 16697, 16698, 16699, 16700, 16701, 16702, 16703, 16704
16705, 16706, 16707, 16708, 16709, 16710, 16711, 16712, 16713, 16714, 16715, 16716, 16717, 16718, 16719, 16720
16721, 16722, 16723, 16724, 16725, 16726, 16727, 16728, 16729, 16730, 16731, 16732, 16733, 16734, 16735, 16736
16737, 16738, 16739, 16740, 16741, 16742, 16743, 16744, 16745, 16746, 16747, 16748, 16749, 16750, 16751, 16752
16753, 16754, 16755, 16756, 16757, 16758, 16759, 16760, 16761, 16762, 16763, 16764, 16765, 16766, 16767, 16768
16769, 16770, 16771, 16772, 16773, 16774, 16775, 16776, 16777, 16778, 16779, 16780, 16781, 16782, 16783, 16784
16785, 16786, 16787, 16788, 16789, 16790, 16791, 16792, 16793, 16794, 16795, 16796, 16797, 16798, 16799, 16800
16801, 16802, 16803, 16804, 16805, 16806, 16807, 16808, 16809, 16810, 16811, 16812, 16813, 16814, 16815, 16816
16817, 16818, 16819, 16820, 16821, 16822, 16823, 16824, 16825, 16826, 16827, 16828, 16829, 16830, 16831, 16832
16833, 16834, 16835, 16836, 16837, 16838, 16839, 16840, 16841, 16842, 16843, 16844, 16845, 16846, 16847, 16848
16849, 16850, 16851, 16852, 16853, 16854, 16855, 16856, 16857, 16858, 16859, 16860, 16861, 16862, 16863, 16864
16865, 16866, 16867, 16868, 16869, 16870, 16871, 16872, 16873, 16874, 16875, 16876, 16877, 16878, 16879, 16880
16881, 16882, 16883, 16884, 16885, 16886, 16887, 16888, 16889, 16890, 16891, 16892, 16893, 16894, 16895, 16896
16897, 16898, 16899, 16900, 16901, 16902, 16903, 16904, 16905, 16906, 16907, 16908, 16909, 16910, 16911, 16912
16913, 16914, 16915, 16916, 16917, 16918, 16919, 16920, 16921, 16922, 16923, 16924, 16925, 16926, 16927, 16928
16929, 16930, 16931, 16932, 16933, 16934, 16935, 16936, 16937, 16938, 16939, 16940, 16941, 16942, 16943, 16944
16945, 16946, 16947, 16948, 16949, 16950, 16951, 16952, 16953, 16954, 16955, 16956, 16957, 16958, 16959, 16960
16961, 16962, 16963, 16964, 16965, 16966, 16967, 16968, 16969, 16970, 16971, 16972, 16973, 16974, 16975, 16976
16977, 16978, 16979, 16980, 16981, 16982, 16983, 16984, 16985, 16986, 16987, 16988, 16989, 16990, 16991, 16992
16993, 16994, 16995, 16996, 16997, 16998, 16999, 17000, 17001, 17002, 17003, 17004, 17005, 17006, 17007, 17008
17009, 17010, 17011, 17012, 17013, 17014, 17015, 17016, 17017, 17018, 17019, 17020, 17021, 17022, 17023, 17024
17025, 17026, 17027, 17028, 17029, 17030, 17031, 17032, 17033, 17034, 17035, 17036, 17037, 17038, 17039, 17040
17041, 17042, 17043, 17044, 17045, 17046, 17047, 17048, 17049, 17050, 17051, 17052, 17053, 17054, 17055, 17056
17057, 17058, 17059, 17060, 17061, 17062, 17063, 17064, 17065, 17066, 17067, 17068, 17069, 17070, 17071, 17072
17073, 17074, 17075, 17076, 17077, 17078, 17079, 17080, 17081, 17082, 17083, 17084, 17085, 17086, 17087, 17088
17089, 17090, 17091, 17092, 17093, 17094, 17095, 17096, 17097, 17098, 17099, 17100, 17101, 17102, 17103, 17104
17105, 17106, 17107, 17108, 17109, 17110, 17111, 17112, 17113, 17114, 17115, 17116, 17117, 17118, 17119, 17120
17121, 17122, 17123, 17124, 17125, 17126, 17127, 17128, 17129, 17130, 17131, 17132, 17133, 17134, 17135, 17136
17137, 17138, 17139, 17140, 17141, 17142, 17143, 17144, 17145, 17146, 17147, 17148, 17149, 17150, 17151, 17152
17153, 17154, 17155, 17156, 17157, 17158, 17159, 17160, 17161, 17162, 17163, 17164, 17165, 17166, 17167, 17168
17169, 17170, 17171, 17172, 17173, 17174, 17175, 17176, 17177, 17178, 17179, 17180, 17181, 17182, 17183, 17184
17185, 17186, 17187, 17188, 17189, 17190, 17191, 17192, 17193, 17194, 17195, 17196, 17197, 17198, 17199, 17200
17201, 17202, 17203, 17204, 17205, 17206, 17207, 17208, 17209, 17210, 17211, 17212, 17213, 17214, 17215, 17216
17217, 17218, 17219, 17220, 17221, 17222, 17223, 17224, 17225, 17226, 17227, 17228, 17229, 17230, 17231, 17232
17233, 17234, 17235, 17236, 17237, 17238, 17239, 17240, 17241, 17242, 17243, 17244, 17245, 17246, 17247, 17248
17249, 17250, 17251, 17252, 17253, 17254, 17255, 17256, 17257, 17258, 17259, 17260, 17261, 17262, 17263, 17264
17265, 17266, 17267, 17268, 17269, 17270, 17271, 17272, 17273, 17274, 17275, 17276, 17277, 17278, 17279, 17280
17281, 17282, 17283, 17284, 17285, 17286, 17287, 17288, 17289, 17290, 17291, 17292, 17293, 17294, 17295, 17296
17297, 17298, 17299, 17300, 17301, 17302, 17303, 17304, 17305, 17306, 17307, 17308, 17309, 17310, 17311, 17312
17313, 17314, 17315, 17316, 17317, 17318, 17319, 17320, 17321, 17322, 17323, 17324, 17325, 17326, 17327, 17328
17329, 17330, 17331, 17332, 17333, 17334, 17335, 17336, 17337, 17338, 17339, 17340, 17341, 17342, 17343, 17344
17345, 17346, 17347, 17348, 17349, 17350, 17351, 17352, 17353, 17354, 17355, 17356, 17357, 17358, 17359, 17360
17361, 17362, 17363, 17364, 17365, 17366, 17367, 17368, 17369, 17370, 17371, 17372, 17373, 17374, 17375, 17376
17377, 17378, 17379, 17380, 17381, 17382, 17383, 17384, 17385, 17386, 17387, 17388, 17389, 17390, 17391, 17392
17393, 17394, 17395, 17396, 17397, 17398, 17399, 17400, 17401, 17402, 17403, 17404, 17405, 17406, 17407, 17408
17409, 17410, 17411, 17412, 17413, 17414, 17415, 17416, 17417, 17418, 17419, 17420, 17421, 17422, 17423, 17424
17425, 17426, 17427, 17428, 17429, 17430, 17431, 17432, 17433, 17434, 17435, 17436, 17437, 17438, 17439, 17440
17441, 17442, 17443, 17444, 17445, 17446, 17447, 17448, 17449, 17450, 17451, 17452, 17453, 17454, 17455, 17456
17457, 17458, 17459, 17460, 17461, 17462, 17463, 17464, 17465, 17466, 17467, 17468, 17469, 17470, 17471, 17472
17473, 17474, 17475, 17476, 17477, 17478, 17479, 17480, 17481, 17482, 17483, 17484, 17485, 17486, 17487, 17488
17489, 17490, 17491, 17492, 17493, 17494, 17495, 17496, 17497, 17498, 17499, 17500, 17501, 17502, 17503, 17504
17505, 17506, 17507, 17508, 17509, 17510, 17511, 17512, 17513, 17514, 17515, 17516, 17517, 17518, 17519, 17520
17521, 17522, 17523, 17524, 17525, 17526, 17527, 17528, 17529, 17530, 17531, 17532, 17533, 17534, 17535, 17536
17537, 17538, 17539, 17540, 17541, 17542, 17543, 17544, 17545, 17546, 17547, 17548, 17549, 17550, 17551, 17552
17553, 17554, 17555, 17556, 17557, 17558, 17559, 17560, 17561, 17562, 17563, 17564, 17565, 17566, 17567, 17568
17569, 17570, 17571, 17572, 17573, 17574, 17575, 17576, 17577, 17578, 17579, 17580, 17581, 17582, 17583, 17584
17585, 17586, 17587, 17588, 17589, 17590, 17591, 17592, 17593, 17594, 17595, 17596, 17597, 17598, 17599, 17600
17601, 17602, 17603, 17604, 17605, 17606, 17607, 17608, 17609, 17610, 17611, 17612, 17613, 17614, 17615, 17616
17617, 17618, 17619, 17620, 17621, 17622, 17623, 17624, 17625, 17626, 17627, 17628, 17629, 17630, 17631, 17632
17633, 17634, 17635, 17636, 17637, 17638, 17639, 17640, 17641, 17642, 17643, 17644, 17645, 17646, 17647, 17648
17649, 17650, 17651, 17652, 17653, 17654, 17655, 17656, 17657, 17658, 17659, 17660, 17661, 17662, 17663, 17664
17665, 17666, 17667, 17668, 17669, 17670, 17671, 17672, 17673, 17674, 17675, 17676, 17677, 17678, 17679, 17680
17681, 17682, 17683, 17684, 17685, 17686, 17687, 17688, 17689, 17690, 17691, 17692, 17693, 17694, 17695, 17696
17697, 17698, 17699, 17700, 17701, 17702, 17703, 17704, 17705, 17706, 17707, 17708, 17709, 17710, 17711, 17712
17713, 17714, 17715, 17716, 17717, 17718, 17719, 17720, 17721, 17722, 17723, 17724, 17725, 17726, 17727, 17728
17729, 17730, 17731, 17732, 17733, 17734, 17735, 17736, 17737, 17738, 17739, 17740, 17741, 17742, 17743, 17744
17745, 17746, 17747, 17748, 17749, 17750, 17751, 17752, 17753, 17754, 17755, 17756, 17757, 17758, 17759, 17760
17761, 17762, 17763, 17764, 17765, 17766, 17767, 17768, 17769, 17770, 17771, 17772, 17773, 17774, 17775, 17776
17777, 17778
*MATERIAL, NAME=MATERIAL1
*ELASTIC
3000, 0.35
*SOLID SECTION, ELSET=FULLMESH, MATERIAL=MATERIAL1
*STEP, NAME=X-AXIS-TENSION, NLGEOM=NO
*STATIC
*OUTPUT, FIELD
*ELEMENT OUTPUT, DIRECTIONS=YES
IVOL, S
*NODE OUTPUT
U
*BOUNDARY
TOP, 2, 2, 0
BOTTOM, 2, 2, 0
LEFT, 1, 1, -5
RIGHT, 1, 1, 5

*ENDSTEP