*NODE
1, 2.4832726910673326, 0.23069869821199793, 0
2, 2.485741858422546, 0.2988282702193942, 0
3, 2.493149360488186, 0.3638756992414509, 0
4, 2.5054951972642523, 0.4258409852781681, 0
5, 2.522779368750746, 0.4847241283295457, 0
6, 2.5450018749476655, 0.5405251283955834, 0
7, 2.5721627158550118, 0.5932439854762814, 0
8, 2.6042618914727846, 0.6428806995716396, 0
9, 2.6412994018009845, 0.6894352706816582, 0
10, 2.6832752468396106, 0.7329076988063367, 0
11, 2.7301894265886637, 0.7732979839456761, 0
12, 2.7820419410481434, 0.8106061260996756, 0
13, 2.8388327902180492, 0.8448321252683351, 0
14, 2.9005619740983826, 0.8759759814516553, 0
15, 2.967229492689141, 0.9040376946496351, 0
16, 3.0388353459903277, 0.9290172648622755, 0
17, 3.11537953400194, 0.9509146920895768, 0
18, 3.196862056723979, 0.9697299763315375, 0
19, 3.283282914156445, 0.9854631175881591, 0
20, 3.3746421062993375, 0.9981141158594403, 0
21, 3.4709396331526565, 1.0076829711453825, 0
22, 3.5675002584303797, 1.0187877069132152, 0
23, 3.6596487458464835, 1.0360463466301686, 0
24, 3.747385095400967, 1.0594588902962423, 0
25, 3.830709307093833, 1.0890253379114374, 0
26, 3.909621380925079, 1.124745689475753, 0
27, 3.984121316894706, 1.1666199449891896, 0
28, 4.054209115002714, 1.214648104451747, 0
29, 4.119884775249103, 1.2688301678634255, 0
30, 4.1811482976338725, 1.3291661352242246, 0
31, 4.237999682157023, 1.3956560065341441, 0
32, 4.2904389288185545, 1.4682997817931853, 0
33, 4.338466037618467, 1.5470974610013473, 0
34, 4.382081008556759, 1.6320490441586286, 0
35, 4.421283841633433, 1.7231545312650332, 0
36, 4.4560745368484875, 1.8204139223205562, 0
37, 4.486453094201923, 1.9238272173252011, 0
38, 4.5124195136937395, 2.0333944162789668, 0
39, 4.533973795323936, 2.1491155191818527, 0
40, 4.551115939092514, 2.2709905260338608, 0
41, 4.563845944999473, 2.3990194368349886, 0
42, 4.575719468719428, 2.5287757128668704, 0
43, 4.5902921659269955, 2.6558328154111424, 0
44, 4.607564036622175, 2.780190744467801, 0
45, 4.6275350808049645, 2.9018495000368474, 0
46, 4.650205298475368, 3.020809082118282, 0
47, 4.675574689633382, 3.1370694907121046, 0
48, 4.703643254279009, 3.2506307258183167, 0
49, 4.734410992412247, 3.361492787436915, 0
50, 4.767877904033098, 3.4696556755679033, 0
51, 4.80404398914156, 3.5751193902112783, 0
52, 4.842909247737634, 3.6778839313670417, 0
53, 4.884473679821321, 3.777949299035194, 0
54, 4.928737285392619, 3.8753154932157337, 0
55, 4.975700064451528, 3.9699825139086617, 0
56, 5.0253620169980495, 4.0619503611139764, 0
57, 5.077723143032183, 4.151219034831681, 0
58, 5.132783442553929, 4.237788535061774, 0
59, 5.190542915563286, 4.321658861804253, 0
60, 5.251001562060257, 4.402830015059123, 0
61, 5.314159382044838, 4.481301994826379, 0
62, 5.37617071919968, 4.557379712429578, 0
63, 5.433189917207435, 4.631368079192274, 0
64, 5.485216976068099, 4.703267095114466, 0
65, 5.532251895781675, 4.773076760196157, 0
66, 5.5742946763481624, 4.840797074437344, 0
67, 5.611345317767561, 4.906428037838028, 0
68, 5.643403820039869, 4.969969650398209, 0
69, 5.67047018316509, 5.031421912117888, 0
70, 5.692544407143221, 5.090784822997064, 0
71, 5.709626491974264, 5.148058383035735, 0
72, 5.721716437658217, 5.203242592233905, 0
73, 5.728814244195083, 5.256337450591572, 0
74, 5.7309199115848575, 5.307342958108735, 0
75, 5.728033439827544, 5.356259114785395, 0
76, 5.720154828923142, 5.403085920621552, 0
77, 5.70728407887165, 5.447823375617207, 0
78, 5.68942118967307, 5.49047147977236, 0
79, 5.666566161327402, 5.531030233087009, 0
80, 5.638718993834643, 5.5694996355611535, 0
81, 5.605879687194797, 5.605879687194797, 0
82, 5.5694996355611535, 5.638718993834643, 0
83, 5.531030233087008, 5.666566161327401, 0
84, 5.49047147977236, 5.689421189673071, 0
85, 5.447823375617207, 5.70728407887165, 0
86, 5.403085920621552, 5.720154828923142, 0
87, 5.356259114785395, 5.728033439827544, 0
88, 5.307342958108735, 5.7309199115848575, 0
89, 5.2563374505915705, 5.728814244195082, 0
90, 5.203242592233905, 5.721716437658217, 0
91, 5.148058383035735, 5.709626491974264, 0
92, 5.090784822997064, 5.692544407143221, 0
93, 5.031421912117888, 5.67047018316509, 0
94, 4.969969650398209, 5.643403820039869, 0
95, 4.906428037838028, 5.611345317767561, 0
96, 4.840797074437344, 5.5742946763481624, 0
97, 4.773076760196157, 5.532251895781675, 0
98, 4.703267095114467, 5.4852169760680995, 0
99, 4.631368079192273, 5.433189917207434, 0
100, 4.557379712429578, 5.37617071919968, 0
101, 4.481301994826379, 5.314159382044838, 0
102, 4.402830015059123, 5.251001562060257, 0
103, 4.321658861804254, 5.190542915563287, 0
104, 4.237788535061773, 5.1327834425539285, 0
105, 4.151219034831681, 5.077723143032183, 0
106, 4.0619503611139764, 5.0253620169980495, 0
107, 3.9699825139086617, 4.975700064451528, 0
108, 3.8753154932157337, 4.928737285392618, 0
109, 3.7779492990351926, 4.88447367982132, 0
110, 3.6778839313670417, 4.842909247737634, 0
111, 3.5751193902112783, 4.80404398914156, 0
112, 3.4696556755679033, 4.767877904033098, 0
113, 3.3614927874369167, 4.734410992412248, 0
114, 3.250630725818316, 4.703643254279009, 0
115, 3.1370694907121046, 4.675574689633382, 0
116, 3.020809082118282, 4.650205298475368, 0
117, 2.9018495000368474, 4.6275350808049645, 0
118, 2.780190744467802, 4.607564036622175, 0
119, 2.6558328154111406, 4.590292165926995, 0
120, 2.5287757128668704, 4.575719468719428, 0
121, 2.3990194368349886, 4.563845944999473, 0
122, 2.2709905260338608, 4.551115939092514, 0
123, 2.1491155191818536, 4.533973795323936, 0
124, 2.0333944162789668, 4.5124195136937395, 0
125, 1.923827217325201, 4.486453094201923, 0
126, 1.8204139223205562, 4.4560745368484875, 0
127, 1.7231545312650332, 4.421283841633433, 0
128, 1.63204904415863, 4.38208100855676, 0
129, 1.5470974610013466, 4.338466037618466, 0
130, 1.4682997817931849, 4.290438928818554, 0
131, 1.3956560065341441, 4.237999682157023, 0
132, 1.3291661352242246, 4.1811482976338725, 0
133, 1.268830167863426, 4.119884775249103, 0
134, 1.2146481044517468, 4.054209115002713, 0
135, 1.1666199449891896, 3.984121316894706, 0
136, 1.124745689475753, 3.909621380925079, 0
137, 1.0890253379114374, 3.830709307093833, 0
138, 1.0594588902962425, 3.747385095400968, 0
139, 1.0360463466301684, 3.659648745846483, 0
140, 1.0187877069132145, 3.567500258430379, 0
141, 1.0076829711453825, 3.4709396331526565, 0
142, 0.9975251139749913, 3.369710611387679, 0
143, 0.9839521399233363, 3.2739534286370233, 0
144, 0.9669640489904197, 3.1836680849006926, 0
145, 0.9465608411762394, 3.0988545801786844, 0
146, 0.9227425164807963, 3.0195129144709982, 0
147, 0.8955090749040909, 2.9456430877776367, 0
148, 0.8648605164461225, 2.8772451000985977, 0
149, 0.830796841106891, 2.814318951433882, 0
150, 0.7933180488863965, 2.7568646417834892, 0
151, 0.7524241397846396, 2.704882171147419, 0
152, 0.7081151138016194, 2.6583715395256724, 0
153, 0.6603909709373369, 2.6173327469182492, 0
154, 0.6092517111917914, 2.581765793325149, 0
155, 0.5546973345649832, 2.551670678746372, 0
156, 0.4967278410569112, 2.5270474031819172, 0
157, 0.43534323066757713, 2.5078959666317866, 0
158, 0.37054350339698083, 2.494216369095979, 0
159, 0.3023286592451201, 2.4860086105744945, 0
160, -0.23069869821199793, 2.4832726910673326, 0
161, -0.2988282702193942, 2.485741858422546, 0
162, -0.3638756992414509, 2.493149360488186, 0
163, -0.4258409852781681, 2.5054951972642523, 0
164, -0.4847241283295457, 2.522779368750746, 0
165, -0.5405251283955834, 2.5450018749476655, 0
166, -0.5932439854762814, 2.5721627158550118, 0
167, -0.6428806995716396, 2.6042618914727846, 0
168, -0.6894352706816582, 2.6412994018009845, 0
169, -0.7329076988063367, 2.6832752468396106, 0
170, -0.7732979839456761, 2.7301894265886637, 0
171, -0.8106061260996756, 2.7820419410481434, 0
172, -0.8448321252683351, 2.8388327902180492, 0
173, -0.8759759814516553, 2.9005619740983826, 0
174, -0.9040376946496351, 2.967229492689141, 0
175, -0.9290172648622755, 3.0388353459903277, 0
176, -0.9509146920895768, 3.11537953400194, 0
177, -0.9697299763315375, 3.196862056723979, 0
178, -0.9854631175881591, 3.283282914156445, 0
179, -0.9981141158594403, 3.3746421062993375, 0
180, -1.0076829711453825, 3.4709396331526565, 0
181, -1.0187877069132152, 3.5675002584303797, 0
182, -1.0360463466301686, 3.6596487458464835, 0
183, -1.0594588902962423, 3.747385095400967, 0
184, -1.0890253379114374, 3.830709307093833, 0
185, -1.124745689475753, 3.909621380925079, 0
186, -1.1666199449891896, 3.984121316894706, 0
187, -1.214648104451747, 4.054209115002714, 0
188, -1.2688301678634255, 4.119884775249103, 0
189, -1.3291661352242246, 4.1811482976338725, 0
190, -1.3956560065341441, 4.237999682157023, 0
191, -1.4682997817931853, 4.2904389288185545, 0
192, -1.5470974610013473, 4.338466037618467, 0
193, -1.6320490441586286, 4.382081008556759, 0
194, -1.7231545312650332, 4.421283841633433, 0
195, -1.8204139223205562, 4.4560745368484875, 0
196, -1.9238272173252011, 4.486453094201923, 0
197, -2.0333944162789668, 4.5124195136937395, 0
198, -2.1491155191818527, 4.533973795323936, 0
199, -2.2709905260338608, 4.551115939092514, 0
200, -2.3990194368349886, 4.563845944999473, 0
201, -2.5287757128668704, 4.575719468719428, 0
202, -2.6558328154111424, 4.5902921659269955, 0
203, -2.780190744467801, 4.607564036622175, 0
204, -2.9018495000368474, 4.6275350808049645, 0
205, -3.020809082118282, 4.650205298475368, 0
206, -3.1370694907121046, 4.675574689633382, 0
207, -3.2506307258183167, 4.703643254279009, 0
208, -3.361492787436915, 4.734410992412247, 0
209, -3.4696556755679033, 4.767877904033098, 0
210, -3.5751193902112783, 4.80404398914156, 0
211, -3.6778839313670417, 4.842909247737634, 0
212, -3.777949299035194, 4.884473679821321, 0
213, -3.8753154932157337, 4.928737285392619, 0
214, -3.9699825139086617, 4.975700064451528, 0
215, -4.0619503611139764, 5.0253620169980495, 0
216, -4.151219034831681, 5.077723143032183, 0
217, -4.237788535061774, 5.132783442553929, 0
218, -4.321658861804253, 5.190542915563286, 0
219, -4.402830015059123, 5.251001562060257, 0
220, -4.481301994826379, 5.314159382044838, 0
221, -4.557379712429578, 5.37617071919968, 0
222, -4.631368079192274, 5.433189917207435, 0
223, -4.703267095114466, 5.485216976068099, 0
224, -4.773076760196157, 5.532251895781675, 0
225, -4.840797074437344, 5.5742946763481624, 0
226, -4.906428037838028, 5.611345317767561, 0
227, -4.969969650398209, 5.643403820039869, 0
228, -5.031421912117888, 5.67047018316509, 0
229, -5.090784822997064, 5.692544407143221, 0
230, -5.148058383035735, 5.709626491974264, 0
231, -5.203242592233905, 5.721716437658217, 0
232, -5.256337450591572, 5.728814244195083, 0
233, -5.307342958108735, 5.7309199115848575, 0
234, -5.356259114785395, 5.728033439827544, 0
235, -5.403085920621552, 5.720154828923142, 0
236, -5.447823375617207, 5.70728407887165, 0
237, -5.49047147977236, 5.68942118967307, 0
238, -5.531030233087009, 5.666566161327402, 0
239, -5.5694996355611535, 5.638718993834643, 0
240, -5.605879687194797, 5.605879687194797, 0
241, -5.638718993834643, 5.5694996355611535, 0
242, -5.666566161327401, 5.531030233087008, 0
243, -5.689421189673071, 5.49047147977236, 0
244, -5.70728407887165, 5.447823375617207, 0
245, -5.720154828923142, 5.403085920621552, 0
246, -5.728033439827544, 5.356259114785395, 0
247, -5.7309199115848575, 5.307342958108735, 0
248, -5.728814244195082, 5.2563374505915705, 0
249, -5.721716437658217, 5.203242592233905, 0
250, -5.709626491974264, 5.148058383035735, 0
251, -5.692544407143221, 5.090784822997064, 0
252, -5.67047018316509, 5.031421912117888, 0
253, -5.643403820039869, 4.969969650398209, 0
254, -5.611345317767561, 4.906428037838028, 0
255, -5.5742946763481624, 4.840797074437344, 0
256, -5.532251895781675, 4.773076760196157, 0
257, -5.4852169760680995, 4.703267095114467, 0
258, -5.433189917207434, 4.631368079192273, 0
259, -5.37617071919968, 4.557379712429578, 0
260, -5.314159382044838, 4.481301994826379, 0
261, -5.251001562060257, 4.402830015059123, 0
262, -5.190542915563287, 4.321658861804254, 0
263, -5.1327834425539285, 4.237788535061773, 0
264, -5.077723143032183, 4.151219034831681, 0
265, -5.0253620169980495, 4.0619503611139764, 0
266, -4.975700064451528, 3.9699825139086617, 0
267, -4.928737285392618, 3.8753154932157337, 0
268, -4.88447367982132, 3.7779492990351926, 0
269, -4.842909247737634, 3.6778839313670417, 0
270, -4.80404398914156, 3.5751193902112783, 0
271, -4.767877904033098, 3.4696556755679033, 0
272, -4.734410992412248, 3.3614927874369167, 0
273, -4.703643254279009, 3.250630725818316, 0
274, -4.675574689633382, 3.1370694907121046, 0
275, -4.650205298475368, 3.020809082118282, 0
276, -4.6275350808049645, 2.9018495000368474, 0
277, -4.607564036622175, 2.780190744467802, 0
278, -4.590292165926995, 2.6558328154111406, 0
279, -4.575719468719428, 2.5287757128668704, 0
280, -4.563845944999473, 2.3990194368349886, 0
281, -4.551115939092514, 2.2709905260338608, 0
282, -4.533973795323936, 2.1491155191818536, 0
283, -4.5124195136937395, 2.0333944162789668, 0
284, -4.486453094201923, 1.923827217325201, 0
285, -4.4560745368484875, 1.8204139223205562, 0
286, -4.421283841633433, 1.7231545312650332, 0
287, -4.38208100855676, 1.63204904415863, 0
288, -4.338466037618466, 1.5470974610013466, 0
289, -4.290438928818554, 1.4682997817931849, 0
290, -4.237999682157023, 1.3956560065341441, 0
291, -4.1811482976338725, 1.3291661352242246, 0
292, -4.119884775249103, 1.268830167863426, 0
293, -4.054209115002713, 1.2146481044517468, 0
294, -3.984121316894706, 1.1666199449891896, 0
295, -3.909621380925079, 1.124745689475753, 0
296, -3.830709307093833, 1.0890253379114374, 0
297, -3.747385095400968, 1.0594588902962425, 0
298, -3.659648745846483, 1.0360463466301684, 0
299, -3.567500258430379, 1.0187877069132145, 0
300, -3.4709396331526565, 1.0076829711453825, 0
301, -3.369710611387679, 0.9975251139749913, 0
302, -3.2739534286370233, 0.9839521399233363, 0
303, -3.1836680849006926, 0.9669640489904197, 0
304, -3.0988545801786844, 0.9465608411762394, 0
305, -3.0195129144709982, 0.9227425164807963, 0
306, -2.9456430877776367, 0.8955090749040909, 0
307, -2.8772451000985977, 0.8648605164461225, 0
308, -2.814318951433882, 0.830796841106891, 0
309, -2.7568646417834892, 0.7933180488863965, 0
310, -2.704882171147419, 0.7524241397846396, 0
311, -2.6583715395256724, 0.7081151138016194, 0
312, -2.6173327469182492, 0.6603909709373369, 0
313, -2.581765793325149, 0.6092517111917914, 0
314, -2.551670678746372, 0.5546973345649832, 0
315, -2.5270474031819172, 0.4967278410569112, 0
316, -2.5078959666317866, 0.43534323066757713, 0
317, -2.494216369095979, 0.37054350339698083, 0
318, -2.4860086105744945, 0.3023286592451201, 0
319, -2.4832726910673326, -0.2306986982119977, 0
320, -2.4857418584225455, -0.29882827021939395, 0
321, -2.493149360488186, -0.3638756992414507, 0
322, -2.5054951972642523, -0.4258409852781679, 0
323, -2.522779368750746, -0.4847241283295455, 0
324, -2.5450018749476655, -0.5405251283955832, 0
325, -2.5721627158550118, -0.5932439854762812, 0
326, -2.6042618914727846, -0.6428806995716394, 0
327, -2.6412994018009845, -0.689435270681658, 0
328, -2.6832752468396106, -0.7329076988063364, 0
329, -2.7301894265886637, -0.7732979839456758, 0
330, -2.7820419410481434, -0.8106061260996753, 0
331, -2.8388327902180492, -0.8448321252683347, 0
332, -2.900561974098382, -0.875975981451655, 0
333, -2.967229492689141, -0.9040376946496348, 0
334, -3.0388353459903272, -0.9290172648622753, 0
335, -3.11537953400194, -0.9509146920895765, 0
336, -3.196862056723979, -0.9697299763315372, 0
337, -3.283282914156445, -0.9854631175881587, 0
338, -3.374642106299337, -0.99811411585944, 0
339, -3.4709396331526565, -1.007682971145382, 0
340, -3.5675002584303797, -1.018787706913215, 0
341, -3.659648745846483, -1.0360463466301681, 0
342, -3.7473850954009666, -1.0594588902962419, 0
343, -3.8307093070938327, -1.089025337911437, 0
344, -3.909621380925079, -1.1247456894757526, 0
345, -3.984121316894706, -1.1666199449891892, 0
346, -4.054209115002714, -1.2146481044517465, 0
347, -4.119884775249102, -1.268830167863425, 0
348, -4.1811482976338725, -1.329166135224224, 0
349, -4.237999682157022, -1.3956560065341437, 0
350, -4.2904389288185545, -1.4682997817931849, 0
351, -4.338466037618466, -1.5470974610013468, 0
352, -4.382081008556758, -1.6320490441586282, 0
353, -4.421283841633433, -1.7231545312650327, 0
354, -4.4560745368484875, -1.8204139223205558, 0
355, -4.486453094201923, -1.9238272173252007, 0
356, -4.512419513693739, -2.0333944162789663, 0
357, -4.533973795323936, -2.1491155191818523, 0
358, -4.551115939092514, -2.2709905260338603, 0
359, -4.563845944999473, -2.399019436834988, 0
360, -4.575719468719428, -2.52877571286687, 0
361, -4.5902921659269955, -2.655832815411142, 0
362, -4.607564036622175, -2.7801907444678, 0
363, -4.6275350808049645, -2.901849500036847, 0
364, -4.650205298475368, -3.0208090821182814, 0
365, -4.675574689633382, -3.1370694907121037, 0
366, -4.703643254279009, -3.2506307258183162, 0
367, -4.734410992412247, -3.3614927874369145, 0
368, -4.767877904033098, -3.469655675567903, 0
369, -4.80404398914156, -3.575119390211278, 0
370, -4.842909247737634, -3.677883931367041, 0
371, -4.884473679821321, -3.7779492990351935, 0
372, -4.928737285392619, -3.8753154932157328, 0
373, -4.975700064451528, -3.969982513908661, 0
374, -5.0253620169980495, -4.061950361113976, 0
375, -5.077723143032183, -4.15121903483168, 0
376, -5.132783442553929, -4.237788535061773, 0
377, -5.190542915563286, -4.321658861804253, 0
378, -5.251001562060257, -4.402830015059122, 0
379, -5.314159382044838, -4.481301994826378, 0
380, -5.37617071919968, -4.557379712429577, 0
381, -5.433189917207435, -4.631368079192273, 0
382, -5.485216976068099, -4.703267095114465, 0
383, -5.532251895781675, -4.773076760196156, 0
384, -5.5742946763481624, -4.840797074437343, 0
385, -5.61134531776756, -4.906428037838027, 0
386, -5.643403820039869, -4.969969650398209, 0
387, -5.67047018316509, -5.031421912117887, 0
388, -5.692544407143221, -5.090784822997063, 0
389, -5.709626491974264, -5.1480583830357345, 0
390, -5.721716437658217, -5.203242592233904, 0
391, -5.728814244195083, -5.256337450591571, 0
392, -5.7309199115848575, -5.307342958108734, 0
393, -5.728033439827544, -5.356259114785394, 0
394, -5.720154828923142, -5.403085920621551, 0
395, -5.70728407887165, -5.447823375617206, 0
396, -5.68942118967307, -5.490471479772359, 0
397, -5.666566161327402, -5.531030233087008, 0
398, -5.638718993834643, -5.569499635561153, 0
399, -5.605879687194797, -5.605879687194796, 0
400, -5.5694996355611535, -5.638718993834642, 0
401, -5.531030233087008, -5.6665661613274, 0
402, -5.49047147977236, -5.68942118967307, 0
403, -5.447823375617207, -5.707284078871649, 0
404, -5.403085920621552, -5.720154828923141, 0
405, -5.356259114785395, -5.728033439827543, 0
406, -5.307342958108735, -5.730919911584857, 0
407, -5.2563374505915705, -5.728814244195081, 0
408, -5.203242592233905, -5.721716437658216, 0
409, -5.148058383035735, -5.709626491974263, 0
410, -5.090784822997064, -5.69254440714322, 0
411, -5.031421912117889, -5.670470183165089, 0
412, -4.969969650398209, -5.643403820039868, 0
413, -4.906428037838028, -5.61134531776756, 0
414, -4.840797074437344, -5.574294676348162, 0
415, -4.773076760196157, -5.532251895781675, 0
416, -4.703267095114467, -5.485216976068099, 0
417, -4.631368079192273, -5.433189917207433, 0
418, -4.557379712429578, -5.3761707191996795, 0
419, -4.481301994826379, -5.314159382044837, 0
420, -4.402830015059123, -5.251001562060256, 0
421, -4.321658861804254, -5.190542915563286, 0
422, -4.237788535061773, -5.132783442553928, 0
423, -4.151219034831681, -5.077723143032183, 0
424, -4.0619503611139764, -5.025362016998049, 0
425, -3.9699825139086617, -4.9757000644515275, 0
426, -3.875315493215734, -4.928737285392618, 0
427, -3.777949299035193, -4.884473679821319, 0
428, -3.6778839313670417, -4.842909247737634, 0
429, -3.5751193902112783, -4.804043989141559, 0
430, -3.4696556755679033, -4.767877904033098, 0
431, -3.3614927874369167, -4.734410992412247, 0
432, -3.250630725818316, -4.703643254279008, 0
433, -3.1370694907121046, -4.675574689633382, 0
434, -3.0208090821182823, -4.650205298475367, 0
435, -2.901849500036848, -4.6275350808049645, 0
436, -2.7801907444678022, -4.607564036622174, 0
437, -2.655832815411141, -4.590292165926995, 0
438, -2.528775712866871, -4.575719468719427, 0
439, -2.3990194368349886, -4.563845944999472, 0
440, -2.270990526033861, -4.551115939092514, 0
441, -2.149115519181854, -4.533973795323935, 0
442, -2.0333944162789668, -4.512419513693739, 0
443, -1.9238272173252011, -4.486453094201923, 0
444, -1.8204139223205564, -4.456074536848487, 0
445, -1.7231545312650334, -4.421283841633433, 0
446, -1.6320490441586302, -4.382081008556759, 0
447, -1.5470974610013468, -4.338466037618465, 0
448, -1.4682997817931849, -4.290438928818553, 0
449, -1.3956560065341443, -4.237999682157022, 0
450, -1.3291661352242248, -4.181148297633872, 0
451, -1.2688301678634262, -4.119884775249103, 0
452, -1.214648104451747, -4.054209115002713, 0
453, -1.1666199449891899, -3.9841213168947056, 0
454, -1.1247456894757533, -3.9096213809250786, 0
455, -1.0890253379114376, -3.8307093070938327, 0
456, -1.0594588902962427, -3.747385095400968, 0
457, -1.0360463466301686, -3.6596487458464826, 0
458, -1.0187877069132147, -3.5675002584303788, 0
459, -1.0076829711453827, -3.4709396331526565, 0
460, -0.9975251139749913, -3.3697106113876787, 0
461, -0.9839521399233365, -3.273953428637023, 0
462, -0.9669640489904199, -3.183668084900692, 0
463, -0.9465608411762396, -3.098854580178684, 0
464, -0.9227425164807965, -3.019512914470998, 0
465, -0.8955090749040912, -2.9456430877776363, 0
466, -0.8648605164461225, -2.8772451000985972, 0
467, -0.8307968411068911, -2.814318951433882, 0
468, -0.7933180488863967, -2.756864641783489, 0
469, -0.7524241397846397, -2.704882171147419, 0
470, -0.7081151138016195, -2.658371539525672, 0
471, -0.660390970937337, -2.617332746918249, 0
472, -0.6092517111917917, -2.581765793325149, 0
473, -0.5546973345649834, -2.551670678746372, 0
474, -0.4967278410569112, -2.5270474031819172, 0
475, -0.43534323066757735, -2.5078959666317866, 0
476, -0.37054350339698106, -2.494216369095979, 0
477, -0.3023286592451203, -2.4860086105744945, 0
478, 0.23069869821199748, -2.483272691067333, 0
479, 0.29882827021939373, -2.485741858422546, 0
480, 0.36387569924145047, -2.493149360488186, 0
481, 0.4258409852781679, -2.5054951972642523, 0
482, 0.48472412832954526, -2.522779368750746, 0
483, 0.540525128395583, -2.5450018749476655, 0
484, 0.5932439854762811, -2.5721627158550118, 0
485, 0.6428806995716393, -2.6042618914727846, 0
486, 0.6894352706816579, -2.6412994018009845, 0
487, 0.7329076988063362, -2.683275246839611, 0
488, 0.7732979839456757, -2.7301894265886637, 0
489, 0.8106061260996752, -2.782041941048144, 0
490, 0.8448321252683346, -2.8388327902180497, 0
491, 0.8759759814516548, -2.9005619740983826, 0
492, 0.9040376946496346, -2.9672294926891416, 0
493, 0.9290172648622753, -3.0388353459903277, 0
494, 0.9509146920895762, -3.1153795340019403, 0
495, 0.969729976331537, -3.196862056723979, 0
496, 0.9854631175881585, -3.283282914156445, 0
497, 0.9981141158594398, -3.3746421062993375, 0
498, 1.0076829711453819, -3.470939633152657, 0
499, 1.0187877069132147, -3.5675002584303797, 0
500, 1.036046346630168, -3.6596487458464835, 0
501, 1.0594588902962416, -3.747385095400967, 0
502, 1.0890253379114367, -3.830709307093833, 0
503, 1.1247456894757524, -3.9096213809250795, 0
504, 1.166619944989189, -3.9841213168947065, 0
505, 1.2146481044517463, -4.054209115002714, 0
506, 1.2688301678634248, -4.119884775249103, 0
507, 1.3291661352242239, -4.1811482976338725, 0
508, 1.3956560065341435, -4.237999682157023, 0
509, 1.4682997817931847, -4.2904389288185545, 0
510, 1.5470974610013466, -4.338466037618467, 0
511, 1.6320490441586282, -4.382081008556759, 0
512, 1.7231545312650325, -4.421283841633434, 0
513, 1.8204139223205558, -4.4560745368484875, 0
514, 1.9238272173252005, -4.486453094201923, 0
515, 2.033394416278966, -4.5124195136937395, 0
516, 2.149115519181852, -4.533973795323936, 0
517, 2.2709905260338603, -4.551115939092515, 0
518, 2.3990194368349878, -4.563845944999473, 0
519, 2.5287757128668695, -4.575719468719428, 0
520, 2.655832815411142, -4.590292165926996, 0
521, 2.7801907444678, -4.607564036622175, 0
522, 2.901849500036847, -4.627535080804965, 0
523, 3.0208090821182814, -4.650205298475368, 0
524, 3.1370694907121037, -4.6755746896333825, 0
525, 3.250630725818316, -4.70364325427901, 0
526, 3.361492787436914, -4.734410992412247, 0
527, 3.4696556755679024, -4.7678779040330985, 0
528, 3.5751193902112774, -4.804043989141561, 0
529, 3.677883931367041, -4.8429092477376345, 0
530, 3.7779492990351935, -4.884473679821322, 0
531, 3.8753154932157328, -4.928737285392619, 0
532, 3.969982513908661, -4.975700064451529, 0
533, 4.061950361113976, -5.02536201699805, 0
534, 4.15121903483168, -5.077723143032184, 0
535, 4.237788535061773, -5.13278344255393, 0
536, 4.321658861804252, -5.190542915563287, 0
537, 4.402830015059122, -5.2510015620602575, 0
538, 4.481301994826378, -5.3141593820448385, 0
539, 4.557379712429577, -5.376170719199681, 0
540, 4.631368079192273, -5.433189917207436, 0
541, 4.703267095114465, -5.4852169760680995, 0
542, 4.773076760196156, -5.532251895781676, 0
543, 4.840797074437343, -5.574294676348163, 0
544, 4.906428037838027, -5.611345317767561, 0
545, 4.969969650398208, -5.64340382003987, 0
546, 5.031421912117887, -5.670470183165091, 0
547, 5.090784822997063, -5.692544407143222, 0
548, 5.1480583830357345, -5.709626491974265, 0
549, 5.203242592233904, -5.721716437658218, 0
550, 5.256337450591571, -5.728814244195084, 0
551, 5.307342958108734, -5.730919911584858, 0
552, 5.356259114785394, -5.728033439827545, 0
553, 5.403085920621551, -5.7201548289231425, 0
554, 5.447823375617206, -5.707284078871651, 0
555, 5.490471479772359, -5.689421189673071, 0
556, 5.531030233087008, -5.6665661613274025, 0
557, 5.569499635561153, -5.638718993834644, 0
558, 5.605879687194796, -5.605879687194798, 0
559, 5.638718993834642, -5.569499635561154, 0
560, 5.6665661613274, -5.531030233087009, 0
561, 5.68942118967307, -5.490471479772361, 0
562, 5.707284078871649, -5.447823375617208, 0
563, 5.720154828923141, -5.403085920621553, 0
564, 5.728033439827543, -5.356259114785396, 0
565, 5.730919911584857, -5.307342958108736, 0
566, 5.728814244195081, -5.256337450591571, 0
567, 5.721716437658217, -5.203242592233906, 0
568, 5.709626491974263, -5.148058383035736, 0
569, 5.69254440714322, -5.0907848229970645, 0
570, 5.670470183165089, -5.031421912117889, 0
571, 5.643403820039868, -4.96996965039821, 0
572, 5.61134531776756, -4.906428037838029, 0
573, 5.574294676348162, -4.8407970744373445, 0
574, 5.532251895781675, -4.773076760196158, 0
575, 5.485216976068099, -4.703267095114468, 0
576, 5.433189917207433, -4.631368079192274, 0
577, 5.3761707191996795, -4.5573797124295785, 0
578, 5.314159382044837, -4.48130199482638, 0
579, 5.251001562060256, -4.4028300150591235, 0
580, 5.190542915563286, -4.321658861804255, 0
581, 5.1327834425539285, -4.237788535061774, 0
582, 5.077723143032183, -4.151219034831682, 0
583, 5.025362016998049, -4.061950361113977, 0
584, 4.9757000644515275, -3.9699825139086626, 0
585, 4.928737285392618, -3.8753154932157345, 0
586, 4.884473679821319, -3.7779492990351935, 0
587, 4.842909247737634, -3.677883931367042, 0
588, 4.804043989141559, -3.5751193902112792, 0
589, 4.767877904033098, -3.469655675567904, 0
590, 4.734410992412247, -3.361492787436917, 0
591, 4.703643254279008, -3.2506307258183167, 0
592, 4.675574689633382, -3.137069490712105, 0
593, 4.650205298475367, -3.0208090821182827, 0
594, 4.6275350808049645, -2.9018495000368483, 0
595, 4.607564036622174, -2.7801907444678027, 0
596, 4.590292165926995, -2.6558328154111415, 0
597, 4.575719468719428, -2.5287757128668713, 0
598, 4.563845944999473, -2.3990194368349895, 0
599, 4.551115939092514, -2.2709905260338616, 0
600, 4.533973795323936, -2.1491155191818545, 0
601, 4.512419513693739, -2.033394416278967, 0
602, 4.486453094201923, -1.9238272173252016, 0
603, 4.456074536848487, -1.8204139223205569, 0
604, 4.421283841633433, -1.7231545312650338, 0
605, 4.382081008556759, -1.6320490441586306, 0
606, 4.338466037618466, -1.5470974610013473, 0
607, 4.290438928818554, -1.4682997817931853, 0
608, 4.237999682157022, -1.3956560065341448, 0
609, 4.1811482976338725, -1.3291661352242252, 0
610, 4.119884775249103, -1.2688301678634266, 0
611, 4.054209115002713, -1.2146481044517474, 0
612, 3.984121316894706, -1.16661994498919, 0
613, 3.909621380925079, -1.1247456894757537, 0
614, 3.830709307093833, -1.089025337911438, 0
615, 3.747385095400968, -1.059458890296243, 0
616, 3.6596487458464826, -1.0360463466301688, 0
617, 3.5675002584303788, -1.0187877069132152, 0
618, 3.4709396331526565, -1.007682971145383, 0
619, 3.369710611387679, -0.9975251139749917, 0
620, 3.273953428637023, -0.9839521399233369, 0
621, 3.1836680849006926, -0.9669640489904202, 0
622, 3.098854580178684, -0.94656084117624, 0
623, 3.0195129144709982, -0.9227425164807969, 0
624, 2.9456430877776363, -0.8955090749040915, 0
625, 2.8772451000985977, -0.8648605164461228, 0
626, 2.814318951433882, -0.8307968411068913, 0
627, 2.756864641783489, -0.793318048886397, 0
628, 2.704882171147419, -0.75242413978464, 0
629, 2.6583715395256724, -0.7081151138016197, 0
630, 2.617332746918249, -0.6603909709373372, 0
631, 2.581765793325149, -0.6092517111917919, 0
632, 2.551670678746372, -0.5546973345649836, 0
633, 2.5270474031819172, -0.4967278410569115, 0
634, 2.5078959666317866, -0.4353432306675776, 0
635, 2.494216369095979, -0.3705435033969813, 0
636, 2.4860086105744945, -0.30232865924512053, 0
637, 2.6298463282983215, 0.23069869821199757, 0
638, 2.6347435229495577, 0.2828596276511362, 0
639, 2.6445310930425863, 0.3328351081294197, 0
640, 2.6592090385774063, 0.38062513964684797, 0
641, 2.678777359554018, 0.4262297222034212, 0
642, 2.7032360559724213, 0.4696488557991398, 0
643, 2.732585127832617, 0.5108825404340033, 0
644, 2.7668245751346046, 0.5499307761080114, 0
645, 2.8059543978783843, 0.5867935628211652, 0
646, 2.849974596063956, 0.6214709005734637, 0
647, 2.898885169691319, 0.653962789364907, 0
648, 2.952686118760474, 0.6842692291954957, 0
649, 3.0113774432714218, 0.7123902200652292, 0
650, 3.0749591432241608, 0.7383257619741078, 0
651, 3.1434312186186917, 0.7620758549221314, 0
652, 3.216793669455014, 0.7836404989092998, 0
653, 3.295046495733129, 0.803019693935613, 0
654, 3.378189697453035, 0.8202134400010715, 0
655, 3.466223274614734, 0.8352217371056752, 0
656, 3.5591472272182245, 0.8480445852494237, 0
657, 3.656961555263507, 0.8586819844323178, 0
658, 3.7550047520053513, 0.8713037838519264, 0
659, 3.8486153106985266, 0.8900798327058214, 0
660, 3.9377932313430333, 0.9150101309940014, 0
661, 4.022538513938872, 0.9460946787164675, 0
662, 4.102851158486041, 0.983333475873219, 0
663, 4.178731164984543, 1.026726522464256, 0
664, 4.250178533434377, 1.0762738184895784, 0
665, 4.317193263835541, 1.1319753639491867, 0
666, 4.379775356188037, 1.1938311588430806, 0
667, 4.437924810491864, 1.2618412031712603, 0
668, 4.491641626747023, 1.3360054969337252, 0
669, 4.540925804953513, 1.4163240401304764, 0
670, 4.585777345111334, 1.502796832761512, 0
671, 4.626196247220488, 1.5954238748268348, 0
672, 4.662182511280972, 1.6942051663264417, 0
673, 4.693736137292788, 1.799140707260336, 0
674, 4.720857125255935, 1.9102304976285145, 0
675, 4.743545475170414, 2.0274745374309786, 0
676, 4.761801187036225, 2.150872826667729, 0
677, 4.775624260853367, 2.2804253653387647, 0
678, 4.788476723904143, 2.4118022462302773, 0
679, 4.80382060347086, 2.5406735621284615, 0
680, 4.821655899553514, 2.6670393130333143, 0
681, 4.8419826121521075, 2.790899498944838, 0
682, 4.86480074126664, 2.912254119863031, 0
683, 4.8901102868971105, 3.031103175787894, 0
684, 4.91791124904352, 3.147446666719427, 0
685, 4.948203627705869, 3.26128459265763, 0
686, 4.980987422884156, 3.372616953602503, 0
687, 5.016262634578383, 3.481443749554046, 0
688, 5.054029262788547, 3.587764980512258, 0
689, 5.0942873075146515, 3.691580646477141, 0
690, 5.137036768756693, 3.792890747448693, 0
691, 5.182277646514675, 3.891695283426916, 0
692, 5.2300099407885945, 3.9879942544118077, 0
693, 5.280233651578453, 4.08178766040337, 0
694, 5.3329487788842505, 4.173075501401602, 0
695, 5.3881553227059875, 4.261857777406504, 0
696, 5.445853283043663, 4.348134488418077, 0
697, 5.506042659897276, 4.431905634436318, 0
698, 5.564862737579369, 4.513440169171556, 0
699, 5.61845280040248, 4.593007046334119, 0
700, 5.666812848366609, 4.670606265924005, 0
701, 5.709942881471756, 4.746237827941215, 0
702, 5.747842899717921, 4.819901732385748, 0
703, 5.780512903105105, 4.891597979257605, 0
704, 5.807952891633307, 4.961326568556786, 0
705, 5.830162865302527, 5.029087500283291, 0
706, 5.847142824112766, 5.09488077443712, 0
707, 5.858892768064023, 5.1587063910182716, 0
708, 5.865412697156298, 5.220564350026747, 0
709, 5.866702611389592, 5.280454651462548, 0
710, 5.862762510763903, 5.33837729532567, 0
711, 5.853592395279233, 5.394332281616117, 0
712, 5.839192264935581, 5.448319610333887, 0
713, 5.819562119732948, 5.500339281478983, 0
714, 5.7947019596713325, 5.5503912950514, 0
715, 5.764611784750737, 5.598475651051142, 0
716, 5.729291594971157, 5.6445923494782075, 0
717, 5.688741390332598, 5.688741390332598, 0
718, 5.6445923494782075, 5.729291594971157, 0
719, 5.598475651051142, 5.764611784750736, 0
720, 5.5503912950514, 5.7947019596713325, 0
721, 5.500339281478983, 5.819562119732948, 0
722, 5.448319610333887, 5.839192264935581, 0
723, 5.394332281616117, 5.853592395279233, 0
724, 5.33837729532567, 5.862762510763903, 0
725, 5.280454651462546, 5.8667026113895915, 0
726, 5.220564350026747, 5.865412697156298, 0
727, 5.1587063910182716, 5.858892768064023, 0
728, 5.09488077443712, 5.847142824112766, 0
729, 5.029087500283292, 5.830162865302528, 0
730, 4.961326568556786, 5.807952891633307, 0
731, 4.891597979257605, 5.780512903105105, 0
732, 4.819901732385748, 5.747842899717921, 0
733, 4.746237827941215, 5.709942881471756, 0
734, 4.670606265924005, 5.666812848366608, 0
735, 4.593007046334118, 5.618452800402479, 0
736, 4.513440169171556, 5.564862737579369, 0
737, 4.431905634436318, 5.506042659897276, 0
738, 4.348134488418077, 5.445853283043663, 0
739, 4.2618577774065045, 5.3881553227059875, 0
740, 4.173075501401601, 5.3329487788842505, 0
741, 4.08178766040337, 5.280233651578453, 0
742, 3.9879942544118077, 5.2300099407885945, 0
743, 3.891695283426916, 5.182277646514675, 0
744, 3.792890747448694, 5.137036768756694, 0
745, 3.6915806464771395, 5.09428730751465, 0
746, 3.587764980512258, 5.054029262788547, 0
747, 3.481443749554046, 5.016262634578383, 0
748, 3.372616953602503, 4.980987422884156, 0
749, 3.261284592657631, 4.948203627705869, 0
750, 3.1474466667194263, 4.91791124904352, 0
751, 3.031103175787894, 4.8901102868971105, 0
752, 2.912254119863031, 4.86480074126664, 0
753, 2.790899498944838, 4.8419826121521075, 0
754, 2.6670393130333157, 4.821655899553515, 0
755, 2.540673562128461, 4.80382060347086, 0
756, 2.4118022462302773, 4.788476723904143, 0
757, 2.2804253653387647, 4.775624260853367, 0
758, 2.150872826667729, 4.761801187036225, 0
759, 2.0274745374309795, 4.743545475170414, 0
760, 1.9102304976285134, 4.720857125255935, 0
761, 1.7991407072603358, 4.693736137292789, 0
762, 1.6942051663264417, 4.662182511280972, 0
763, 1.5954238748268348, 4.626196247220488, 0
764, 1.502796832761513, 4.585777345111334, 0
765, 1.4163240401304755, 4.540925804953512, 0
766, 1.3360054969337252, 4.491641626747023, 0
767, 1.2618412031712603, 4.437924810491864, 0
768, 1.1938311588430808, 4.379775356188036, 0
769, 1.1319753639491872, 4.3171932638355415, 0
770, 1.0762738184895781, 4.250178533434376, 0
771, 1.0267265224642554, 4.178731164984543, 0
772, 0.983333475873219, 4.102851158486041, 0
773, 0.9460946787164678, 4.022538513938872, 0
774, 0.9150101309940015, 3.937793231343034, 0
775, 0.8900798327058207, 3.848615310698526, 0
776, 0.8713037838519262, 3.7550047520053504, 0
777, 0.8586819844323178, 3.656961555263507, 0
778, 0.8474241833821565, 3.5541345721532873, 0
779, 0.8337448322368652, 3.4567262875935287, 0
780, 0.8176439309964443, 3.364736701584233, 0
781, 0.7991214796608922, 3.2781658141253995, 0
782, 0.7781774782302107, 3.1970136252170267, 0
783, 0.7548119267043989, 3.1212801348591164, 0
784, 0.729024825083457, 3.0509653430516686, 0
785, 0.7008161733673849, 2.986069249794683, 0
786, 0.6701859715561819, 2.926591855088158, 0
787, 0.6371342196498495, 2.8725331589320957, 0
788, 0.6016609176483861, 2.8238931613264944, 0
789, 0.5637660655517934, 2.7806718622713564, 0
790, 0.5234496633600705, 2.74286926176668, 0
791, 0.4807117110732173, 2.710485359812466, 0
792, 0.4355522086912333, 2.6835201564087128, 0
793, 0.38797115621412, 2.661973651555422, 0
794, 0.3379685536418762, 2.6458458452525937, 0
795, 0.2855444009745016, 2.635136737500227, 0
796, 0.23069869821199757, 2.6298463282983215, 0
797, 0.23069869821199412, 6.241636345533666, 0
798, 0.23069869821199035, 10.0, 0
799, -0.23069869821200456, 10.0, 0
800, -0.23069869821199757, 2.6298463282983215, 0
801, -0.2828596276511362, 2.6347435229495577, 0
802, -0.3328351081294197, 2.6445310930425863, 0
803, -0.38062513964684797, 2.6592090385774063, 0
804, -0.4262297222034212, 2.678777359554018, 0
805, -0.4696488557991398, 2.7032360559724213, 0
806, -0.5108825404340033, 2.732585127832617, 0
807, -0.5499307761080114, 2.7668245751346046, 0
808, -0.5867935628211652, 2.8059543978783843, 0
809, -0.6214709005734637, 2.849974596063956, 0
810, -0.653962789364907, 2.898885169691319, 0
811, -0.6842692291954957, 2.952686118760474, 0
812, -0.7123902200652292, 3.0113774432714218, 0
813, -0.7383257619741078, 3.0749591432241608, 0
814, -0.7620758549221314, 3.1434312186186917, 0
815, -0.7836404989092998, 3.216793669455014, 0
816, -0.803019693935613, 3.295046495733129, 0
817, -0.8202134400010715, 3.378189697453035, 0
818, -0.8352217371056752, 3.466223274614734, 0
819, -0.8480445852494237, 3.5591472272182245, 0
820, -0.8586819844323178, 3.656961555263507, 0
821, -0.8713037838519264, 3.7550047520053513, 0
822, -0.8900798327058214, 3.8486153106985266, 0
823, -0.9150101309940014, 3.9377932313430333, 0
824, -0.9460946787164675, 4.022538513938872, 0
825, -0.983333475873219, 4.102851158486041, 0
826, -1.026726522464256, 4.178731164984543, 0
827, -1.0762738184895784, 4.250178533434377, 0
828, -1.1319753639491867, 4.317193263835541, 0
829, -1.1938311588430806, 4.379775356188037, 0
830, -1.2618412031712603, 4.437924810491864, 0
831, -1.3360054969337252, 4.491641626747023, 0
832, -1.4163240401304764, 4.540925804953513, 0
833, -1.502796832761512, 4.585777345111334, 0
834, -1.5954238748268348, 4.626196247220488, 0
835, -1.6942051663264417, 4.662182511280972, 0
836, -1.799140707260336, 4.693736137292788, 0
837, -1.9102304976285145, 4.720857125255935, 0
838, -2.0274745374309786, 4.743545475170414, 0
839, -2.150872826667729, 4.761801187036225, 0
840, -2.2804253653387647, 4.775624260853367, 0
841, -2.4118022462302773, 4.788476723904143, 0
842, -2.5406735621284615, 4.80382060347086, 0
843, -2.6670393130333143, 4.821655899553514, 0
844, -2.790899498944838, 4.8419826121521075, 0
845, -2.912254119863031, 4.86480074126664, 0
846, -3.031103175787894, 4.8901102868971105, 0
847, -3.147446666719427, 4.91791124904352, 0
848, -3.26128459265763, 4.948203627705869, 0
849, -3.372616953602503, 4.980987422884156, 0
850, -3.481443749554046, 5.016262634578383, 0
851, -3.587764980512258, 5.054029262788547, 0
852, -3.691580646477141, 5.0942873075146515, 0
853, -3.792890747448693, 5.137036768756693, 0
854, -3.891695283426916, 5.182277646514675, 0
855, -3.9879942544118077, 5.2300099407885945, 0
856, -4.08178766040337, 5.280233651578453, 0
857, -4.173075501401602, 5.3329487788842505, 0
858, -4.261857777406504, 5.3881553227059875, 0
859, -4.348134488418077, 5.445853283043663, 0
860, -4.431905634436318, 5.506042659897276, 0
861, -4.513440169171556, 5.564862737579369, 0
862, -4.593007046334119, 5.61845280040248, 0
863, -4.670606265924005, 5.666812848366609, 0
864, -4.746237827941215, 5.709942881471756, 0
865, -4.819901732385748, 5.747842899717921, 0
866, -4.891597979257605, 5.780512903105105, 0
867, -4.961326568556786, 5.807952891633307, 0
868, -5.029087500283291, 5.830162865302527, 0
869, -5.09488077443712, 5.847142824112766, 0
870, -5.1587063910182716, 5.858892768064023, 0
871, -5.220564350026747, 5.865412697156298, 0
872, -5.280454651462548, 5.866702611389592, 0
873, -5.33837729532567, 5.862762510763903, 0
874, -5.394332281616117, 5.853592395279233, 0
875, -5.448319610333887, 5.839192264935581, 0
876, -5.500339281478983, 5.819562119732948, 0
877, -5.5503912950514, 5.7947019596713325, 0
878, -5.598475651051142, 5.764611784750737, 0
879, -5.6445923494782075, 5.729291594971157, 0
880, -5.688741390332598, 5.688741390332598, 0
881, -5.729291594971157, 5.6445923494782075, 0
882, -5.764611784750736, 5.598475651051142, 0
883, -5.7947019596713325, 5.5503912950514, 0
884, -5.819562119732948, 5.500339281478983, 0
885, -5.839192264935581, 5.448319610333887, 0
886, -5.853592395279233, 5.394332281616117, 0
887, -5.862762510763903, 5.33837729532567, 0
888, -5.8667026113895915, 5.280454651462546, 0
889, -5.865412697156298, 5.220564350026747, 0
890, -5.858892768064023, 5.1587063910182716, 0
891, -5.847142824112766, 5.09488077443712, 0
892, -5.830162865302528, 5.029087500283292, 0
893, -5.807952891633307, 4.961326568556786, 0
894, -5.780512903105105, 4.891597979257605, 0
895, -5.747842899717921, 4.819901732385748, 0
896, -5.709942881471756, 4.746237827941215, 0
897, -5.666812848366608, 4.670606265924005, 0
898, -5.618452800402479, 4.593007046334118, 0
899, -5.564862737579369, 4.513440169171556, 0
900, -5.506042659897276, 4.431905634436318, 0
901, -5.445853283043663, 4.348134488418077, 0
902, -5.3881553227059875, 4.2618577774065045, 0
903, -5.3329487788842505, 4.173075501401601, 0
904, -5.280233651578453, 4.08178766040337, 0
905, -5.2300099407885945, 3.9879942544118077, 0
906, -5.182277646514675, 3.891695283426916, 0
907, -5.137036768756694, 3.792890747448694, 0
908, -5.09428730751465, 3.6915806464771395, 0
909, -5.054029262788547, 3.587764980512258, 0
910, -5.016262634578383, 3.481443749554046, 0
911, -4.980987422884156, 3.372616953602503, 0
912, -4.948203627705869, 3.261284592657631, 0
913, -4.91791124904352, 3.1474466667194263, 0
914, -4.8901102868971105, 3.031103175787894, 0
915, -4.86480074126664, 2.912254119863031, 0
916, -4.8419826121521075, 2.790899498944838, 0
917, -4.821655899553515, 2.6670393130333157, 0
918, -4.80382060347086, 2.540673562128461, 0
919, -4.788476723904143, 2.4118022462302773, 0
920, -4.775624260853367, 2.2804253653387647, 0
921, -4.761801187036225, 2.150872826667729, 0
922, -4.743545475170414, 2.0274745374309795, 0
923, -4.720857125255935, 1.9102304976285134, 0
924, -4.693736137292789, 1.7991407072603358, 0
925, -4.662182511280972, 1.6942051663264417, 0
926, -4.626196247220488, 1.5954238748268348, 0
927, -4.585777345111334, 1.502796832761513, 0
928, -4.540925804953512, 1.4163240401304755, 0
929, -4.491641626747023, 1.3360054969337252, 0
930, -4.437924810491864, 1.2618412031712603, 0
931, -4.379775356188036, 1.1938311588430808, 0
932, -4.3171932638355415, 1.1319753639491872, 0
933, -4.250178533434376, 1.0762738184895781, 0
934, -4.178731164984543, 1.0267265224642554, 0
935, -4.102851158486041, 0.983333475873219, 0
936, -4.022538513938872, 0.9460946787164678, 0
937, -3.937793231343034, 0.9150101309940015, 0
938, -3.848615310698526, 0.8900798327058207, 0
939, -3.7550047520053504, 0.8713037838519262, 0
940, -3.656961555263507, 0.8586819844323178, 0
941, -3.5541345721532873, 0.8474241833821565, 0
942, -3.4567262875935287, 0.8337448322368652, 0
943, -3.364736701584233, 0.8176439309964443, 0
944, -3.2781658141253995, 0.7991214796608922, 0
945, -3.1970136252170267, 0.7781774782302107, 0
946, -3.1212801348591164, 0.7548119267043989, 0
947, -3.0509653430516686, 0.729024825083457, 0
948, -2.986069249794683, 0.7008161733673849, 0
949, -2.926591855088158, 0.6701859715561819, 0
950, -2.8725331589320957, 0.6371342196498495, 0
951, -2.8238931613264944, 0.6016609176483861, 0
952, -2.7806718622713564, 0.5637660655517934, 0
953, -2.74286926176668, 0.5234496633600705, 0
954, -2.710485359812466, 0.4807117110732173, 0
955, -2.6835201564087128, 0.4355522086912333, 0
956, -2.661973651555422, 0.38797115621412, 0
957, -2.6458458452525937, 0.3379685536418762, 0
958, -2.635136737500227, 0.2855444009745016, 0
959, -2.6298463282983215, 0.23069869821199757, 0
960, -6.241636345533666, 0.23069869821199412, 0
961, -10.0, 0.23069869821199035, 0
962, -10.0, -0.23069869821200456, 0
963, -2.6298463282983215, -0.23069869821199732, 0
964, -2.6347435229495577, -0.282859627651136, 0
965, -2.6445310930425863, -0.33283510812941947, 0
966, -2.659209038577406, -0.38062513964684774, 0
967, -2.6787773595540174, -0.426229722203421, 0
968, -2.7032360559724213, -0.46964885579913956, 0
969, -2.7325851278326168, -0.5108825404340029, 0
970, -2.766824575134604, -0.5499307761080111, 0
971, -2.805954397878384, -0.586793562821165, 0
972, -2.8499745960639555, -0.6214709005734633, 0
973, -2.8988851696913187, -0.6539627893649067, 0
974, -2.952686118760474, -0.6842692291954954, 0
975, -3.0113774432714218, -0.712390220065229, 0
976, -3.0749591432241603, -0.7383257619741075, 0
977, -3.1434312186186912, -0.7620758549221311, 0
978, -3.216793669455014, -0.7836404989092994, 0
979, -3.295046495733129, -0.8030196939356127, 0
980, -3.378189697453035, -0.8202134400010712, 0
981, -3.466223274614734, -0.8352217371056748, 0
982, -3.559147227218224, -0.8480445852494234, 0
983, -3.656961555263507, -0.8586819844323175, 0
984, -3.7550047520053513, -0.8713037838519261, 0
985, -3.8486153106985266, -0.8900798327058209, 0
986, -3.937793231343033, -0.915010130994001, 0
987, -4.022538513938872, -0.9460946787164671, 0
988, -4.102851158486041, -0.9833334758732185, 0
989, -4.178731164984543, -1.0267265224642557, 0
990, -4.250178533434376, -1.076273818489578, 0
991, -4.317193263835541, -1.1319753639491863, 0
992, -4.379775356188036, -1.19383115884308, 0
993, -4.437924810491864, -1.2618412031712598, 0
994, -4.491641626747023, -1.3360054969337247, 0
995, -4.540925804953512, -1.416324040130476, 0
996, -4.585777345111334, -1.5027968327615115, 0
997, -4.626196247220487, -1.5954238748268343, 0
998, -4.662182511280971, -1.6942051663264412, 0
999, -4.693736137292788, -1.7991407072603356, 0
1000, -4.720857125255935, -1.910230497628514, 0
1001, -4.743545475170414, -2.027474537430978, 0
1002, -4.761801187036225, -2.150872826667728, 0
1003, -4.775624260853367, -2.2804253653387643, 0
1004, -4.788476723904143, -2.411802246230277, 0
1005, -4.80382060347086, -2.540673562128461, 0
1006, -4.821655899553513, -2.667039313033314, 0
1007, -4.8419826121521075, -2.7908994989448375, 0
1008, -4.86480074126664, -2.9122541198630305, 0
1009, -4.8901102868971105, -3.031103175787893, 0
1010, -4.91791124904352, -3.1474466667194263, 0
1011, -4.948203627705869, -3.261284592657629, 0
1012, -4.980987422884156, -3.3726169536025026, 0
1013, -5.016262634578383, -3.481443749554045, 0
1014, -5.054029262788547, -3.5877649805122576, 0
1015, -5.0942873075146515, -3.6915806464771403, 0
1016, -5.137036768756693, -3.7928907474486926, 0
1017, -5.182277646514675, -3.8916952834269156, 0
1018, -5.2300099407885945, -3.9879942544118068, 0
1019, -5.280233651578453, -4.081787660403369, 0
1020, -5.3329487788842505, -4.173075501401601, 0
1021, -5.3881553227059875, -4.261857777406503, 0
1022, -5.445853283043663, -4.348134488418076, 0
1023, -5.506042659897276, -4.431905634436317, 0
1024, -5.564862737579369, -4.513440169171555, 0
1025, -5.618452800402479, -4.593007046334118, 0
1026, -5.666812848366609, -4.670606265924004, 0
1027, -5.709942881471756, -4.746237827941214, 0
1028, -5.747842899717921, -4.819901732385747, 0
1029, -5.780512903105105, -4.891597979257604, 0
1030, -5.807952891633307, -4.961326568556785, 0
1031, -5.830162865302527, -5.02908750028329, 0
1032, -5.847142824112766, -5.094880774437119, 0
1033, -5.858892768064023, -5.158706391018271, 0
1034, -5.865412697156298, -5.220564350026747, 0
1035, -5.866702611389592, -5.280454651462547, 0
1036, -5.862762510763903, -5.338377295325669, 0
1037, -5.853592395279233, -5.3943322816161166, 0
1038, -5.839192264935581, -5.448319610333886, 0
1039, -5.819562119732948, -5.500339281478982, 0
1040, -5.7947019596713325, -5.550391295051399, 0
1041, -5.764611784750737, -5.5984756510511415, 0
1042, -5.729291594971157, -5.644592349478207, 0
1043, -5.688741390332598, -5.688741390332597, 0
1044, -5.6445923494782075, -5.729291594971156, 0
1045, -5.598475651051142, -5.764611784750735, 0
1046, -5.5503912950514, -5.794701959671332, 0
1047, -5.500339281478983, -5.8195621197329475, 0
1048, -5.448319610333887, -5.83919226493558, 0
1049, -5.394332281616117, -5.853592395279232, 0
1050, -5.33837729532567, -5.862762510763902, 0
1051, -5.280454651462546, -5.866702611389591, 0
1052, -5.220564350026748, -5.865412697156297, 0
1053, -5.1587063910182716, -5.858892768064022, 0
1054, -5.09488077443712, -5.847142824112765, 0
1055, -5.029087500283292, -5.830162865302528, 0
1056, -4.961326568556786, -5.807952891633306, 0
1057, -4.891597979257605, -5.780512903105104, 0
1058, -4.819901732385748, -5.747842899717921, 0
1059, -4.746237827941215, -5.709942881471755, 0
1060, -4.670606265924006, -5.666812848366607, 0
1061, -4.593007046334118, -5.618452800402478, 0
1062, -4.513440169171556, -5.564862737579368, 0
1063, -4.431905634436318, -5.506042659897275, 0
1064, -4.348134488418077, -5.445853283043662, 0
1065, -4.2618577774065045, -5.388155322705987, 0
1066, -4.173075501401601, -5.33294877888425, 0
1067, -4.08178766040337, -5.2802336515784525, 0
1068, -3.9879942544118077, -5.230009940788594, 0
1069, -3.891695283426916, -5.182277646514675, 0
1070, -3.792890747448694, -5.137036768756693, 0
1071, -3.69158064647714, -5.09428730751465, 0
1072, -3.5877649805122585, -5.054029262788546, 0
1073, -3.481443749554046, -5.016262634578382, 0
1074, -3.372616953602503, -4.980987422884156, 0
1075, -3.2612845926576313, -4.948203627705869, 0
1076, -3.1474466667194263, -4.917911249043519, 0
1077, -3.031103175787894, -4.8901102868971105, 0
1078, -2.912254119863031, -4.864800741266639, 0
1079, -2.7908994989448384, -4.841982612152107, 0
1080, -2.667039313033316, -4.821655899553514, 0
1081, -2.540673562128461, -4.803820603470859, 0
1082, -2.4118022462302773, -4.788476723904143, 0
1083, -2.280425365338765, -4.775624260853367, 0
1084, -2.150872826667729, -4.761801187036224, 0
1085, -2.0274745374309795, -4.743545475170414, 0
1086, -1.9102304976285136, -4.720857125255935, 0
1087, -1.799140707260336, -4.693736137292788, 0
1088, -1.694205166326442, -4.662182511280971, 0
1089, -1.595423874826835, -4.626196247220487, 0
1090, -1.5027968327615133, -4.585777345111334, 0
1091, -1.4163240401304757, -4.540925804953512, 0
1092, -1.3360054969337254, -4.491641626747022, 0
1093, -1.2618412031712605, -4.437924810491864, 0
1094, -1.193831158843081, -4.379775356188036, 0
1095, -1.1319753639491874, -4.317193263835541, 0
1096, -1.0762738184895784, -4.250178533434376, 0
1097, -1.0267265224642557, -4.1787311649845424, 0
1098, -0.9833334758732192, -4.102851158486041, 0
1099, -0.946094678716468, -4.022538513938872, 0
1100, -0.9150101309940017, -3.9377932313430337, 0
1101, -0.8900798327058209, -3.8486153106985257, 0
1102, -0.8713037838519264, -3.75500475200535, 0
1103, -0.858681984432318, -3.6569615552635066, 0
1104, -0.8474241833821567, -3.5541345721532873, 0
1105, -0.8337448322368655, -3.4567262875935283, 0
1106, -0.8176439309964445, -3.3647367015842327, 0
1107, -0.7991214796608924, -3.278165814125399, 0
1108, -0.7781774782302109, -3.1970136252170263, 0
1109, -0.7548119267043991, -3.1212801348591164, 0
1110, -0.7290248250834572, -3.050965343051668, 0
1111, -0.7008161733673851, -2.9860692497946824, 0
1112, -0.6701859715561821, -2.926591855088158, 0
1113, -0.6371342196498497, -2.8725331589320953, 0
1114, -0.6016609176483861, -2.8238931613264944, 0
1115, -0.5637660655517936, -2.780671862271356, 0
1116, -0.5234496633600705, -2.7428692617666797, 0
1117, -0.4807117110732173, -2.7104853598124654, 0
1118, -0.4355522086912335, -2.6835201564087128, 0
1119, -0.3879711562141202, -2.6619736515554218, 0
1120, -0.33796855364187645, -2.6458458452525933, 0
1121, -0.28554440097450184, -2.6351367375002264, 0
1122, -0.2306986982119978, -2.6298463282983215, 0
1123, -0.23069869821199457, -6.241636345533665, 0
1124, -0.23069869821199124, -10.0, 0
1125, 0.23069869821200367, -9.999999999999998, 0
1126, 0.23069869821199732, -2.6298463282983215, 0
1127, 0.28285962765113576, -2.6347435229495577, 0
1128, 0.33283510812941924, -2.6445310930425863, 0
1129, 0.38062513964684774, -2.6592090385774063, 0
1130, 0.42622972220342076, -2.678777359554018, 0
1131, 0.46964885579913934, -2.7032360559724213, 0
1132, 0.5108825404340027, -2.732585127832617, 0
1133, 0.5499307761080109, -2.7668245751346046, 0
1134, 0.5867935628211648, -2.8059543978783843, 0
1135, 0.6214709005734631, -2.849974596063956, 0
1136, 0.6539627893649065, -2.898885169691319, 0
1137, 0.6842692291954952, -2.9526861187604743, 0
1138, 0.712390220065229, -3.0113774432714218, 0
1139, 0.7383257619741075, -3.0749591432241608, 0
1140, 0.7620758549221309, -3.1434312186186917, 0
1141, 0.7836404989092992, -3.216793669455014, 0
1142, 0.8030196939356125, -3.2950464957331294, 0
1143, 0.820213440001071, -3.378189697453035, 0
1144, 0.8352217371056746, -3.4662232746147343, 0
1145, 0.8480445852494232, -3.5591472272182245, 0
1146, 0.8586819844323172, -3.6569615552635075, 0
1147, 0.8713037838519259, -3.7550047520053518, 0
1148, 0.8900798327058205, -3.8486153106985266, 0
1149, 0.9150101309940007, -3.9377932313430333, 0
1150, 0.9460946787164669, -4.022538513938872, 0
1151, 0.9833334758732183, -4.102851158486042, 0
1152, 1.0267265224642554, -4.178731164984544, 0
1153, 1.0762738184895775, -4.250178533434377, 0
1154, 1.131975363949186, -4.317193263835541, 0
1155, 1.1938311588430797, -4.379775356188037, 0
1156, 1.2618412031712596, -4.437924810491864, 0
1157, 1.3360054969337245, -4.491641626747023, 0
1158, 1.4163240401304757, -4.540925804953513, 0
1159, 1.5027968327615113, -4.585777345111334, 0
1160, 1.5954238748268341, -4.626196247220488, 0
1161, 1.694205166326441, -4.662182511280972, 0
1162, 1.7991407072603354, -4.693736137292789, 0
1163, 1.9102304976285138, -4.720857125255936, 0
1164, 2.0274745374309777, -4.743545475170414, 0
1165, 2.150872826667728, -4.761801187036225, 0
1166, 2.2804253653387643, -4.775624260853368, 0
1167, 2.4118022462302764, -4.788476723904144, 0
1168, 2.540673562128461, -4.803820603470861, 0
1169, 2.6670393130333134, -4.821655899553514, 0
1170, 2.790899498944837, -4.841982612152108, 0
1171, 2.91225411986303, -4.86480074126664, 0
1172, 3.031103175787893, -4.890110286897111, 0
1173, 3.1474466667194263, -4.917911249043521, 0
1174, 3.261284592657629, -4.94820362770587, 0
1175, 3.3726169536025026, -4.980987422884157, 0
1176, 3.481443749554045, -5.016262634578383, 0
1177, 3.5877649805122576, -5.054029262788548, 0
1178, 3.6915806464771403, -5.0942873075146515, 0
1179, 3.792890747448692, -5.137036768756694, 0
1180, 3.891695283426915, -5.182277646514676, 0
1181, 3.9879942544118068, -5.230009940788595, 0
1182, 4.081787660403369, -5.280233651578453, 0
1183, 4.173075501401601, -5.332948778884251, 0
1184, 4.261857777406503, -5.3881553227059875, 0
1185, 4.348134488418076, -5.445853283043664, 0
1186, 4.431905634436317, -5.506042659897277, 0
1187, 4.513440169171555, -5.564862737579369, 0
1188, 4.593007046334118, -5.61845280040248, 0
1189, 4.670606265924004, -5.666812848366609, 0
1190, 4.746237827941214, -5.709942881471756, 0
1191, 4.819901732385747, -5.747842899717922, 0
1192, 4.891597979257604, -5.780512903105106, 0
1193, 4.961326568556785, -5.807952891633308, 0
1194, 5.02908750028329, -5.830162865302528, 0
1195, 5.094880774437119, -5.847142824112767, 0
1196, 5.15870639101827, -5.858892768064024, 0
1197, 5.220564350026746, -5.865412697156299, 0
1198, 5.280454651462547, -5.866702611389593, 0
1199, 5.338377295325669, -5.862762510763904, 0
1200, 5.3943322816161166, -5.853592395279234, 0
1201, 5.448319610333886, -5.839192264935582, 0
1202, 5.500339281478982, -5.819562119732949, 0
1203, 5.550391295051399, -5.794701959671333, 0
1204, 5.5984756510511415, -5.764611784750738, 0
1205, 5.644592349478207, -5.729291594971158, 0
1206, 5.688741390332597, -5.6887413903325985, 0
1207, 5.729291594971156, -5.644592349478208, 0
1208, 5.764611784750735, -5.598475651051143, 0
1209, 5.794701959671332, -5.5503912950514005, 0
1210, 5.8195621197329475, -5.5003392814789835, 0
1211, 5.83919226493558, -5.448319610333888, 0
1212, 5.853592395279232, -5.394332281616118, 0
1213, 5.862762510763902, -5.338377295325671, 0
1214, 5.866702611389591, -5.280454651462547, 0
1215, 5.865412697156297, -5.2205643500267485, 0
1216, 5.858892768064022, -5.158706391018272, 0
1217, 5.847142824112765, -5.0948807744371205, 0
1218, 5.830162865302528, -5.029087500283293, 0
1219, 5.807952891633307, -4.961326568556787, 0
1220, 5.780512903105104, -4.891597979257606, 0
1221, 5.747842899717921, -4.819901732385749, 0
1222, 5.709942881471755, -4.746237827941216, 0
1223, 5.666812848366607, -4.670606265924006, 0
1224, 5.618452800402478, -4.593007046334119, 0
1225, 5.564862737579368, -4.513440169171557, 0
1226, 5.506042659897276, -4.431905634436319, 0
1227, 5.445853283043662, -4.3481344884180775, 0
1228, 5.388155322705987, -4.261857777406505, 0
1229, 5.33294877888425, -4.173075501401602, 0
1230, 5.2802336515784525, -4.0817876604033705, 0
1231, 5.230009940788594, -3.9879942544118085, 0
1232, 5.182277646514675, -3.891695283426917, 0
1233, 5.137036768756693, -3.792890747448695, 0
1234, 5.09428730751465, -3.6915806464771403, 0
1235, 5.054029262788546, -3.587764980512259, 0
1236, 5.016262634578382, -3.4814437495540465, 0
1237, 4.980987422884156, -3.372616953602504, 0
1238, 4.948203627705869, -3.2612845926576317, 0
1239, 4.917911249043519, -3.147446666719427, 0
1240, 4.8901102868971105, -3.031103175787895, 0
1241, 4.864800741266639, -2.912254119863032, 0
1242, 4.8419826121521075, -2.790899498944839, 0
1243, 4.821655899553514, -2.6670393130333165, 0
1244, 4.803820603470859, -2.5406735621284615, 0
1245, 4.788476723904143, -2.411802246230278, 0
1246, 4.775624260853367, -2.2804253653387656, 0
1247, 4.761801187036224, -2.1508728266677295, 0
1248, 4.743545475170414, -2.0274745374309804, 0
1249, 4.720857125255935, -1.9102304976285143, 0
1250, 4.693736137292788, -1.7991407072603365, 0
1251, 4.662182511280971, -1.6942051663264426, 0
1252, 4.626196247220487, -1.5954238748268355, 0
1253, 4.585777345111334, -1.5027968327615138, 0
1254, 4.540925804953512, -1.4163240401304762, 0
1255, 4.491641626747023, -1.3360054969337258, 0
1256, 4.437924810491864, -1.261841203171261, 0
1257, 4.379775356188036, -1.1938311588430814, 0
1258, 4.3171932638355415, -1.1319753639491879, 0
1259, 4.250178533434376, -1.0762738184895788, 0
1260, 4.1787311649845424, -1.026726522464256, 0
1261, 4.102851158486041, -0.9833334758732195, 0
1262, 4.022538513938872, -0.9460946787164684, 0
1263, 3.937793231343034, -0.9150101309940022, 0
1264, 3.848615310698526, -0.8900798327058213, 0
1265, 3.7550047520053504, -0.8713037838519267, 0
1266, 3.656961555263507, -0.8586819844323184, 0
1267, 3.5541345721532873, -0.8474241833821571, 0
1268, 3.4567262875935283, -0.8337448322368658, 0
1269, 3.3647367015842327, -0.8176439309964448, 0
1270, 3.278165814125399, -0.7991214796608928, 0
1271, 3.1970136252170263, -0.7781774782302112, 0
1272, 3.1212801348591164, -0.7548119267043993, 0
1273, 3.0509653430516686, -0.7290248250834576, 0
1274, 2.986069249794683, -0.7008161733673854, 0
1275, 2.926591855088158, -0.6701859715561824, 0
1276, 2.8725331589320953, -0.63713421964985, 0
1277, 2.8238931613264944, -0.6016609176483864, 0
1278, 2.7806718622713564, -0.563766065551794, 0
1279, 2.7428692617666797, -0.5234496633600708, 0
1280, 2.7104853598124654, -0.4807117110732176, 0
1281, 2.6835201564087128, -0.43555220869123373, 0
1282, 2.661973651555422, -0.3879711562141204, 0
1283, 2.6458458452525937, -0.33796855364187667, 0
1284, 2.6351367375002264, -0.28554440097450207, 0
1285, 2.6298463282983215, -0.230698698211998, 0
1286, 6.241636345533666, -0.23069869821199507, 0
1287, 10.0, -0.23069869821199204, 0
1288, 10.0, 0.23069869821200292, 0
1289, -0.23069869821200106, 6.31492316414916, 0
1290, -6.31492316414916, -0.23069869821200092, 0
1291, 0.2306986982120005, -6.31492316414916, 0
1292, 6.31492316414916, 0.23069869821200023, 0
1293, -5.793842575454119, -5.3355991752294, 0
1294, -5.3901405921213525, -5.786311509264429, 0
1295, -5.279114832200768, -5.795883672119192, 0
1296, -2.6818342514135782, -0.5899189971600841, 0
1297, -2.593420610568404, -0.4358546254272261, 0
1298, -0.44589569187353634, -2.597368920194589, 0
1299, -2.5573460629936244, -0.26381583143299114, 0
1300, -5.795883672119193, 5.279114832200768, 0
1301, -5.78631150926443, 5.3901405921213525, 0
1302, -5.3901405921213525, 5.78631150926443, 0
1303, -5.2791148322007695, 5.795883672119194, 0
1304, -2.5973689201945884, 0.4458956918735356, 0
1305, -0.26381583143299137, 2.5573460629936244, 0
1306, -0.5899189971600846, 2.6818342514135787, 0
1307, -0.48954084379913715, 2.6171555329230665, 0
1308, -0.38016549852768494, 2.575566656045326, 0
1309, 0.43585462542722614, -2.5934206105684043, 0
1310, 0.589918997160084, -2.6818342514135787, 0
1311, 0.26381583143299103, -2.5573460629936244, 0
1312, 2.597368920194589, -0.44589569187353606, 0
1313, 5.3355991752294, -5.79384257545412, 0
1314, 5.786311509264429, -5.390140592121353, 0
1315, 5.795883672119192, -5.279114832200769, 0
1316, 2.5573460629936244, 0.26381583143299137, 0
1317, 0.38760241621061187, 2.5775390288514695, 0
1318, 2.5934206105684043, 0.43585462542722636, 0
1319, 2.6818342514135787, 0.5899189971600846, 0
1320, 5.3901405921213525, 5.78631150926443, 0
1321, 5.279114832200768, 5.795883672119193, 0
1322, 5.795883672119194, 5.2791148322007695, 0
1323, 5.78631150926443, 5.3901405921213525, 0
1324, -5.730213675617388, -5.543492964372227, 0
1325, -5.666763198508512, -5.627857879018881, 0
1326, -5.773219113241682, -5.453137630913727, 0
1327, -5.543492964372227, -5.730213675617386, 0
1328, -5.800640422351766, -5.251918453722589, 0
1329, -5.783734846276615, -5.160738928750881, 0
1330, -5.196671138952522, -5.795400737461548, 0
1331, -5.098962623006236, -5.7696812112313856, 0
1332, -2.878800599085546, -0.7525253452080907, 0
1333, -2.7690133276280977, -0.6807621388380871, 0
1334, -0.653486733986855, -2.7402311248375724, 0
1335, -0.5553055236692523, -2.656434987180662, 0
1336, -0.3273146938054297, -2.564329361200375, 0
1337, -5.795400737461549, 5.196671138952522, 0
1338, -5.769681211231386, 5.098962623006236, 0
1339, -5.7542129479002675, 5.49908108911691, 0
1340, -5.666763198508512, 5.627857879018882, 0
1341, -5.586420872380753, 5.701105347030989, 0
1342, -5.49908108911691, 5.7542129479002675, 0
1343, -5.196671138952522, 5.795400737461549, 0
1344, -5.098962623006236, 5.769681211231386, 0
1345, -2.7910813233216785, 0.6977351422251961, 0
1346, -2.695343335596706, 0.6058932313677615, 0
1347, -2.4846406508209133, 0.03581498051656118, 0
1348, -0.6807621388380871, 2.7690133276280977, 0
1349, -0.7525253452080909, 2.8788005990855456, 0
1350, 0.6797906138442243, -2.768363873174778, 0
1351, 0.7525253452080904, -2.8788005990855465, 0
1352, 2.6417390301178583, -0.5405890368130574, 0
1353, 2.4846406508209133, -0.03581498051656129, 0
1354, 2.7402311248375724, -0.6534867339868549, 0
1355, 5.098962623006235, -5.769681211231387, 0
1356, 5.19667113895252, -5.7954007374615495, 0
1357, 5.405570478394435, -5.787323725374316, 0
1358, 5.499081089116909, -5.754212947900268, 0
1359, 5.586420872380752, -5.70110534703099, 0
1360, 5.666763198508511, -5.627857879018883, 0
1361, 5.730213675617386, -5.543492964372228, 0
1362, 5.783734846276614, -5.160738928750882, 0
1363, 0.03581498051656107, 2.484640650820914, 0
1364, 0.5405890368130569, 2.6417390301178583, 0
1365, 0.6534867339868542, 2.740231124837572, 0
1366, 2.7690133276280977, 0.6807621388380872, 0
1367, 2.8788005990855456, 0.7525253452080909, 0
1368, 5.098962623006236, 5.769681211231386, 0
1369, 5.196671138952522, 5.795400737461549, 0
1370, 5.783734846276615, 5.160738928750882, 0
1371, 5.586420872380754, 5.701105347030989, 0
1372, 5.49908108911691, 5.7542129479002675, 0
1373, 5.7542129479002675, 5.49908108911691, 0
1374, 5.666763198508512, 5.627857879018882, 0
1375, -2.6366567726721035, 0.5433926820860132, 0
1376, -5.770192820696257, -5.079652332214644, 0
1377, -5.696315135066192, -4.9034164203185835, 0
1378, -4.970311094118965, -5.725923283124789, 0
1379, -2.9701784440544614, -0.8038083130201246, 0
1380, -3.0788033032315396, -0.8378213051391188, 0
1381, -0.732233187987462, -2.837663029572878, 0
1382, -0.8013008672120294, -2.980969986664616, 0
1383, -5.750134430878731, 5.01779804545168, 0
1384, -5.696315135066193, 4.903416420318584, 0
1385, -4.903416420318584, 5.696315135066193, 0
1386, -5.017798045451679, 5.750134430878731, 0
1387, -2.9809699866646167, 0.8013008672120292, 0
1388, -0.8124395640966651, 3.007646943713125, 0
1389, 0.8378213051391189, -3.0788033032315405, 0
1390, 0.8038083130201246, -2.970178444054462, 0
1391, 2.8493708087496543, -0.7357524994643613, 0
1392, 2.9809699866646167, -0.8013008672120299, 0
1393, 5.017798045451678, -5.750134430878732, 0
1394, 4.903416420318583, -5.696315135066193, 0
1395, 5.750393026233074, -5.035488062744875, 0
1396, 5.696315135066192, -4.903416420318585, 0
1397, 0.7357524994643608, 2.8493708087496543, 0
1398, 0.8013008672120292, 2.9809699866646167, 0
1399, 3.0788033032315405, 0.8378213051391191, 0
1400, 2.970178444054462, 0.803808313020125, 0
1401, 4.903416420318584, 5.696315135066193, 0
1402, 5.01779804545168, 5.750134430878731, 0
1403, 5.72592328312479, 4.970311094118964, 0
1404, 5.770192820696257, 5.0796523322146445, 0
1405, -5.333758231528799, -5.781012644436956, 0
1406, -5.781012644436957, 5.333758231528799, 0
1407, -5.3337582315288, 5.781012644436956, 0
1408, 5.781012644436956, -5.3337582315288, 0
1409, 5.333758231528799, 5.781012644436957, 0
1410, 5.781012644436956, 5.3337582315288, 0
1411, -5.691202767289717, -5.580195901860733, 0
1412, -5.766887053147665, -5.505535909777862, 0
1413, -5.779226953851209, -5.393613236411357, 0
1414, -5.816375897729301, -5.201843950529687, 0
1415, -5.141734470796136, -5.80564805909845, 0
1416, -2.893305167615827, -0.8136118603527331, 0
1417, -2.8343290698260435, -0.7880758661096834, 0
1418, -2.8193025716444025, -0.7236877918697682, 0
1419, -0.6494200498108477, -2.678359541408862, 0
1420, -0.6989814621744276, -2.7114339779386576, 0
1421, -0.7082902643718698, -2.776475991075886, 0
1422, -0.6623903088346589, -2.816858420582668, 0
1423, -5.805648059098451, 5.141734470796136, 0
1424, -5.764200960151274, 5.442824929942705, 0
1425, -5.635019684343664, 5.673725576464386, 0
1426, -5.550727940389631, 5.740777908522954, 0
1427, -5.442824929942705, 5.764200960151274, 0
1428, -5.141734470796136, 5.805648059098451, 0
1429, -2.723432845417488, 0.6863864007212628, 0
1430, -2.761339459068878, 0.6294114420701163, 0
1431, -2.7571286195504303, 0.7394966658885465, 0
1432, -0.7441832443172721, 2.79048558080223, 0
1433, -0.7587933581542057, 2.9530616171894737, 0
1434, -0.8136118603527334, 2.893305167615827, 0
1435, -0.7880758661096838, 2.8343290698260435, 0
1436, 0.7435529996478263, -2.7909390449777782, 0
1437, 0.6913746427390539, -2.8387843553641967, 0
1438, 0.8136118603527329, -2.8933051676158272, 0
1439, 0.7880758661096833, -2.8343290698260444, 0
1440, 2.678359541408862, -0.6494200498108477, 0
1441, 2.713472652665025, -0.5878985734390876, 0
1442, 2.711433977938658, -0.6989814621744278, 0
1443, 2.7819058309797615, -0.7117272317652076, 0
1444, 2.8170702609319274, -0.6620998392843388, 0
1445, 5.141734470796135, -5.805648059098452, 0
1446, 5.447999223516868, -5.758549375890292, 0
1447, 5.55072794038963, -5.740777908522955, 0
1448, 5.621249283114947, -5.658621353800407, 0
1449, 5.691202767289716, -5.580195901860735, 0
1450, 0.6494200498108479, 2.678359541408862, 0
1451, 0.5878985734390869, 2.7134726526650237, 0
1452, 0.6989814621744275, 2.711433977938658, 0
1453, 0.7117272317652066, 2.7819058309797615, 0
1454, 0.6620998392843385, 2.8170702609319282, 0
1455, 2.79048558080223, 0.7441832443172721, 0
1456, 2.893305167615827, 0.8136118603527334, 0
1457, 2.8343290698260435, 0.7880758661096838, 0
1458, 5.141734470796136, 5.805648059098451, 0
1459, 5.550727940389631, 5.740777908522953, 0
1460, 5.442824929942705, 5.764200960151274, 0
1461, 5.764200960151274, 5.442824929942705, 0
1462, 5.635019684343664, 5.673725576464386, 0
1463, -3.0237513209633, -0.7729592368359561, 0
1464, -2.949324158332245, -0.8533528105806996, 0
1465, -3.0148033700329817, -0.8517530961828038, 0
1466, -2.9600329247841066, -0.744243540966127, 0
1467, -3.0963192160214765, -0.7873225174593689, 0
1468, -0.7773144809495178, -2.8082554460123546, 0
1469, -0.6923204787923587, -2.8759253591571885, 0
1470, -0.7639355734193543, -2.9106811450703582, 0
1471, -0.752016267586182, -3.002392726247818, 0
1472, -3.0023927262478183, 0.7520162675861818, 0
1473, -2.924121499191716, 0.7480442638212175, 0
1474, -0.8432898820310251, 2.953559849428327, 0
1475, -0.7630958383914247, 3.0277746890694104, 0
1476, -0.8162400816497319, 3.086288925083247, 0
1477, 0.7873225174593689, -3.096319216021477, 0
1478, 0.7936462040231211, -3.032998001354572, 0
1479, 0.8533528105806995, -2.9493241583322454, 0
1480, 0.8584427680184473, -3.0156058210732524, 0
1481, 0.744243540966127, -2.9600329247841066, 0
1482, 2.877187272896762, -0.6902565212866846, 0
1483, 2.9242558905828853, -0.7502860553182332, 0
1484, 2.8096959258121452, -0.7751062515067065, 0
1485, 2.8725921647257606, -0.7983020562647697, 0
1486, 3.0023927262478183, -0.7520162675861825, 0
1487, 0.6902565212866842, 2.877187272896762, 0
1488, 0.7502860553182329, 2.9242558905828853, 0
1489, 0.7751062515067063, 2.8096959258121457, 0
1490, 0.7983020562647692, 2.8725921647257606, 0
1491, 0.7520162675861818, 3.0023927262478183, 0
1492, 3.096319216021477, 0.7873225174593691, 0
1493, 3.032998001354572, 0.7936462040231214, 0
1494, 2.9493241583322454, 0.8533528105806998, 0
1495, 3.0156058210732524, 0.8584427680184482, 0
1496, 2.9600329247841066, 0.7442435409661274, 0
1497, -2.7668189446604146, -0.7342537825131695, 0
1498, -2.8225571432254637, -0.6689540917525363, 0
1499, -0.6923749905623444, 2.8391106402838076, 0
1500, 2.693644088457042, -0.5399256307500211, 0
1501, 2.6565397837079257, -0.5961854544888929, 0
1502, 0.5399256307500198, 2.693644088457042, 0
1503, 0.5961854544888934, 2.6565397837079243, 0
1504, 2.8391106402838076, 0.6923749905623444, 0
1505, -0.8059469033555301, -2.8684537962598107, 0
1506, -0.8275173811638361, -2.9256985054335356, 0
1507, -0.7204071770832534, -2.938354293826291, 0
1508, -2.873980662789454, 0.7957370706985757, 0
1509, -2.8208480304767605, 0.7566186658757327, 0
1510, 2.926000538626709, -0.8280102781366576, 0
1511, 0.8280102781366572, 2.926000538626709, 0
1512, -2.9259462840644055, 0.8279217384988764, 0
1513, -2.8676077695298074, 0.7059245398325018, 0
1514, -4.818687626773156, -5.6596647009899295, 0
1515, -4.692202917294507, -5.5769620684363606, 0
1516, -5.65966470098993, -4.818687626773154, 0
1517, -5.576962068436361, -4.692202917294505, 0
1518, -4.2305560607746795, -1.217728166075111, 0
1519, -4.086142895908636, -1.1005916407639837, 0
1520, -1.2869637451108134, -4.297812526618749, 0
1521, -1.1433897192561955, -4.150731317135678, 0
1522, -1.0180853118318278, -3.910361657139786, 0
1523, -0.8743473523993253, -3.215472554276589, 0
1524, -3.910361657139786, -1.0180853118318274, 0
1525, -3.2556410189256435, -0.8920798665441808, 0
1526, -0.8477852147177852, -3.085261012389545, 0
1527, -0.7931732020402923, -3.051601729491504, 0
1528, -5.619307969796187, 4.747810191032371, 0
1529, -4.211771225503683, 1.1906453940447743, 0
1530, -4.086142895908637, 1.1005916407639842, 0
1531, -4.29781252661875, 1.2869637451108134, 0
1532, -4.692202917294506, 5.576962068436361, 0
1533, -4.818687626773155, 5.65966470098993, 0
1534, -3.1323671436741267, 0.8532944043046764, 0
1535, -3.910361657139787, 1.0180853118318276, 0
1536, -0.8920798665441811, 3.255641018925644, 0
1537, -1.0553654132504118, 3.9976361449118234, 0
1538, -1.1547889805476896, 4.158780351797976, 0
1539, -1.2438740258085403, 4.268453253081238, 0
1540, 1.2438740258085397, -4.268453253081238, 0
1541, 1.1005916407639835, -4.086142895908637, 0
1542, 0.8796536542099419, -3.2345421830178522, 0
1543, 1.0180853118318272, -3.9103616571397866, 0
1544, 3.0852610123895454, -0.8477852147177856, 0
1545, 3.0516017294915043, -0.7931732020402926, 0
1546, 3.9976361449118234, -1.0553654132504122, 0
1547, 3.215472554276589, -0.8743473523993255, 0
1548, 4.747810191032369, -5.619307969796187, 0
1549, 4.23055606077468, -1.2177281660751125, 0
1550, 5.5769620684363606, -4.692202917294508, 0
1551, 5.6596647009899295, -4.818687626773157, 0
1552, 0.8477852147177851, 3.0852610123895454, 0
1553, 0.7931732020402922, 3.0516017294915043, 0
1554, 3.3191319677332722, 0.8961736340296127, 0
1555, 3.1761913129511785, 0.8734038277243268, 0
1556, 3.1452381798300335, 0.8220282125077676, 0
1557, 3.9103616571397866, 1.0180853118318278, 0
1558, 0.874347352399325, 3.2154725542765896, 0
1559, 1.0553654132504118, 3.9976361449118234, 0
1560, 1.1547889805476899, 4.158780351797975, 0
1561, 1.2438740258085397, 4.268453253081237, 0
1562, 4.081531846134553, 1.099622005229072, 0
1563, 4.211771225503682, 1.1906453940447737, 0
1564, 4.29781252661875, 1.2869637451108131, 0
1565, 5.619307969796187, 4.74781019103237, 0
1566, 4.764386258337032, 5.621811664317974, 0
1567, 5.6616025651841095, 4.834782739607453, 0
1568, -0.4272132197553069, 2.6164535419329455, 0
1569, -0.44158898275507447, 2.5607880976114377, 0
1570, -0.32557987856675524, 2.543537028368924, 0
1571, -0.0358149805165614, -2.484640650820914, 0
1572, -0.3817831859027541, -2.5981556185275516, 0
1573, -0.39381925490951136, -2.544276735983235, 0
1574, -2.564329361200375, 0.3273146938054295, 0
1575, 2.6453015211907034, -0.48117793205891657, 0
1576, 2.5896113607696756, -0.5066351841714714, 0
1577, 2.564329361200375, -0.3273146938054306, 0
1578, 5.779453167004078, -5.220989718070351, 0
1579, 0.33004078469773834, 2.545916211938282, 0
1580, -3.168056182308666, -0.9086342796750336, 0
1581, 5.779453167004079, 5.220989718070351, 0
1582, -2.638348596926389, 0.6006070322757251, 0
1583, -2.692781308348812, 0.5494959815608218, 0
1584, -2.6455382270455257, 0.4831494634717572, 0
1585, -2.5884580339917513, 0.5061507704782352, 0
1586, -5.803012055829444, -5.115845396185603, 0
1587, -5.734453902996915, -4.869294262555004, 0
1588, -5.745187445131476, -4.945762917449392, 0
1589, -5.762104247365954, -5.011883238603622, 0
1590, -5.699973537249702, -4.981740539109389, 0
1591, -5.037702014213389, -5.7387904639924034, 0
1592, -5.007346640022508, -5.782020869839872, 0
1593, -3.1599115712341717, -0.8415811077797419, 0
1594, -3.0894443972660888, -0.8968411690195289, 0
1595, -0.8621286859953889, -2.9999043317589034, 0
1596, -5.734328637063684, 5.064540542365857, 0
1597, -5.786110257023119, 5.052070028970141, 0
1598, -5.708596777352585, 4.967490060093502, 0
1599, -5.734453902996915, 4.869294262555005, 0
1600, -5.661601122585544, 4.823034853185363, 0
1601, -4.945762917449392, 5.745187445131477, 0
1602, -4.981740539109389, 5.6999735372497025, 0
1603, -4.869294262555005, 5.734453902996915, 0
1604, -5.052070028970141, 5.786110257023118, 0
1605, -5.064540542365856, 5.734328637063684, 0
1606, -2.999904331758904, 0.8621286859953887, 0
1607, -3.0672109577335718, 0.873833587877805, 0
1608, -3.055690086375514, 0.8018104240093294, 0
1609, -0.8719771008998476, 3.018573737057925, 0
1610, 0.841581107779741, -3.1599115712341717, 0
1611, 0.896841169019529, -3.089444397266089, 0
1612, 2.9999043317589034, -0.8621286859953895, 0
1613, 5.05207002897014, -5.786110257023119, 0
1614, 5.064540542365855, -5.734328637063685, 0
1615, 4.945762917449392, -5.745187445131477, 0
1616, 4.981740539109389, -5.6999735372497025, 0
1617, 4.869294262555004, -5.734453902996916, 0
1618, 4.8245060587358655, -5.660048935414414, 0
1619, 5.757369626993486, -5.100694123931504, 0
1620, 5.800574128700761, -5.071811510107031, 0
1621, 5.715242533380861, -4.972773585632077, 0
1622, 5.764017006206299, -4.986644141128489, 0
1623, 5.742696974834837, -4.928020134009323, 0
1624, 5.734453902996914, -4.869294262555006, 0
1625, 0.8621286859953887, 2.999904331758904, 0
1626, 3.089444397266089, 0.8968411690195293, 0
1627, 4.945762917449392, 5.745187445131477, 0
1628, 4.981740539109389, 5.6999735372497025, 0
1629, 4.869294262555005, 5.734453902996915, 0
1630, 4.8253641871536175, 5.670194126280941, 0
1631, 5.064540542365857, 5.734328637063684, 0
1632, 5.052070028970141, 5.786110257023119, 0
1633, 5.803012055829444, 5.115845396185604, 0
1634, 5.731956562614654, 5.031500804204683, 0
1635, 5.780507991499036, 5.007842515555186, 0
1636, -0.8853261013828247, 3.092738577557791, 0
1637, -0.8439657150536862, 3.162538678893202, 0
1638, -2.868097843552166, -0.6990167495811975, 0
1639, -4.795837651300002, -5.704076774854421, 0
1640, -4.7760232985126905, -5.603067328027309, 0
1641, -4.763230315605055, -5.657090291077459, 0
1642, -4.856117529488562, -5.623810430953602, 0
1643, -4.899317406351737, -5.690407870115965, 0
1644, -4.72120311558832, -5.5339197045390245, 0
1645, -5.704076774854422, -4.795837651300001, 0
1646, -5.65266360712234, -4.872007216572987, 0
1647, -5.603067328027309, -4.776023298512689, 0
1648, -5.657090291077459, -4.763230315605053, 0
1649, -5.5339197045390245, -4.721203115588319, 0
1650, -4.184850937238667, -1.2641359222001327, 0
1651, -4.247253722680743, -1.1479562736144409, 0
1652, -4.15535801971418, -1.1628479589326541, 0
1653, -4.193928954378659, -1.109879602044713, 0
1654, -4.20441496744948, -1.1745881640286995, 0
1655, -4.148983272447928, -1.2196419900621178, 0
1656, -4.139555321328465, -1.1108129907923592, 0
1657, -4.305296749967308, -1.2065979204950725, 0
1658, -4.276821014291598, -1.30491229149122, 0
1659, -4.224413854424246, -1.299009040272393, 0
1660, -4.046358096299146, -1.150951281735857, 0
1661, -3.9928168278159455, -1.0697207239241977, 0
1662, -4.098682313652334, -1.1768342595675112, 0
1663, -4.117774019318297, -1.0452793260399063, 0
1664, -4.052817929817104, -1.0448337829597105, 0
1665, -4.001748931024094, -1.006482337071815, 0
1666, -1.3300422696307213, -4.247430542510982, 0
1667, -1.2089081507556159, -4.303013331120446, 0
1668, -1.2420471782141498, -4.215446769549439, 0
1669, -1.0703474904667793, -4.103438437692477, 0
1670, -1.2022528735378204, -4.119622897573558, 0
1671, -1.2353751804091306, -4.162042613115471, 0
1672, -1.1408910884164634, -4.074114203095242, 0
1673, -1.090500838428146, -4.187408679671085, 0
1674, -1.1606110383086468, -4.232036171242535, 0
1675, -1.0712510395093175, -3.8862956506136643, 0
1676, -1.0719590653473443, -3.988309333837901, 0
1677, -0.904915530691546, -3.1537339142626912, 0
1678, -0.83555509099996, -3.1578288264677417, 0
1679, -0.8060527618377384, -3.1155421879942193, 0
1680, -0.8218924629527181, -3.2290102701952126, 0
1681, -3.8862956506136643, -1.0712510395093169, 0
1682, -3.32467358879619, -0.869376209190645, 0
1683, -3.305717327682667, -0.9280397293246945, 0
1684, -3.245869316002503, -0.9457550310532216, 0
1685, -3.245736819147208, -0.8344499233486891, 0
1686, -0.9002770345459393, -3.069502996757154, 0
1687, -5.6641949910849165, 4.722212693604857, 0
1688, -5.559407083911218, 4.704030753551091, 0
1689, -5.614441996206563, 4.6915988358651965, 0
1690, -5.583777467513589, 4.787999016313527, 0
1691, -4.130855946797853, 1.188636966761063, 0
1692, -4.190347774492463, 1.2585545811381829, 0
1693, -4.236745462781569, 1.3005044499734892, 0
1694, -4.255048387503927, 1.23857542759148, 0
1695, -4.3202305166000174, 1.2240604115880187, 0
1696, -4.273832608131875, 1.1781117062458253, 0
1697, -4.368267464091974, 1.2766266182413943, 0
1698, -4.232630819491625, 1.1340156902246967, 0
1699, -4.347419057675593, 1.379798809714425, 0
1700, -4.339300604747713, 1.3244657272594482, 0
1701, -4.280244116364623, 1.3480994262621118, 0
1702, -4.414604260524874, 1.3416793076163098, 0
1703, -4.117774019318298, 1.0452793260399067, 0
1704, -4.161713383644128, 1.1071071764334113, 0
1705, -4.046358096299146, 1.150951281735857, 0
1706, -3.993899141625801, 1.0686129096034986, 0
1707, -4.053644038369149, 1.045306204728531, 0
1708, -4.004039048398298, 1.0063767456252526, 0
1709, -4.738511566214862, 5.635613765756177, 0
1710, -4.72120311558832, 5.5339197045390245, 0
1711, -4.795837651300002, 5.704076774854422, 0
1712, -4.872007216572988, 5.652663607122341, 0
1713, -3.151805188662949, 0.9129329943791704, 0
1714, -3.2439487910173885, 0.8950051094205959, 0
1715, -3.148305342572866, 0.8016347877410896, 0
1716, -3.19885995403708, 0.8455205284296773, 0
1717, -3.250859578724321, 0.8434241357667293, 0
1718, -3.3187179127625557, 0.8787691927992708, 0
1719, -3.8862956506136648, 1.071251039509317, 0
1720, -0.9457550310532219, 3.245869316002503, 0
1721, -0.8344499233486895, 3.245736819147208, 0
1722, -0.8693762091906451, 3.32467358879619, 0
1723, -0.9280397293246948, 3.3057173276826672, 0
1724, -1.0289364340599958, 3.9054497864710926, 0
1725, -1.1202848816870008, 4.067372463870222, 0
1726, -1.108205691846241, 3.96793615526049, 0
1727, -1.1567833926222701, 4.239916766048244, 0
1728, -1.2044648700684772, 4.117798012435886, 0
1729, -1.2247429370705345, 4.19297561658639, 0
1730, -1.0933552975217191, 4.185429170379562, 0
1731, -1.1039639885729648, 4.125749319930166, 0
1732, -1.0502971805727337, 4.079275342775606, 0
1733, -1.0294136681577462, 4.126847018431596, 0
1734, -1.0009176597737577, 4.04590821597499, 0
1735, -1.1973424516347206, 4.314444804338009, 0
1736, -1.2789025130977592, 4.350427781935358, 0
1737, -1.3207764132148816, 4.2582673164230505, 0
1738, 1.254919021774364, -4.193928289986428, 0
1739, 1.1627279088202709, -4.234975781622041, 0
1740, 1.19734245163472, -4.314444804338009, 0
1741, 1.2789025130977585, -4.350427781935358, 0
1742, 1.320776413214881, -4.2582673164230505, 0
1743, 1.045279326039906, -4.117774019318298, 0
1744, 1.1096874657555387, -4.170679082272209, 0
1745, 1.1509512817358565, -4.046358096299146, 0
1746, 1.069720723924198, -3.9928168278159455, 0
1747, 1.1738413786841158, -4.122964131112884, 0
1748, 1.0289074118030268, -4.049702760777105, 0
1749, 0.8276247928860644, -3.247427052466643, 0
1750, 0.8859128038539633, -3.3212538743331077, 0
1751, 0.9379086935922085, -3.2472977620893486, 0
1752, 1.0712510395093167, -3.8862956506136648, 0
1753, 3.1435898631496744, -0.8169188145287611, 0
1754, 3.069502996757154, -0.9002770345459395, 0
1755, 3.96793615526049, -1.1082056918462415, 0
1756, 4.067372463870222, -1.1202848816870015, 0
1757, 3.9054497864710926, -1.0289364340599965, 0
1758, 3.2290102701952126, -0.8218924629527183, 0
1759, 3.1537339142626917, -0.9049155306915464, 0
1760, 4.70403075355109, -5.559407083911218, 0
1761, 4.691598835865194, -5.614441996206563, 0
1762, 4.722212693604856, -5.6641949910849165, 0
1763, 4.787999016313526, -5.58377746751359, 0
1764, 4.184850937238667, -1.264135922200134, 0
1765, 4.276821014291598, -1.3049122914912215, 0
1766, 4.237258097106019, -1.2700391734189613, 0
1767, 4.305296749967308, -1.2065979204950736, 0
1768, 4.247253722680744, -1.147956273614442, 0
1769, 4.152981412890397, -1.1622791944083228, 0
1770, 4.193240206954156, -1.1098514995491986, 0
1771, 4.148969302434656, -1.2194486516196252, 0
1772, 4.203025205205738, -1.1742555690644907, 0
1773, 4.12925534472578, -1.1023890973046089, 0
1774, 4.080774217631723, -1.0506854797871272, 0
1775, 4.132664470096641, -1.0506108998925774, 0
1776, 4.045487586225103, -1.0018248289136853, 0
1777, 5.5339197045390245, -4.721203115588321, 0
1778, 5.635613765756176, -4.7385115662148625, 0
1779, 5.623810430953602, -4.856117529488563, 0
1780, 5.704076774854421, -4.795837651300003, 0
1781, 0.9002770345459391, 3.0695029967571545, 0
1782, 0.8169188145287609, 3.1435898631496744, 0
1783, 3.2504761370074244, 0.9204501402631746, 0
1784, 3.1994905522729113, 0.91878497016483, 0
1785, 3.267648377822066, 0.8597943172604001, 0
1786, 3.329988313682872, 0.8436759783243224, 0
1787, 3.8862956506136648, 1.0712510395093173, 0
1788, 3.9883093338379014, 1.0719590653473443, 0
1789, 0.8218924629527179, 3.2290102701952126, 0
1790, 0.9049155306915457, 3.153733914262692, 0
1791, 1.108205691846241, 3.96793615526049, 0
1792, 1.1202848816870008, 4.067372463870222, 0
1793, 1.0289364340599958, 3.9054497864710926, 0
1794, 1.156783392622271, 4.239916766048244, 0
1795, 1.093355297521719, 4.18542917037956, 0
1796, 1.066561372118736, 4.117217514007506, 0
1797, 1.1191454081079966, 4.12001872914246, 0
1798, 1.1773422221439025, 4.102272347898686, 0
1799, 1.061063506621281, 4.057417456164092, 0
1800, 1.0058420686150842, 4.032518708034635, 0
1801, 0.9866799175830866, 3.9634029251831677, 0
1802, 1.1973424516347206, 4.314444804338008, 0
1803, 1.2789025130977598, 4.350427781935357, 0
1804, 1.254919021774365, 4.193928289986428, 0
1805, 1.2141974533262352, 4.149736536216312, 0
1806, 1.199751393823716, 4.203906027483109, 0
1807, 1.3207764132148814, 4.2582673164230505, 0
1808, 4.045725257156048, 1.1518747879162459, 0
1809, 4.128926977199148, 1.170494604611912, 0
1810, 4.117314139410157, 1.0460835030488895, 0
1811, 4.169319427159015, 1.1039767379413816, 0
1812, 4.046846964388134, 1.029283407444018, 0
1813, 4.253121519499797, 1.1408967060812065, 0
1814, 4.295110806150921, 1.2079199685535975, 0
1815, 4.190347774492463, 1.2585545811381829, 0
1816, 4.149025536647204, 1.2219262258306514, 0
1817, 4.245300316550234, 1.238556729037932, 0
1818, 4.236750377010402, 1.3005180348608938, 0
1819, 5.559407083911218, 4.70403075355109, 0
1820, 5.614441996206563, 4.691598835865195, 0
1821, 5.6641949910849165, 4.722212693604857, 0
1822, 5.58377746751359, 4.787999016313527, 0
1823, 4.724832604967448, 5.659600791302683, 0
1824, 4.686659731908248, 5.580050623422516, 0
1825, 4.790854208341313, 5.5791784733763015, 0
1826, 5.699677122993534, 4.798101268563596, 0
1827, 5.713601261902432, 4.878796236297175, 0
1828, 5.6691028205596865, 4.91714578618281, 0
1829, -0.16907181988084086, -2.485324630697704, 0
1830, -0.2803936540314304, -2.5843741002332563, 0
1831, -0.207326313816346, -2.554412468216143, 0
1832, 2.4853246306977037, -0.1690718198808409, 0
1833, -2.598155618527552, 0.38178318590275345, 0
1834, -2.5442767359832352, 0.3938192549095111, 0
1835, 0.21491610900906594, 2.551176031109012, 0
1836, 2.5981556185275525, -0.3817831859027542, 0
1837, 2.5442767359832352, -0.3938192549095115, 0
1838, 0.28928580085101013, 2.5812967003767593, 0
1839, 0.16907181988084058, 2.485324630697704, 0
1840, -5.75683386583803, 4.94117975215386, 0
1841, -5.703796108784647, 4.795982053762046, 0
1842, -5.622968346632593, 4.856592911268837, 0
1843, 0.9070537939406533, -3.1735375029445985, 0
1844, 4.87563016942239, -5.652792016816751, 0
1845, 4.796595949925082, -5.702602917055844, 0
1846, 4.775764356182664, 5.670088917663784, 0
1847, 4.8550094028177995, 5.6257733503036045, 0
1848, -0.910119346969035, 3.167713262596295, 0
1849, -4.9201034357076106, -5.7375718226669745, 0
1850, -4.273667938398413, -1.2507179999035833, 0
1851, -4.35183718131004, -1.273358908618842, 0
1852, -3.9635901833401426, -1.1159377607707324, 0
1853, -1.2457019188310214, -4.2668837951900676, 0
1854, -1.0266699210850387, -4.128416068699961, 0
1855, -1.1695292098291747, -4.033627439650826, 0
1856, -1.1859635647047249, -4.184189944172726, 0
1857, -1.1650640610406797, -4.280926772301748, 0
1858, -1.1182314777818085, -3.9623009514643397, 0
1859, -1.0878825413114643, -4.046108061657906, 0
1860, -1.016949735376443, -4.034557146836724, 0
1861, -0.9910770906595274, -3.972217644955086, 0
1862, -4.433691723048315, 1.453587091500508, 0
1863, -4.450922303135431, 1.3089627397966692, 0
1864, -4.120959016448097, 1.1382868070643608, 0
1865, -4.172107759739292, 1.1576456096508931, 0
1866, -4.199469604064623, 1.073108944659609, 0
1867, -3.964046516023867, 1.1151258835134195, 0
1868, -4.790820538029108, 5.606899572354701, 0
1869, -3.3169257006314816, 0.8295344145691103, 0
1870, -3.290446400562464, 0.9288542701556303, 0
1871, -3.399215776440945, 0.8914873536503531, 0
1872, -1.0778968445015973, 3.8832873594963915, 0
1873, -1.1641878812126087, 4.037287622870494, 0
1874, -1.2056380378384917, 4.2379814456486935, 0
1875, -1.2754428393216586, 4.17371521151087, 0
1876, -1.286980214154922, 4.298504838801468, 0
1877, -1.3759725081641745, 4.338939252948816, 0
1878, 1.1238470694490992, -4.267292898004911, 0
1879, 1.2139363517998316, -4.225935385414465, 0
1880, 1.2869802141549214, -4.298504838801468, 0
1881, 1.3759725081641738, -4.338939252948816, 0
1882, 1.0707681571087944, -4.201092892594754, 0
1883, 1.1159377607707324, -3.963590183340143, 0
1884, 1.1654670792264241, -4.178690405817995, 0
1885, 1.2222446628796917, -4.149460940999626, 0
1886, 0.8371342309594703, -3.3313411259476022, 0
1887, 0.9045305957248724, -3.409111114128113, 0
1888, 4.037287622870494, -1.1641878812126092, 0
1889, 3.8832873594963915, -1.077896844501598, 0
1890, 4.234979846690723, -1.340688091042513, 0
1891, 5.592824229840068, -4.78238251781391, 0
1892, 3.96230095146434, 1.1182314777818083, 0
1893, 1.1641878812126085, 4.037287622870494, 0
1894, 1.0778968445015973, 3.8832873594963915, 0
1895, 1.286980214154921, 4.298504838801467, 0
1896, 1.375972508164164, 4.33893925294881, 0
1897, 4.124412164022472, 1.1222300882332052, 0
1898, 4.176801435422748, 1.1540430601366929, 0
1899, 4.333625805879594, 1.1779362308926227, 0
1900, 4.344916456214292, 1.2457856695503158, 0
1901, 4.378057305364722, 1.33122607011137, 0
1902, 4.647376965147786, 5.61764848546241, 0
1903, 4.719208806140916, 5.536879677160226, 0
1904, -0.23069869821199618, -4.435741336915994, 0
1905, -0.23570023956298058, -2.485666620636099, 0
1906, -0.2687869649609881, -2.5301574251723085, 0
1907, -2.485324630697704, 0.16907181988084063, 0
1908, -2.5843741002332563, 0.28039365403143013, 0
1909, -2.554412468216143, 0.2073263138163457, 0
1910, 2.5843741002332563, -0.28039365403143157, 0
1911, 2.5544124682161424, -0.20732631381634706, 0
1912, -4.391540998535231, -1.2426356690215599, 0
1913, -4.404876901764753, -1.3423131870178833, 0
1914, -1.124437891341148, -4.011947131521736, 0
1915, -4.4570397043674355, 1.3920230506534117, 0
1916, -4.400032375412863, 1.4056125359366154, 0
1917, -4.348884908063168, 1.4433359978787548, 0
1918, -3.4077876048373588, 0.8425137630572214, 0
1919, -3.4845994425509907, 0.9190169697295995, 0
1920, -1.277513701779177, 4.227034003419695, 0
1921, -1.3682044643147075, 4.28503550870239, 0
1922, 1.3682044643147069, -4.28503550870239, 0
1923, 0.8709237116830415, -3.3703314709854215, 0
1924, 1.3682044643147062, 4.285035508702386, 0
1925, -0.11769241846481246, -2.5589086504340353, 0
1926, -4.435741336915994, 0.23069869821199585, 0
1927, -2.485666620636099, 0.23570023956298036, 0
1928, -2.5301574251723085, 0.26878696496098786, 0
1929, 4.435741336915994, -0.23069869821199654, 0
1930, 2.485666620636099, -0.23570023956298072, 0
1931, 2.5301574251723085, -0.26878696496098825, 0
1932, 0.08837482478424769, 2.6174806236095467, 0
1933, 0.23570023956298033, 2.485666620636099, 0
1934, 0.2687880074887027, 2.529954314009322, 0
1935, -4.398220050422533, -1.2925573955995642, 0
1936, -4.446307026975557, -1.312305560564851, 0
1937, -4.453739524269466, -1.4145424452299733, 0
1938, -4.335923837198891, -1.3404757236784666, 0
1939, -4.283145895780092, -1.3612941483151748, 0
1940, -4.3851335527170905, 1.4993796079319108, 0
1941, -4.405752583730774, 1.5662238594959315, 0
1942, -4.497481066404506, 1.6363794830679994, 0
1943, -4.440469141447769, 1.6158772683861256, 0
1944, -4.452013050610494, 1.6732959293669467, 0
1945, -4.499355989397999, 1.5416461483425112, 0
1946, -4.512913900513342, 1.7452296988831904, 0
1947, -4.444693591573475, 1.5138951080617218, 0
1948, -3.448925418361597, 0.8834862842697426, 0
1949, -0.16140793984375607, -2.534703012979658, 0
1950, -0.16512604696443406, -2.608825548146141, 0
1951, 0.2306986982119989, -4.4723847462237405, 0
1952, -0.026088502956391993, -2.5776309616494797, 0
1953, -0.23069869821199698, -3.5327938326071577, 0
1954, -0.11374783581648737, -2.6101523951394845, 0
1955, -0.14185763472556273, -2.7032231353551537, 0
1956, -0.2306986982119974, -3.0813200804527394, 0
1957, -0.2306986982119976, -2.8555832043755305, 0
1958, -0.2306986982119977, -2.742714766336926, 0
1959, -0.18375937184831323, -2.6634850980015305, 0
1960, -2.5589086504340353, 0.11769241846481199, 0
1961, 2.558908650434035, -0.11769241846481499, 0
1962, 0.13706074942034407, 2.5564936207438382, 0
1963, -4.45009188818406, -1.3643677953085231, 0
1964, -4.497904640615009, -1.3874423338752127, 0
1965, -4.495714074503753, -1.494642523872965, 0
1966, -2.534703012979658, 0.16140793984375568, 0
1967, -2.608825548146141, 0.16512604696443367, 0
1968, -4.4723847462237405, -0.23069869821199912, 0
1969, -2.5776309616494797, 0.026088502956390883, 0
1970, -3.5327938326071577, 0.2306986982119967, 0
1971, -2.6101523951394845, 0.11374783581648698, 0
1972, -2.7032231353551537, 0.14185763472556234, 0
1973, -3.0813200804527394, 0.23069869821199715, 0
1974, -2.8555832043755305, 0.23069869821199734, 0
1975, -2.742714766336926, 0.23069869821199745, 0
1976, -2.6634850980015305, 0.18375937184831295, 0
1977, 2.5347030129796573, -0.16140793984375781, 0
1978, 2.6088255481461395, -0.16512604696443586, 0
1979, 4.4723847462237405, 0.2306986982119989, 0
1980, 2.5776309616494792, -0.02608850295639506, 0
1981, 3.5327938326071577, -0.23069869821199726, 0
1982, 2.610152395139483, -0.11374783581649003, 0
1983, 2.7032231353551515, -0.14185763472556498, 0
1984, 3.0813200804527394, -0.23069869821199765, 0
1985, 2.8555832043755305, -0.23069869821199784, 0
1986, 2.742714766336926, -0.23069869821199793, 0
1987, 2.6634850980015283, -0.1837593718483135, 0
1988, 0.17909245226600526, 2.5992811366473476, 0
1989, -0.23069869821199931, 4.4723847462237405, 0
1990, 0.23069869821199585, 4.435741336915994, 0
1991, 0.16241935651496495, 2.6862805473176237, 0
1992, 0.2306986982119967, 3.5327938326071577, 0
1993, 0.23069869821199715, 3.0813200804527394, 0
1994, 0.23069869821199734, 2.8555832043755305, 0
1995, 0.23069869821199745, 2.742714766336926, 0
1996, 0.06585194067689415, 2.5495741167844086, 0
1997, -0.07081591895282563, 2.6325918070774725, 0
1998, 0.10244340019870082, 2.484982640759309, 0
1999, -0.030978187688304, 2.516395902589857, 0
2000, -0.09106419644254939, 2.559516603949379, 0
2001, 0.021663018495107066, 2.6019188644112488, 0
2002, -4.594373895810925, -5.404680318203556, 0
2003, -0.02918847593868429, 2.603350075927316, 0
2004, -0.0016305713658954883, 2.678390839299899, 0
2005, -4.49676849650285, -1.4430420549073462, 0
2006, 0.0765023746610355, 2.696891412495463, 0
2007, -0.23069869821199845, 3.551115537261031, 0
2008, 0.04593926317820492, 2.65172912033453, 0
2009, 0.11582895225930265, 2.6621781016301846, 0
2010, 0.1278504476666137, 2.8012579410239216, 0
2011, -4.554438415580514, -5.456500776248762, 0
2012, 0.012661929114966584, 2.734919871978701, 0
2013, -0.06294270178492131, 2.695854510013147, 0
2014, 0.012434865027443232, 2.793227294726552, 0
2015, -0.2306986982119978, 2.860163630538999, 0
2016, 0.12516401715929387, 2.7377648316635517, 0
2017, 0.17665794549513053, 2.7673894804086667, 0
2018, 0.2306986982119974, 2.7991489853562284, 0
2019, -0.230698698211998, 3.090480932779676, 0
2020, 0.06568740842692501, 2.7591707616393615, 0
2021, -4.599355475498996, -5.523164312165654, 0
2022, -4.464710227887347, -5.412187848521355, 0
2023, -4.26649575752464, -5.281704211464428, 0
2024, -4.354749276440717, -5.342607607376449, 0
2025, -4.142043476723286, -5.187734912113458, 0
2026, -5.5231643121656555, -4.599355475498994, 0
2027, -5.405914052623412, -4.440339271971397, 0
2028, -5.294142030719311, -4.3075964737961945, 0
2029, -5.187734912113458, -4.142043476723284, 0
2030, -5.092441153606415, -3.966335661069604, 0
2031, -4.506926052575192, -1.632315290800099, 0
2032, -3.9663356610696043, -5.092441153606415, 0
2033, -1.5131611923121684, -4.4600104850593025, 0
2034, -1.6323152908001006, -4.506926052575193, 0
2035, -0.9478159897130651, -3.6284831095199843, 0
2036, -0.9085173953590695, -3.333486358734631, 0
2037, -0.923621508342545, -3.4282506488390307, 0
2038, -0.935654503659514, -3.528141953855895, 0
2039, -0.9643518141641724, -3.7257725191567395, 0
2040, -3.725772519156739, -0.9643518141641714, 0
2041, -3.5995412551293224, -0.9316443264744001, 0
2042, -3.501796110433997, -0.9205440211318707, 0
2043, -5.092441153606415, 3.966335661069605, 0
2044, -5.523164312165655, 4.599355475498996, 0
2045, -5.522780874818629, 4.658100225130603, 0
2046, -5.405914052623412, 4.440339271971398, 0
2047, -5.34260760737645, 4.354749276440717, 0
2048, -5.187734912113458, 4.142043476723285, 0
2049, -5.281704211464429, 4.26649575752464, 0
2050, -4.521804200352845, 5.467348443763107, 0
2051, -4.599355475498996, 5.5231643121656555, 0
2052, -4.307596473796195, 5.294142030719311, 0
2053, -4.142043476723285, 5.187734912113458, 0
2054, -4.440339271971398, 5.405914052623412, 0
2055, -3.784552377097556, 0.9667322030955559, 0
2056, -3.6284831095199848, 0.9478159897130649, 0
2057, -3.966335661069605, 5.092441153606415, 0
2058, -0.9351343700837998, 3.5282017706384163, 0
2059, -0.9224860893456307, 3.430781263271469, 0
2060, -0.9157145307580133, 3.3678252862952713, 0
2061, -0.8713748839158089, 3.4044366320072794, 0
2062, -0.9643518141641718, 3.7257725191567395, 0
2063, -0.9478159897130651, 3.6284831095199848, 0
2064, -1.6323152908001002, 4.506926052575194, 0
2065, -1.513161192312168, 4.460010485059303, 0
2066, 1.594793188000238, -4.501296525404942, 0
2067, 1.733839220707458, -4.544756637899161, 0
2068, 0.9468013751679947, -3.6954513635779684, 0
2069, 0.9316443264744, -3.599541255129323, 0
2070, 0.9205440211318705, -3.5017961104339976, 0
2071, 3.966335661069604, -5.092441153606416, 0
2072, 3.4282506488390307, -0.9236215083425452, 0
2073, 3.528141953855895, -0.9356545036595143, 0
2074, 3.7257725191567395, -0.9643518141641726, 0
2075, 3.6284831095199843, -0.9478159897130654, 0
2076, 4.3865654383121875, -5.351538509913386, 0
2077, 4.26649575752464, -5.281704211464429, 0
2078, 4.142043476723285, -5.187734912113459, 0
2079, 4.599355475498995, -5.523164312165656, 0
2080, 4.658100225130602, -5.52278087481863, 0
2081, 4.416361558069761, -1.445585139442426, 0
2082, 4.506926052575193, -1.632315290800101, 0
2083, 5.2941420307193106, -4.307596473796197, 0
2084, 5.412187848521355, -4.464710227887348, 0
2085, 5.138703620833978, -4.055459817838337, 0
2086, 5.472141024344073, -4.542385245034161, 0
2087, 3.5017961104339976, 0.9205440211318712, 0
2088, 3.6284831095199848, 0.9478159897130651, 0
2089, 3.784552377097556, 0.9667322030955563, 0
2090, 0.9182055054282623, 3.494529869541465, 0
2091, 0.9302765590769773, 3.5970934101382235, 0
2092, 0.9667322030955559, 3.784552377097556, 0
2093, 0.9067738888098597, 3.3965401801741395, 0
2094, 1.5362444370222688, 4.4641453636980435, 0
2095, 1.7338392207074576, 4.54475663789916, 0
2096, 3.966335661069605, 5.092441153606415, 0
2097, 4.460010485059303, 1.513161192312168, 0
2098, 4.506926052575194, 1.6323152908001002, 0
2099, 5.092441153606415, 3.966335661069605, 0
2100, 5.187734912113458, 4.142043476723285, 0
2101, 5.294142030719311, 4.307596473796195, 0
2102, 5.412187848521356, 4.464710227887347, 0
2103, 5.472141024344074, 4.542385245034161, 0
2104, 4.22608877943016, 5.2395443983150045, 0
2105, 4.354749276440717, 5.34260760737645, 0
2106, 4.440339271971398, 5.405914052623412, 0
2107, 4.521804200352845, 5.467348443763107, 0
2108, 4.599355475498996, 5.523164312165655, 0
2109, -5.454382435022078, -5.772636879931686, 0
2110, -5.506261687819592, -5.766809416457449, 0
2111, -0.5265125575611542, 2.6700075818600757, 0
2112, -0.5674771746750046, 2.626267696280947, 0
2113, -0.531868834132659, 2.592975033126976, 0
2114, 5.772636879931686, -5.454382435022079, 0
2115, 5.766809416457449, -5.506261687819593, 0
2116, -5.622375569887888, -5.671295716083015, 0
2117, -2.7446136970965735, -0.6169246657725368, 0
2118, -2.704063448919926, -0.669005260171892, 0
2119, -0.49053573676084194, -2.645545413469191, 0
2120, -0.505511662412817, -2.5869171901900105, 0
2121, -0.5888416860015779, -2.7165576910009115, 0
2122, -5.724031524882675, 5.552479976999298, 0
2123, -0.6169246657725368, 2.744613697096574, 0
2124, -0.6690052601718917, 2.704063448919926, 0
2125, 0.6160861768139859, -2.7445925833430174, 0
2126, 0.6676896298797453, -2.703547096351213, 0
2127, 5.266179780637749, -5.798600358093191, 0
2128, 2.744613697096574, 0.6169246657725368, 0
2129, 2.704063448919926, 0.6690052601718918, 0
2130, 5.724031524882676, 5.552479976999299, 0
2131, -4.649512468837412, -5.614221825921683, 0
2132, -5.6142218259216845, -4.649512468837412, 0
2133, -1.3793785919462753, -4.337084804752586, 0
2134, -1.3405693213542038, -4.300039460191689, 0
2135, -1.2644080246270595, -4.366076634551314, 0
2136, -1.335257422572644, -4.404577712661511, 0
2137, -1.3183168460375898, -4.351312828799808, 0
2138, -1.4288001953514577, -4.41756028292187, 0
2139, -1.3108456658411392, -4.448322635284087, 0
2140, -1.3850933186056136, -4.3889884140923625, 0
2141, -0.954468347545956, -3.8786887386381754, 0
2142, -0.9512092537746135, -3.8017005830922037, 0
2143, -0.8997864772806077, -3.7979800954661727, 0
2144, -1.0039190727936576, -3.771722775207563, 0
2145, -1.018394949239994, -3.840286817974245, 0
2146, -1.048643107265075, -3.7981306558558785, 0
2147, -0.933413500560413, -3.236721867861668, 0
2148, -0.8858982354036954, -3.2760818262480442, 0
2149, -0.8433945027997124, -3.313960237098722, 0
2150, -3.8175126790662546, -0.9940206573165218, 0
2151, -3.8786887386381754, -0.9544683475459559, 0
2152, -4.649512468837413, 5.6142218259216845, 0
2153, -3.8786887386381754, 0.9544683475459559, 0
2154, -3.8287511535761696, 0.9385749604663153, 0
2155, -3.8385934360935337, 1.0141235236153447, 0
2156, -3.785003624933418, 1.0207252279790884, 0
2157, 0.9940206573165216, -3.817512679066255, 0
2158, 0.9544683475459556, -3.8786887386381754, 0
2159, 0.976945840798816, -3.9631487723443484, 0
2160, 1.0169250381284354, -3.9980220005033527, 0
2161, 3.2367218678616685, -0.9334135005604131, 0
2162, 3.3277117468469, -0.9053651867546315, 0
2163, 5.614221825921683, -4.649512468837413, 0
2164, 5.531485494697701, -4.614906281004807, 0
2165, 3.4090114649438603, 0.9051151040198395, 0
2166, 3.3341870709276518, 0.9540594482742886, 0
2167, 3.8786887386381754, 0.9544683475459563, 0
2168, 3.8385934360935337, 1.0141235236153445, 0
2169, 3.8287511535761696, 0.9385749604663157, 0
2170, 3.785003624933418, 1.0207252279790888, 0
2171, 3.9631487723443484, 0.9769458407988166, 0
2172, 3.9948155823433016, 1.019398127264965, 0
2173, 0.9334135005604127, 3.2367218678616685, 0
2174, 0.9142463392303202, 3.3156563467307403, 0
2175, 0.9672598019670074, 3.325159994719752, 0
2176, 0.8722273595504275, 3.3525615123792676, 0
2177, -4.713523202982805, -5.6296075299787995, 0
2178, -5.6296075299788, -4.7135232029828025, 0
2179, -3.9511636408471436, -0.9737562172509467, 0
2180, -4.295816676785249, 1.4091687499332748, 0
2181, -3.9524337027566636, 0.9740942209995752, 0
2182, -3.2339967429393766, 0.9478965193590031, 0
2183, -0.995452335764664, 3.8170046677094263, 0
2184, -0.983119863979592, 3.9608841422395944, 0
2185, -1.244667864711875, 4.389164196884443, 0
2186, 1.244667864711874, -4.389164196884443, 0
2187, 0.9481734238361197, -3.335002140361229, 0
2188, 3.966280123832038, -0.9907465567684987, 0
2189, 3.87731178299763, -0.9593938417949286, 0
2190, 3.801164243458616, -0.9503221701596253, 0
2191, 3.8344796145399855, -1.017188227410103, 0
2192, 3.7972058339958714, -1.0512494417643825, 0
2193, 3.7981154456678086, -0.8991116703447659, 0
2194, 3.771350619701687, -0.9996941285005122, 0
2195, 4.332743325489762, -1.3825125686858832, 0
2196, 4.354934483959448, -1.2742560101377622, 0
2197, 4.304081566655227, -1.259526991207758, 0
2198, 4.329991152078022, -1.3255456838109183, 0
2199, 4.409556162778358, -1.3502516776801237, 0
2200, 4.392504768596137, -1.241811633341691, 0
2201, 4.385226238656387, -1.3998981064565066, 0
2202, 4.3530946339986265, -1.4552482607131347, 0
2203, 4.459530848506358, -1.3945938593154203, 0
2204, 4.445367559570811, -1.3129860119707548, 0
2205, 3.2176798227285768, 0.8381057605309408, 0
2206, 0.9593938417949279, 3.87731178299763, 0
2207, 0.9387929945927737, 3.8290120350512984, 0
2208, 1.0169002919713381, 3.8351912420310943, 0
2209, 1.0196430354265087, 3.7823037199166034, 0
2210, 0.9903202049711866, 3.7159578809784155, 0
2211, 0.93020775601772, 3.7336395737543495, 0
2212, 0.9691564192157855, 3.652051063332892, 0
2213, 0.8858746854428821, 3.7032948905392105, 0
2214, 0.981216008865453, 3.602287862314054, 0
2215, 0.9137205713222465, 3.6500375935915557, 0
2216, 1.2446678647118754, 4.389164196884442, 0
2217, -3.3536846057196126, 0.9359420457158013, 0
2218, -3.4250224989387554, 0.95579192096344, 0
2219, -1.3347815800885614, 4.406735742479012, 0
2220, -1.328863067793125, 4.356728473489958, 0
2221, -1.3099527714108332, 4.44955541282834, 0
2222, -1.4180661337891305, 4.447996960589807, 0
2223, -1.3658298983305177, 4.448749945015526, 0
2224, -1.3923190960925482, 4.3952822793840145, 0
2225, 1.3347815800885607, -4.406735742479012, 0
2226, 1.3288630677931244, -4.356728473489958, 0
2227, 1.3099527714108326, -4.44955541282834, 0
2228, 1.4180661337891298, -4.447996960589807, 0
2229, 1.3923190960925476, -4.3952822793840145, 0
2230, 1.4769467929258877, -4.386593263199584, 0
2231, 1.365829898330517, -4.448749945015526, 0
2232, 1.5066284025958503, -4.473987768847813, 0
2233, 1.494215362717958, -4.336574353941961, 0
2234, 1.4690957432330674, -4.43799730220878, 0
2235, 1.545901168201475, -4.411912039439243, 0
2236, 1.5582802017920645, -4.463204743768674, 0
2237, 1.5816217718204422, -4.375761115178956, 0
2238, 0.9641277906918805, -3.426643426848633, 0
2239, 1.4616767282069458, 4.389960221801552, 0
2240, 1.338152074465779, 4.410621955087107, 0
2241, 1.309343249554362, 4.450396951124341, 0
2242, 1.329263735974668, 4.360113838008909, 0
2243, 1.3993821273207097, 4.39710892736567, 0
2244, 1.4387735633689718, 4.465374872462464, 0
2245, 1.4871826895193487, 4.438891423509723, 0
2246, 1.5377348967262703, 4.400965803308624, 0
2247, 1.4823408295208267, 4.519431473303878, 0
2248, 1.3909048342810884, 4.492261795415219, 0
2249, 4.387150233978741, 1.2785515003387327, 0
2250, 4.435414180703737, 1.3201951930550244, 0
2251, 4.438283208341697, 1.4178800708273152, 0
2252, 4.3207759549982665, 1.3911514354140473, 0
2253, 4.278831032927678, 1.3457718161978145, 0
2254, 4.280834284443811, 1.4199840656953047, 0
2255, 4.382246731645489, 1.3925703310814543, 0
2256, 4.3787320005145975, 1.475040083569326, 0
2257, 4.43081518795431, 1.4697008617776168, 0
2258, 4.493637594761294, 1.4590351357173532, 0
2259, 4.5454371204187405, 1.4688522709764165, 0
2260, 4.400445383496733, 1.5344526951747597, 0
2261, 4.452129113780712, 1.5850776764783538, 0
2262, 4.3326832964681055, 1.4965869584619134, 0
2263, 4.336849632941911, 1.442010968067279, 0
2264, -3.524135424693256, 0.970493059859881, 0
2265, -3.577783419699037, 0.9659377824605955, 0
2266, -3.5839111193127136, 0.9030987186715994, 0
2267, -3.5317158119300562, 0.8952144626799869, 0
2268, -0.10244340019870113, -2.484982640759309, 0
2269, -4.380629386105507, -1.4673638634839166, 0
2270, -4.368833306034864, -1.4002004324356974, 0
2271, -4.335252771612385, -1.44071586796355, 0
2272, -4.553630642015794, 1.5901055510404216, 0
2273, -4.576431813728144, 1.6749762710401468, 0
2274, -4.605986796165912, 1.5491103537941742, 0
2275, -4.550236554501847, 1.539283362663704, 0
2276, -4.521969453075175, 1.479591633119028, 0
2277, -4.587439467944365, 1.6265207649915185, 0
2278, -4.48616988021085, 1.4382799311437302, 0
2279, -4.520870304656508, 1.6885824911134282, 0
2280, -4.601969719981512, 1.7619065378189276, 0
2281, -4.613304278587844, 1.7113604043840505, 0
2282, -4.459868367569061, 1.7642046374382865, 0
2283, -0.0650293968185271, -2.534700215736632, 0
2284, 0.09744185884771805, -2.4839566709441234, 0
2285, -0.15241461629285982, -2.799148985356228, 0
2286, -0.03637654501699252, -2.6843008670353616, 0
2287, -2.4849826407593087, 0.1024434001987009, 0
2288, 2.4849826407593087, -0.1024434001987011, 0
2289, -4.543351977987389, -1.46993378860351, 0
2290, -4.428349250446741, -1.554622510521721, 0
2291, -2.534700215736632, 0.06502939681852636, 0
2292, -2.483956670944123, -0.09744185884771828, 0
2293, -2.799148985356228, 0.15241461629285954, 0
2294, -2.6843008670353616, 0.036376545016992015, 0
2295, 2.5347002157366303, -0.06502939681852962, 0
2296, 2.483956670944123, 0.09744185884771833, 0
2297, 2.799148985356228, -0.15241461629285785, 0
2298, 2.684300867035359, -0.03637654501699672, 0
2299, 0.2306986982119975, 2.6862805473176237, 0
2300, 0.011977493527059853, 2.548918138288098, 0
2301, -0.09744185884771844, 2.483956670944123, 0
2302, -0.1338346847493344, 2.610710683229674, 0
2303, -0.16407027852985817, 2.483614681005728, 0
2304, -0.15589727185845217, 2.5488148179227146, 0
2305, -0.18728372901449414, 2.594882424812661, 0
2306, -0.21117181171725394, 2.5364426611884525, 0
2307, -4.601509881924578, -5.473248654331562, 0
2308, -4.5416333001250635, -5.513592749126588, 0
2309, -4.519132993503956, -5.4149891864959665, 0
2310, -4.659448276691814, -5.526472259654983, 0
2311, -4.568507787456577, -5.568964859429833, 0
2312, -4.411386511327747, -5.446210298677086, 0
2313, -4.380042541367216, -5.396062844436066, 0
2314, -4.320872920866608, -5.393263480181787, 0
2315, -4.421478796674018, -5.343744977249565, 0
2316, -4.388814733321339, -5.3020663948257996, 0
2317, -4.234210911649159, -5.333624181432991, 0
2318, -4.294694687366766, -5.335236510941093, 0
2319, -4.247750375084199, -5.208090421839605, 0
2320, -4.194314152344935, -5.260891291678162, 0
2321, -4.199074764316575, -5.1762170009669335, 0
2322, -4.160852874736094, -5.1339151851288705, 0
2323, -4.060232302462557, -5.128946112002651, 0
2324, -4.140387408116686, -5.284155349946048, 0
2325, -5.568964859429835, -4.568507787456575, 0
2326, -5.526472259654984, -4.659448276691812, 0
2327, -5.456500776248763, -4.554438415580513, 0
2328, -5.473248654331564, -4.601509881924577, 0
2329, -5.404680318203558, -4.594373895810925, 0
2330, -5.414464814003468, -4.504811803090673, 0
2331, -5.3612185695252155, -4.506255548172244, 0
2332, -5.4585089576334545, -4.4661670917125535, 0
2333, -5.513592749126588, -4.541633300125062, 0
2334, -5.453456380148459, -4.406180218360268, 0
2335, -5.333402811604997, -4.401161873529612, 0
2336, -5.354594804844595, -4.448630992354713, 0
2337, -5.2825804720525475, -4.44206600494275, 0
2338, -5.291428033341135, -4.36375505531109, 0
2339, -5.391929912847432, -4.379529542985506, 0
2340, -5.393707311144842, -4.32057610680169, 0
2341, -5.231112545802938, -4.231895593073381, 0
2342, -5.320532435712452, -4.242351613446262, 0
2343, -5.273019685397979, -4.261093195682731, 0
2344, -5.280236082960622, -4.199378561186754, 0
2345, -5.283816575948171, -4.140583036737438, 0
2346, -5.135136604819487, -4.175497274495542, 0
2347, -5.186431044832057, -4.198069643277256, 0
2348, -5.125758167863437, -4.06305305818044, 0
2349, -5.136020222074947, -4.118810362630822, 0
2350, -5.034982894941172, -3.9973626928198276, 0
2351, -5.085785057065404, -4.02272572736297, 0
2352, -4.529429296108052, -1.7393219701974982, 0
2353, -4.444445910616572, -1.659200593251202, 0
2354, -4.429666858282438, -1.6079475447629368, 0
2355, -4.495019750475917, -1.6906886853720093, 0
2356, -4.535131733654474, -1.5607253075335386, 0
2357, -4.588851213320822, -1.5565876674399057, 0
2358, -4.566924938163991, -1.615045712711679, 0
2359, -4.613379290272138, -1.656038710713036, 0
2360, -4.598656220157432, -1.725150436174742, 0
2361, -4.554841615159239, -1.6755570053690396, 0
2362, -4.65221200814877, -1.7544150342467357, 0
2363, -4.587099734025842, -1.8565051703078974, 0
2364, -4.632948695558438, -1.8139381596511828, 0
2365, -4.676870812056841, -1.8621136322753606, 0
2366, -4.570016905003309, -1.7921297593175802, 0
2367, -4.626154435140094, -1.9526399092376023, 0
2368, -4.5212971101008534, -1.839512450522193, 0
2369, -4.666489479001268, -1.9157673935582218, 0
2370, -4.6999962183709165, -1.975084648110479, 0
2371, -4.501134387408895, -1.7874506239603007, 0
2372, -4.541491471579899, -1.897215217302262, 0
2373, -4.542015643522672, -1.9685199045250312, 0
2374, -4.471263815525205, -1.8721205698228782, 0
2375, -4.631707467012613, -2.076145054488347, 0
2376, -4.578803325997093, -1.9325952022530606, 0
2377, -4.680548558268741, -2.0355457470061578, 0
2378, -4.582337122134327, -2.0261030169519203, 0
2379, -4.720053203657883, -2.093999548366895, 0
2380, -4.5666539623919835, -2.0909505212126644, 0
2381, -4.65568317126023, -2.185009793382891, 0
2382, -4.703048286734255, -2.150241302580174, 0
2383, -4.73168260541467, -2.2196001576123066, 0
2384, -4.6003992040602, -2.1481736004846295, 0
2385, -4.542544867208225, -2.2100530226078563, 0
2386, -4.661260356930043, -2.315079816224025, 0
2387, -4.60676400521599, -2.2320919046559053, 0
2388, -4.670656486474095, -2.249522344227545, 0
2389, -4.606827764082629, -2.29143727423574, 0
2390, -4.557480942045993, -2.335004981434424, 0
2391, -4.715930529279761, -2.289463412483113, 0
2392, -4.755433127291334, -2.34871775481249, 0
2393, -4.659287747773012, -2.455707294898061, 0
2394, -4.715713683833885, -2.4097191094732273, 0
2395, -4.616365296511777, -2.3614737341672782, 0
2396, -4.796148663687502, -2.476237904179369, 0
2397, -4.69977123309458, -2.355906779919617, 0
2398, -4.6597146756296635, -2.39862067794823, 0
2399, -4.480748867530631, -1.5806504036360007, 0
2400, -4.473004167414181, -1.7406540761022913, 0
2401, -4.617686732802568, -1.8983375077988087, 0
2402, -4.633737164534008, -2.0069616975269744, 0
2403, -4.652153937401321, -2.1278509830696155, 0
2404, -4.719915172832798, -2.5179890893868495, 0
2405, -4.713032369000988, -2.4640396704414402, 0
2406, -4.738901986228439, -2.6142777079294057, 0
2407, -4.648105996853037, -2.527241426173001, 0
2408, -4.690603636662523, -2.5737852086042783, 0
2409, -4.613202120177642, -2.58884092702936, 0
2410, -4.668539339860244, -2.649153627618665, 0
2411, -4.75318574872195, -2.561444862449532, 0
2412, -4.739700016646949, -2.7043045071982803, 0
2413, -4.634585685124414, -2.713059356059236, 0
2414, -4.686387188519423, -2.699609137141096, 0
2415, -4.704726617336151, -2.796390700567806, 0
2416, -4.660449730003877, -2.762474176859752, 0
2417, -4.71748454903654, -2.6594844965633575, 0
2418, -3.9973626928198285, -5.034982894941171, 0
2419, -4.036594310417624, -5.076747753864552, 0
2420, -1.564623665282445, -4.408869381217285, 0
2421, -1.6178276710738337, -4.444534143206534, 0
2422, -1.4952606564274824, -4.390533980048902, 0
2423, -1.668346148813245, -4.42319208202952, 0
2424, -1.5708254832356876, -4.488326208417381, 0
2425, -1.4417561611503484, -4.354190627291201, 0
2426, -1.4938050624911214, -4.337247530122271, 0
2427, -1.583554779936987, -4.5571844904030705, 0
2428, -1.5176745767578868, -4.523692919796034, 0
2429, -1.4691378392688015, -4.544886550970233, 0
2430, -1.447317573226438, -4.481746603280014, 0
2431, -1.3919980893834725, -4.490480114957893, 0
2432, -1.7393219701974998, -4.529429296108052, 0
2433, -1.0009507310848866, -3.6185314175985654, 0
2434, -0.8900766699283149, -3.601494612435378, 0
2435, -0.9635682031687167, -3.3256832554638445, 0
2436, -0.9793304667248207, -3.422660516360301, 0
2437, -0.8663661646594452, -3.4036127283192115, 0
2438, -0.9894678878888863, -3.521953267619437, 0
2439, -0.9640667553097892, -3.575605922132947, 0
2440, -0.8794134175418593, -3.499977564203735, 0
2441, -0.9525279586147737, -3.475438957326776, 0
2442, -1.0175893757839185, -3.711566015895243, 0
2443, -0.905385230284643, -3.700783159060193, 0
2444, -3.7115660158952424, -1.0175893757839172, 0
2445, -3.700783159060194, -0.9053852302846417, 0
2446, -3.6602343110720703, -0.9573477593733786, 0
2447, -3.6123836040100143, -0.9858283476381307, 0
2448, -3.605459288770362, -0.8772260919045709, 0
2449, -3.5091281739395384, -0.8674104026068122, 0
2450, -3.5533594980862113, -0.9023998588112705, 0
2451, -3.5455010763009973, -0.9624075857131967, 0
2452, -3.428674875003571, -0.9436840252251081, 0
2453, -3.369683132240151, -0.9163148665844244, 0
2454, -3.4220672176418385, -0.8806659734547381, 0
2455, -5.034982894941172, 3.9973626928198285, 0
2456, -5.469515631567063, 4.520240762781338, 0
2457, -5.568964859429834, 4.568507787456577, 0
2458, -5.5810324852534166, 4.640862230037013, 0
2459, -5.375224059405024, 4.494839601659687, 0
2460, -5.453456380148459, 4.4061802183602685, 0
2461, -5.3923126780605575, 4.3215087743018685, 0
2462, -5.315928655920187, 4.415225869141769, 0
2463, -5.368085651620838, 4.4021117308290245, 0
2464, -5.135136604819487, 4.175497274495542, 0
2465, -5.125758167863437, 4.063053058180441, 0
2466, -5.124874550607976, 4.11973997004516, 0
2467, -5.085785057065404, 4.022725727362971, 0
2468, -5.333624181432992, 4.234210911649159, 0
2469, -5.335236510941094, 4.294694687366766, 0
2470, -5.208090421839606, 4.247750375084199, 0
2471, -5.185886091090862, 4.1972128304114795, 0
2472, -5.257258280779217, 4.171988981208647, 0
2473, -5.306591215231352, 4.127431580902485, 0
2474, -5.238762932755602, 4.119251278416443, 0
2475, -5.253490133194415, 4.223378767341914, 0
2476, -5.259787890933314, 4.333184440823196, 0
2477, -4.488436113424816, 5.513602232433469, 0
2478, -4.571590177693839, 5.434244572896086, 0
2479, -4.568507787456577, 5.568964859429835, 0
2480, -4.659448276691814, 5.526472259654984, 0
2481, -4.543948844932805, 5.518363690463059, 0
2482, -4.3382959131779995, 5.367210592630662, 0
2483, -4.290887338149981, 5.344145700702595, 0
2484, -4.2358391164525, 5.297957304588498, 0
2485, -4.217466639404053, 5.360552050795119, 0
2486, -4.268529537606588, 5.2360851823116175, 0
2487, -4.17201046630584, 5.257253689440379, 0
2488, -4.2668469616099545, 5.180360997242508, 0
2489, -4.204545748059979, 5.185749405866747, 0
2490, -4.17755817139627, 5.13189632432208, 0
2491, -4.30499613291229, 5.417004302874825, 0
2492, -4.3836626722581, 5.401471766457714, 0
2493, -4.403840879224206, 5.327586227754407, 0
2494, -4.119265210031507, 5.2387720081315825, 0
2495, -4.057227999630985, 5.180482691984302, 0
2496, -4.127431580902486, 5.306591215231352, 0
2497, -4.217684771262156, 5.234881922275209, 0
2498, -4.363029297990074, 5.289825907960344, 0
2499, -4.448398719332019, 5.3544911094643455, 0
2500, -4.044907971633143, 5.236414897244659, 0
2501, -4.104330682192816, 5.129200938040347, 0
2502, -4.094114483827141, 5.072802617032571, 0
2503, -4.030068236161935, 5.08160142455495, 0
2504, -4.001116216756279, 5.028031828819766, 0
2505, -4.007383228387258, 5.1410029522479, 0
2506, -3.9458736062832283, 5.1513659295897645, 0
2507, -4.464668490323484, 5.458382733357804, 0
2508, -4.503041433269125, 5.40749838355211, 0
2509, -3.717906030099062, 0.9938307568871291, 0
2510, -3.7311789055967117, 0.9309696558875333, 0
2511, -3.666390894906721, 0.9840453130782059, 0
2512, -3.70337199585457, 0.885275749320361, 0
2513, -0.9891077717749825, 3.5219946819565875, 0
2514, -0.8787577997457132, 3.5075623134023766, 0
2515, -0.9771073933161926, 3.4253536747310087, 0
2516, -0.9530738742629281, 3.476341324082091, 0
2517, -1.0175893757839176, 3.711566015895243, 0
2518, -0.9053852302846421, 3.700783159060194, 0
2519, -1.0009507310848866, 3.6185314175985663, 0
2520, -0.9639734235896684, 3.575497302868221, 0
2521, -0.9033781841390888, 3.585975875309267, 0
2522, -1.6592005932512024, 4.444445910616573, 0
2523, -1.5848481720829366, 4.439723536487869, 0
2524, -1.5768600471714436, 4.385035821519213, 0
2525, -1.571969492040777, 4.5536010496598065, 0
2526, -1.575936979577833, 4.4963827453706395, 0
2527, -1.5159203265256411, 4.523548353253295, 0
2528, -1.4605451758624388, 4.4941241793158975, 0
2529, -1.739321970197499, 4.529429296108051, 0
2530, -1.7078338780766917, 4.478855456248707, 0
2531, -1.766178505860105, 4.4776185637602435, 0
2532, 1.5674815807368814, -4.563885889856818, 0
2533, 1.6517194009537262, -4.563530864945506, 0
2534, 1.5420685743448013, -4.515543071658258, 0
2535, 1.6531152529369673, -4.6214041003574335, 0
2536, 1.7122777401085367, -4.602880779640001, 0
2537, 1.7555402309951003, -4.648470025233638, 0
2538, 1.8614591406606908, -4.590079684845958, 0
2539, 1.8163549682610134, -4.633524180269056, 0
2540, 1.861588247738554, -4.679022830196293, 0
2541, 1.7972470634753404, -4.568550436659582, 0
2542, 1.8490410591831021, -4.52059472779215, 0
2543, 1.7840940293779974, -4.507217473869861, 0
2544, 1.7717842267927943, -4.438679189240961, 0
2545, 1.7269701099142776, -4.483152358109962, 0
2546, 1.6559747921295258, -4.456478892170178, 0
2547, 1.6480083727699442, -4.509772785183271, 0
2548, 1.6051944147679524, -4.431763340448359, 0
2549, 0.8912096743756301, -3.7026080793941984, 0
2550, 1.006280750705436, -3.7145837352304745, 0
2551, 0.9585053058066609, -3.761087731968341, 0
2552, 1.0107914924679955, -3.767567049085179, 0
2553, 0.9364527246445717, -3.814357832344175, 0
2554, 0.8772260919045708, -3.6054592887703625, 0
2555, 0.9135069152663363, -3.6515602989967717, 0
2556, 0.9769737642977044, -3.641530385187295, 0
2557, 0.8880227131116956, -3.4596890620208467, 0
2558, 0.9023998588112703, -3.5533594980862118, 0
2559, 0.9624075857131964, -3.5455010763009978, 0
2560, 3.9973626928198276, -5.034982894941173, 0
2561, 3.422660516360301, -0.9793304667248208, 0
2562, 3.4036127283192115, -0.8663661646594454, 0
2563, 3.499977564203735, -0.8794134175418596, 0
2564, 3.475438957326776, -0.9525279586147739, 0
2565, 3.521953267619437, -0.9894678878888867, 0
2566, 3.711566015895243, -1.0175893757839187, 0
2567, 3.7007831590601934, -0.9053852302846431, 0
2568, 3.6185314175985654, -1.0009507310848869, 0
2569, 3.601494612435378, -0.890076669928315, 0
2570, 3.575605922132947, -0.9640667553097897, 0
2571, 4.423299661944143, -5.305897174377796, 0
2572, 4.327970825432919, -5.382649866503393, 0
2573, 4.3285895156379715, -5.313081358156544, 0
2574, 4.278264335692377, -5.3355435498873485, 0
2575, 4.320441566444217, -5.252076981371959, 0
2576, 4.427821299056566, -5.4233364781695546, 0
2577, 4.379198249137784, -5.40352378146141, 0
2578, 4.3900200614271965, -5.47594797147047, 0
2579, 4.514714983066558, -5.460499289142697, 0
2580, 4.446549399111329, -5.3648231088411436, 0
2581, 4.502434579110392, -5.36590627049403, 0
2582, 4.462212338846248, -5.463092062776299, 0
2583, 4.247750375084198, -5.208090421839607, 0
2584, 4.199074764316574, -5.176217000966935, 0
2585, 4.160852874736094, -5.133915185128872, 0
2586, 4.065660013609905, -5.121313659670896, 0
2587, 4.036245092897392, -5.074403358114755, 0
2588, 4.194314152344935, -5.260891291678163, 0
2589, 4.140387408116685, -5.284155349946049, 0
2590, 4.568507787456575, -5.568964859429836, 0
2591, 4.640862230037011, -5.5810324852534166, 0
2592, 4.443337123438088, -1.5469275904195965, 0
2593, 4.393218691033442, -1.5060067950468345, 0
2594, 4.444445910616573, -1.6592005932512035, 0
2595, 4.457257949632673, -1.6029320874468016, 0
2596, 4.529429296108052, -1.7393219701975002, 0
2597, 4.495019750475918, -1.6906886853720111, 0
2598, 4.553601049659806, -1.571969492040778, 0
2599, 4.509806443493998, -1.509528151451119, 0
2600, 4.478762414875722, -1.4546445622869477, 0
2601, 4.444449171881449, -1.4944134961679263, 0
2602, 4.498014293183513, -1.5643776600984218, 0
2603, 4.544527850188585, -1.4693238894936556, 0
2604, 5.246231881242557, -4.343281352902658, 0
2605, 5.34802498665924, -4.389393281701066, 0
2606, 5.320532435712451, -4.242351613446263, 0
2607, 5.227874997762208, -4.189993894763037, 0
2608, 5.253322595670284, -4.253126067355503, 0
2609, 5.28337560978214, -4.199941257926837, 0
2610, 5.2652432609901725, -4.1413048615942545, 0
2611, 5.204673122418807, -4.0944028819462055, 0
2612, 5.19368772243579, -4.240469106259681, 0
2613, 5.23533920993974, -4.045483971699794, 0
2614, 5.142158019596878, -4.124955729063248, 0
2615, 5.12723663794057, -4.180521844828154, 0
2616, 5.192168087783775, -4.148049396184866, 0
2617, 5.174841011994084, -4.194556649574894, 0
2618, 5.446210298677087, -4.4113865113277475, 0
2619, 5.401682497151927, -4.380010822162334, 0
2620, 5.3643160696735475, -4.3244379755426845, 0
2621, 5.367881952592537, -4.5008241905159245, 0
2622, 5.077214117297092, -3.9745581472710008, 0
2623, 5.083694691538461, -4.087725666090478, 0
2624, 5.087244382509261, -4.030753076408783, 0
2625, 5.428267213827622, -4.576196634562677, 0
2626, 5.5075429842082375, -4.492807334189864, 0
2627, 3.509128173939539, 0.8674104026068125, 0
2628, 3.523362549318743, 0.9772135556001712, 0
2629, 3.5663832496896073, 0.9284029019960528, 0
2630, 3.6114540045305303, 0.8932587103463, 0
2631, 3.6185314175985663, 1.0009507310848866, 0
2632, 3.6987535150115454, 0.9211510323039968, 0
2633, 3.7519632741684, 0.9245341649174214, 0
2634, 3.680529972108048, 0.9790509624550655, 0
2635, 0.9737602354369905, 3.523759690574027, 0
2636, 0.8641150337507868, 3.5021259642579947, 0
2637, 0.9030070690687231, 3.548310737543339, 0
2638, 0.8745499020451568, 3.60319452872674, 0
2639, 0.8531881692424768, 3.405919267700027, 0
2640, 0.9642839790219284, 3.4241703607738616, 0
2641, 1.6402145440692328, 4.488568570210245, 0
2642, 1.756799048428717, 4.480571117917278, 0
2643, 1.6993048818819516, 4.496204101393292, 0
2644, 3.9973626928198285, 5.034982894941172, 0
2645, 4.062139439428343, 5.127315764891245, 0
2646, 4.02296167978551, 5.085912469616285, 0
2647, 4.529429296108051, 1.739321970197499, 0
2648, 4.444445910616573, 1.6592005932512024, 0
2649, 4.495019750475918, 1.6906886853720096, 0
2650, 4.5536010496598065, 1.571969492040777, 0
2651, 4.499684087757665, 1.5538991508041762, 0
2652, 5.034982894941172, 3.9973626928198285, 0
2653, 5.135136604819487, 4.175497274495543, 0
2654, 5.125758167863437, 4.063053058180442, 0
2655, 5.136020222074948, 4.118810362630824, 0
2656, 5.075846120446828, 4.036460004515422, 0
2657, 5.246231881242558, 4.343281352902657, 0
2658, 5.231112545802939, 4.23189559307338, 0
2659, 5.180363052029071, 4.208395861041066, 0
2660, 5.320532435712452, 4.242351613446263, 0
2661, 5.273019685397979, 4.261093195682732, 0
2662, 5.280236082960624, 4.199378561186756, 0
2663, 5.28381657594817, 4.140583036737439, 0
2664, 5.367210592630662, 4.3382959131779995, 0
2665, 5.344145700702595, 4.290887338149981, 0
2666, 5.417004302874825, 4.30499613291229, 0
2667, 5.399684296631116, 4.397950456085083, 0
2668, 5.456311056233126, 4.404129140121257, 0
2669, 5.3576504535872616, 4.440373838185831, 0
2670, 5.309996592686199, 4.372166549222232, 0
2671, 5.301109961029872, 4.427152629076522, 0
2672, 5.367881952592538, 4.500824190515924, 0
2673, 5.428267213827623, 4.576196634562677, 0
2674, 5.470719398123847, 4.481507694478612, 0
2675, 5.537739730270938, 4.5895386069754345, 0
2676, 5.5742975791641545, 4.641916444754703, 0
2677, 5.511833766693089, 4.646566990192883, 0
2678, 5.522676996622758, 4.541287136621869, 0
2679, 5.591657768990924, 4.553223607752837, 0
2680, 4.246952916059193, 5.313132694843282, 0
2681, 4.296571759010515, 5.259312599839543, 0
2682, 4.348459078949122, 5.2392803198236235, 0
2683, 4.304089557799201, 5.31602637149385, 0
2684, 4.1488350560998235, 5.177056734960286, 0
2685, 4.260681389860176, 5.189313788711439, 0
2686, 4.2042851673011885, 5.1875019226267645, 0
2687, 4.3215087743018685, 5.3923126780605575, 0
2688, 4.415225869141769, 5.315928655920187, 0
2689, 4.4021117308290245, 5.368085651620838, 0
2690, 4.494839601659687, 5.375224059405024, 0
2691, 4.4061802183602685, 5.453456380148459, 0
2692, 4.464668490323484, 5.458382733357804, 0
2693, 4.571590177693838, 5.434244572896086, 0
2694, 4.488436113424816, 5.513602232433469, 0
2695, 4.568507787456577, 5.568964859429834, 0
2696, 4.543948844932805, 5.518363690463059, 0
2697, 4.645761346851182, 5.488993184874949, 0
2698, -1.4122132028227437, -4.291599214377429, 0
2699, -3.799441190153468, -1.0449497573346274, 0
2700, -3.7867732655431543, -0.9324001257848645, 0
2701, 3.3130787004814275, -0.8475146597867174, 0
2702, 3.271584132761652, -0.8875163009501612, 0
2703, 3.325930075389524, -0.9618268913059057, 0
2704, 5.56646648964772, -4.570190495115259, 0
2705, 5.486436466369521, -4.647611421465777, 0
2706, 3.41774281995607, 0.8538999388457846, 0
2707, 3.4595169196243507, 0.8880944832626946, 0
2708, 3.4490720245987863, 0.9509067905096483, 0
2709, 0.8628080993380903, 3.2781050925598603, 0
2710, -1.045862175732104, 3.799117431065875, 0
2711, -0.9326295476343659, 3.7875035296771755, 0
2712, -0.9563697659103501, 3.8781571841160205, 0
2713, 4.288854913528313, -1.4141942269177485, 0
2714, -1.4719783882142259, 4.373058373640195, 0
2715, -1.4979102717503336, 4.33051214732758, 0
2716, -1.4319899593693426, 4.333447229800298, 0
2717, 1.4523316408704587, -4.495120071343264, 0
2718, 1.4908969967400754, -4.533026906754117, 0
2719, 1.4344701482003248, 4.338168622429247, 0
2720, 1.490952636486048, 4.34192748181891, 0
2721, 4.489235515540885, 1.3927617867442834, 0
2722, -4.335812759918029, -1.494679553534443, 0
2723, -4.440135256313518, -1.4727193639129044, 0
2724, -4.543596518602583, 1.8275032206782251, 0
2725, -4.553030098864151, 1.777127053830896, 0
2726, -4.502090107464579, 1.7961243237602917, 0
2727, -4.496535729004553, 1.864696724822785, 0
2728, -4.62371058984882, 1.8400242363402532, 0
2729, -4.64295993378806, 1.7925827771806455, 0
2730, -4.571837258457918, 1.909368742236501, 0
2731, -4.682720810243166, 1.8606854386504568, 0
2732, -4.646240698213459, 1.9282151340231877, 0
2733, -4.579403876943444, 1.8609547294435138, 0
2734, -4.538094694036587, 1.9694491335290951, 0
2735, -4.627938768938303, 2.042650308976969, 0
2736, -4.571620174326283, 2.0200373809995376, 0
2737, -4.5552349481112255, 2.085287496059869, 0
2738, -4.61935261713976, 1.9825959761489202, 0
2739, -4.681706801455994, 2.0043219681599735, 0
2740, -4.641790077979497, 2.149574124670684, 0
2741, -4.732201300213175, 1.9688525175297464, 0
2742, -4.58795723548647, 2.1316423725462146, 0
2743, -4.581733248675395, 2.2045410404014985, 0
2744, -4.663092791490233, 2.282306686804284, 0
2745, -4.609049040689146, 2.257405451925634, 0
2746, -4.595793147508466, 2.331195571522288, 0
2747, -4.6615896345115635, 2.2144721791331796, 0
2748, -4.768712723944796, 2.215649096003247, 0
2749, -4.701616344346342, 2.1667912265108424, 0
2750, -4.714767913784189, 2.0947814613873947, 0
2751, -4.6785362740625445, 2.0567520617272725, 0
2752, -4.7147977803472525, 2.247227038518019, 0
2753, -4.6758799810607155, 2.410355030985377, 0
2754, -4.658958817073022, 2.3473821651336504, 0
2755, -4.6212192177283855, 2.3912828471827847, 0
2756, -4.601412512509369, 2.46100324666021, 0
2757, -4.782050492378755, 2.346113805784521, 0
2758, -4.7165215682056445, 2.305412406103517, 0
2759, -4.689845120468471, 2.533285147857024, 0
2760, -4.6335366838025696, 2.5119382025564274, 0
2761, -4.624204464047374, 2.5875790233452958, 0
2762, -4.6808601292072245, 2.4720475690406247, 0
2763, -4.796148663687501, 2.476237904179369, 0
2764, -4.731846669093884, 2.4368843847378416, 0
2765, -4.748282846941129, 2.514611532697276, 0
2766, -4.726953156425988, 2.374909083400565, 0
2767, -4.705533102250638, 2.6705392941328525, 0
2768, -4.743452349354379, 2.597111281758699, 0
2769, -4.650465859691273, 2.643178810710351, 0
2770, -4.633767662426003, 2.7131729699025984, 0
2771, -4.683739215044647, 2.593460933926261, 0
2772, -4.72469064296627, 2.7873550484298213, 0
2773, -4.667281237081483, 2.7649082483206735, 0
2774, -4.6534376058941795, 2.835128875276095, 0
2775, -4.714388455157831, 2.729065810238455, 0
2776, -4.831819255852811, 2.728969405989077, 0
2777, -4.74606160489451, 2.909476002015212, 0
2778, -4.764281527422967, 2.6915835527970793, 0
2779, -4.68800327705802, 2.8869363855350745, 0
2780, -4.672688077236138, 2.954884590620992, 0
2781, -4.736434243565123, 2.848230356062225, 0
2782, -4.853391676709374, 2.8515768094039347, 0
2783, -4.782774764212897, 2.8077202990436345, 0
2784, -4.770344489527315, 2.750158880967256, 0
2785, -4.765863030788135, 3.0234568120226766, 0
2786, -4.794323354182734, 2.8705101150719914, 0
2787, -4.708452083519417, 3.0038774782034396, 0
2788, -4.696552074820857, 3.0715938237208285, 0
2789, -4.753084303942891, 2.9669663927527434, 0
2790, -4.877455514081875, 2.9716786478254624, 0
2791, -4.801108759419298, 2.9282848533819936, 0
2792, -4.794870669179646, 3.139191819388032, 0
2793, -4.735541961527967, 3.120183824353018, 0
2794, -4.721691189895953, 3.1859204498093563, 0
2795, -4.780730425775067, 3.081233189646624, 0
2796, -4.904010767970315, 3.08927492125366, 0
2797, -4.811453721831572, 3.245827508423134, 0
2798, -4.825451114545473, 3.040204325765187, 0
2799, -4.857203612447344, 3.1312064402790485, 0
2800, -4.756761898986494, 3.2305737564943895, 0
2801, -4.751514837559857, 3.297045385572478, 0
2802, -4.832788874637096, 3.1879023810682448, 0
2803, -4.8815037151885345, 3.2387368507307572, 0
2804, -4.856694123374035, 3.3594524751354795, 0
2805, -4.933057438374695, 3.2043656296885286, 0
2806, -4.795263514919178, 3.3431492637733617, 0
2807, -4.896366525093338, 3.304698727637184, 0
2808, -4.7811095981042815, 3.4063026500929077, 0
2809, -4.919165639589659, 3.3629674660625164, 0
2810, -4.86473881559982, 3.4568274352902812, 0
2811, -4.964595525295012, 3.316950773130067, 0
2812, -4.885404100758372, 3.406100371370723, 0
2813, -4.942179427118756, 3.4588024718853174, 0
2814, -4.8127382515121875, 2.6038564375808884, 0
2815, -4.774262855651048, 2.639850540174579, 0
2816, -4.808754715358954, 2.9852288200156805, 0
2817, -4.90110287644371, 3.5502026326866654, 0
2818, -4.9986250287312695, 3.4270303515782743, 0
2819, -4.902487936724788, 3.4958948211621257, 0
2820, -4.839764555560677, 3.518730342422098, 0
2821, -4.963943304000909, 3.524633739869088, 0
2822, -4.965445287254764, 3.618330760490691, 0
2823, -5.035145948683465, 3.534604365033152, 0
2824, -4.9937476701002765, 3.5710165183814175, 0
2825, 0.031020573300481885, -2.524653707980143, 0
2826, 0.08710171326289995, -2.642378951652511, 0
2827, 0.040638770359303404, -2.5922922528220638, 0
2828, -0.0034222537762121537, -2.633648144429783, 0
2829, -0.060812001191946095, -2.6323570659262203, 0
2830, 0.12029125704249319, -2.5649966286081147, 0
2831, 0.08134498185812361, -2.5322364200065848, 0
2832, 0.15810704018230187, -2.627024663813867, 0
2833, 0.23069869821199812, -3.551115537261031, 0
2834, 0.19218861556482134, -2.563705283251806, 0
2835, 0.2306986982119977, -3.090480932779676, 0
2836, 0.2306986982119975, -2.860163630538999, 0
2837, 0.2306986982119974, -2.74500497941866, 0
2838, 0.1921099000362124, -2.687425653858491, 0
2839, 0.08253093864026881, -2.8025843049788297, 0
2840, 0.15018335206350225, -2.7572446747852477, 0
2841, 0.12647560209884828, -2.6955100699018715, 0
2842, 0.043251354890675164, -2.7160301129520974, 0
2843, 0.15449694425046828, -2.8368238522202245, 0
2844, 0.039349995846881154, -2.6638279525320443, 0
2845, -0.036451060716182045, -2.8002698151587366, 0
2846, 0.09329839655852822, -2.7455079453264215, 0
2847, 0.20665938822449506, -2.8025843049788297, 0
2848, 0.026277433598888192, -3.0135703407421515, 0
2849, -0.013351952695917532, -2.7423001594593597, 0
2850, -0.08157355394688148, -2.7358130056580143, 0
2851, 0.023253020733173736, -2.79047307144658, 0
2852, 0.010931816626547249, -2.9022092383978513, 0
2853, 0.0014820599894889604, -2.844619792709338, 0
2854, -0.09529584395487645, -2.888997872317449, 0
2855, -0.1298631306747907, -2.7530870149792563, 0
2856, 0.035590362180686314, -2.9555491462973436, 0
2857, 0.08863232082031593, -2.8825104253769323, 0
2858, 0.23069869821199762, -2.9753222816593374, 0
2859, 0.12400197442904182, -2.9255215329897775, 0
2860, 0.08744212052602034, -2.983200272857919, 0
2861, -0.05056503856465317, -2.963008327760083, 0
2862, 0.10909171564272473, -3.103579347953894, 0
2863, 0.15957835100188889, -2.9884978933142166, 0
2864, 0.080768425869272, -3.0465368296973216, 0
2865, 0.20458511040194427, -3.032901607219507, 0
2866, -0.0031744616868853368, -3.1237698775999183, 0
2867, 0.143758638749571, -3.049543306971246, 0
2868, 0.05002369974452774, -3.097355424176603, 0
2869, 0.230698698211998, -3.4359568861406924, 0
2870, 0.07465796205068319, -3.1469683176143257, 0
2871, 0.23069869821199784, -3.263218909460184, 0
2872, -0.02291671644351803, -3.84012383735481, 0
2873, 0.05311768359148031, -2.8450255905875315, 0
2874, 0.17845959824723862, -2.894653450977751, 0
2875, 0.1883882097083786, -2.9454727097058595, 0
2876, -0.04377094238445618, -2.908379537777636, 0
2877, -0.23069869821199745, -3.0248858614334373, 0
2878, -0.11245861497291973, -2.9498933333202593, 0
2879, -0.17430061591543627, -3.0408422164523237, 0
2880, -0.13915476407674676, -2.853799655018237, 0
2881, -0.09457143095044263, -2.81404848436211, 0
2882, -0.23069869821199765, -2.7991489853562284, 0
2883, -4.381060019942154, -1.578901262458965, 0
2884, -4.385893917310281, -1.5211626090782775, 0
2885, -2.5246537079801423, -0.031020573300482093, 0
2886, -2.6423789516525122, -0.08710171326290476, 0
2887, -2.592292252822064, -0.040638770359306284, 0
2888, -2.6336481444297832, 0.0034222537762102177, 0
2889, -2.6323570659262194, 0.06081200119194469, 0
2890, -2.5649966286081143, -0.12029125704249699, 0
2891, -2.532236420006586, -0.08134498185812468, 0
2892, -2.6270246638138652, -0.15810704018230398, 0
2893, -3.551115537261031, -0.23069869821199823, 0
2894, -2.563705283251806, -0.1921886155648233, 0
2895, -3.090480932779676, -0.23069869821199776, 0
2896, -2.860163630538999, -0.23069869821199754, 0
2897, -2.74500497941866, -0.23069869821199743, 0
2898, -2.687425653858491, -0.1921099000362119, 0
2899, -2.8025843049788297, -0.08253093864027042, 0
2900, -2.7572446747852477, -0.15018335206350297, 0
2901, -2.695510069901873, -0.12647560209884978, 0
2902, -2.716030112952096, -0.04325135489067609, 0
2903, -2.8368238522202236, -0.1544969442504694, 0
2904, -2.663827952532043, -0.03934999584688459, 0
2905, -2.800269815158738, 0.036451060716180296, 0
2906, -2.745507945326421, -0.09329839655852881, 0
2907, -2.8025843049788297, -0.20665938822449623, 0
2908, -3.0135703407421497, -0.02627743359889194, 0
2909, -2.74230015945936, 0.01335195269591645, 0
2910, -2.7358130056580148, 0.08157355394688091, 0
2911, -2.7904730714465806, -0.023253020733175304, 0
2912, -2.902209238397851, -0.010931816626550309, 0
2913, -2.844619792709338, -0.001482059989491264, 0
2914, -2.8889978723174545, 0.0952958439548765, 0
2915, -2.7530870149792563, 0.1298631306747903, 0
2916, -2.955549146297343, -0.035590362180685856, 0
2917, -2.8825104253769314, -0.08863232082031806, 0
2918, -2.9753222816593374, -0.23069869821199765, 0
2919, -2.925521532989774, -0.12400197442904393, 0
2920, -2.983200272857913, -0.08744212052602088, 0
2921, -2.9630083277600754, 0.050565038564646475, 0
2922, -3.1035793479538785, -0.10909171564273143, 0
2923, -2.988497893314214, -0.15957835100188877, 0
2924, -3.046536829697312, -0.08076842586927602, 0
2925, -3.032901607219507, -0.20458511040194255, 0
2926, -3.123769877599907, 0.003174461686864357, 0
2927, -3.04954330697124, -0.14375863874957126, 0
2928, -3.097355424176591, -0.05002369974454079, 0
2929, -3.4359568861406924, -0.23069869821199812, 0
2930, -3.1469683176143044, -0.07465796205069611, 0
2931, -3.263218909460184, -0.23069869821199793, 0
2932, -3.84012383735594, 0.022916716439915094, 0
2933, -2.845025590587531, -0.05311768359148225, 0
2934, -2.8946534509777484, -0.17845959824723912, 0
2935, -2.9454727097058573, -0.18838820970837974, 0
2936, -2.9083795377776287, 0.04377094238445279, 0
2937, -3.0248858614334373, 0.23069869821199718, 0
2938, -2.949893333320264, 0.11245861497291346, 0
2939, -3.0408422164523428, 0.17430061591541868, 0
2940, -2.8537996550182414, 0.13915476407675087, 0
2941, -2.8140484843621167, 0.09457143095044182, 0
2942, -2.7991489853562284, 0.2306986982119974, 0
2943, 2.5246537079801445, 0.03102057330048208, 0
2944, 2.6423789516525105, 0.08710171326288982, 0
2945, 2.592292252822063, 0.04063877035929752, 0
2946, 2.6336481444297815, -0.003422253776216619, 0
2947, 2.6323570659262185, -0.060812001191949565, 0
2948, 2.564996628608116, 0.12029125704248861, 0
2949, 2.532236420006583, 0.08134498185812317, 0
2950, 2.6270246638138732, 0.1581070401822976, 0
2951, 3.551115537261031, 0.23069869821199823, 0
2952, 2.5637052832518106, 0.19218861556481942, 0
2953, 3.090480932779676, 0.2306986982119979, 0
2954, 2.860163630538999, 0.23069869821199773, 0
2955, 2.74500497941866, 0.23069869821199765, 0
2956, 2.687425653858491, 0.1921099000362157, 0
2957, 2.8025843049788297, 0.08253093864026051, 0
2958, 2.757244674785248, 0.15018335206349873, 0
2959, 2.6955100699018675, 0.12647560209884806, 0
2960, 2.7160301129521085, 0.04325135489067222, 0
2961, 2.8368238522202294, 0.15449694425046245, 0
2962, 2.663827952532053, 0.039349995846872494, 0
2963, 2.8002698151587198, -0.03645106071619396, 0
2964, 2.745507945326425, 0.09329839655852658, 0
2965, 2.8025843049788297, 0.20665938822448895, 0
2966, 3.013570340742161, 0.026277433598867958, 0
2967, 2.7423001594593517, -0.013351952695923153, 0
2968, 2.735813005658009, -0.08157355394688488, 0
2969, 2.790473071446576, 0.023253020733165097, 0
2970, 2.9022092383978535, 0.010931816626515024, 0
2971, 2.844619792709334, 0.001482059989468664, 0
2972, 2.8889978723173835, -0.09529584395486798, 0
2973, 2.753087014979254, -0.129863130674793, 0
2974, 2.9555491462973444, 0.0355903621806844, 0
2975, 2.882510425376946, 0.08863232082030024, 0
2976, 2.9753222816593374, 0.23069869821199782, 0
2977, 2.9255215329897952, 0.1240019744290343, 0
2978, 2.983200272857947, 0.08744212052601678, 0
2979, 2.963008327760152, -0.05056503856472391, 0
2980, 3.103579347953967, 0.10909171564269339, 0
2981, 2.9884978933142334, 0.15957835100188916, 0
2982, 3.046536829697367, 0.08076842586925229, 0
2983, 3.032901607219507, 0.20458511040195504, 0
2984, 3.123769877599968, -0.003174461686980483, 0
2985, 3.049543306971284, 0.14375863874957145, 0
2986, 3.097355424176659, 0.050023699744468554, 0
2987, 3.4359568861406924, 0.23069869821199815, 0
2988, 3.146968317614425, 0.07465796205062322, 0
2989, 3.263218909460184, 0.230698698211998, 0
2990, 3.840123837347323, -0.022916716461074113, 0
2991, 2.845025590587535, 0.05311768359146622, 0
2992, 2.8946534509777626, 0.178459598247237, 0
2993, 2.945472709705872, 0.1883882097083709, 0
2994, 2.908379537777702, -0.04377094238448902, 0
2995, 3.0248858614334373, -0.23069869821199768, 0
2996, 2.9498933333201975, -0.1124586149729881, 0
2997, 3.040842216452175, -0.17430061591559176, 0
2998, 2.8537996550181766, -0.13915476407668587, 0
2999, 2.814048484362019, -0.09457143095044471, 0
3000, 2.7991489853562284, -0.23069869821199787, 0
3001, -0.23069869821199768, 2.74500497941866, 0
3002, -0.11886775989733007, 2.6692943779545457, 0
3003, -4.48925631031639, -5.473675683808105, 0
3004, -4.4726729018039375, -5.535452698738322, 0
3005, -4.067549159308545, -5.205082977652052, 0
3006, -4.034890957407589, -5.2551217961835235, 0
3007, -4.01345715553065, -5.171861280347072, 0
3008, -3.9528234572426055, -5.179959543569507, 0
3009, -5.18372714276254, -4.264528778304114, 0
3010, -5.075228503382237, -4.092691564278665, 0
3011, -5.157967269665415, -3.997860544074983, 0
3012, -5.145834787497499, -3.9392163729861904, 0
3013, -5.077056628437972, -3.869924440409489, 0
3014, -5.03370270126159, -3.9262755900839106, 0
3015, -4.9764450974207, -3.910630666882084, 0
3016, -5.001247591079941, -3.8272424003272945, 0
3017, -5.024604060196311, -3.8744227108675617, 0
3018, -4.9389143546976015, -3.8119444730459033, 0
3019, -4.973446043055276, -3.69605573289503, 0
3020, -4.984134713698997, -3.7623297870518178, 0
3021, -4.929141715831545, -3.737200089668324, 0
3022, -4.863691463779477, -3.727916615201117, 0
3023, -4.91020779000311, -3.6723863264408596, 0
3024, -5.034841917857956, -3.720152775137629, 0
3025, -4.871113912998853, -3.6084853708214304, 0
3026, -4.969878989615096, -3.6092734765943595, 0
3027, -5.0264200975196704, -3.6513478404895525, 0
3028, -5.0877135795622515, -3.754029008144146, 0
3029, -5.082051893055773, -3.8119460844778326, 0
3030, -4.889831642183765, -3.4867677329430515, 0
3031, -4.920389775167375, -3.6222480316569405, 0
3032, -4.9132631844950785, -3.552669058186061, 0
3033, -4.85311296349988, -3.5369395038890934, 0
3034, -4.785960946587329, -3.5223875328895904, 0
3035, -4.828854773108431, -3.478211704255477, 0
3036, -4.809069966120284, -3.3976513725480166, 0
3037, -4.953764960795392, -3.5011521881613543, 0
3038, -4.936128750410087, -3.430266678966066, 0
3039, -5.002344578088963, -3.546255821255599, 0
3040, -4.870166735088682, -3.4234357462722507, 0
3041, -4.9986250287312695, -3.427030351578274, 0
3042, -4.875279776699512, -3.326042848455741, 0
3043, -4.918802947322762, -3.3705073623408213, 0
3044, -4.930850364945472, -3.3151818614888553, 0
3045, -4.855118695796757, -3.3738150734181427, 0
3046, -4.799408655975966, -3.322163680744313, 0
3047, -4.751144448222672, -3.4155742315024087, 0
3048, -4.741495026846975, -3.2998262008275567, 0
3049, -4.810275322832176, -3.2077459466192324, 0
3050, -4.788797411262223, -3.2634310019505834, 0
3051, -4.858418655610265, -3.2582995693761965, 0
3052, -4.87399278373959, -3.1952671912418844, 0
3053, -4.82371504866682, -3.1074577498552984, 0
3054, -4.933057438374695, -3.2043656296885277, 0
3055, -4.8644547521366, -3.142429778532937, 0
3056, -4.904010767970315, -3.0892749212536597, 0
3057, -5.203821532753673, -4.065612714494898, 0
3058, -5.233949461035977, -4.111862115117221, 0
3059, -5.2551217961835235, -4.034890957407588, 0
3060, -4.812738251512187, -2.6038564375808875, 0
3061, -4.8025493872909575, -2.733772888251571, 0
3062, -4.773450135313597, -2.7960326957121726, 0
3063, -4.738882433355783, -2.756678364678259, 0
3064, -4.812642855055062, -2.8592387498124494, 0
3065, -4.7572057753652865, -2.965943997117037, 0
3066, -4.802273720818378, -2.9216049918721567, 0
3067, -4.842827721935723, -2.9790528223915564, 0
3068, -4.721137993216784, -2.8842093175679215, 0
3069, -4.82568512404084, -3.042126094777993, 0
3070, -4.739292385873999, -2.8353738874127106, 0
3071, -4.739643066869725, -3.072227028785709, 0
3072, -4.64819242316877, -2.835989904763581, 0
3073, -1.693117508868733, -4.483470289312813, 0
3074, -1.7602138668785527, -4.471024796380926, 0
3075, -5.519149894659329, 4.544330423937053, 0
3076, -5.515086864665443, 4.4873650803527845, 0
3077, -5.458317207803271, 4.463890536268783, 0
3078, -5.43550025068967, 4.570622488530271, 0
3079, -5.157967269665415, 3.997860544074984, 0
3080, -5.198523310458679, 4.058450609789368, 0
3081, -5.187953686335278, 3.94886101848484, 0
3082, -5.2551217961835235, 4.034890957407589, 0
3083, 4.541352495553189, -5.51301418025807, 0
3084, 4.576616189665231, -5.462113902915227, 0
3085, 4.094496542306921, -5.072151258737673, 0
3086, 4.001304170957769, -5.157425110969361, 0
3087, 3.9414808360608053, -5.147716209774523, 0
3088, 3.8714531340370875, -5.083002148716103, 0
3089, 4.061233329127118, -5.205927088611867, 0
3090, 4.109673664709219, -5.232523853870166, 0
3091, 4.094528010793544, -5.165246443249549, 0
3092, 4.390945013436285, -1.5738262104358212, 0
3093, 4.471024796380926, -1.7602138668785532, 0
3094, 5.303541140845382, -4.425195904936345, 0
3095, 5.0250851742509, -4.002707388277815, 0
3096, 5.153703059107482, -3.980241004147658, 0
3097, 5.184440988171831, -4.025475408194827, 0
3098, 5.206143793651634, -3.9398447689193627, 0
3099, 5.11969474203263, -3.9203826683928873, 0
3100, 5.128339015532335, -3.8566330706439844, 0
3101, 5.023283455541794, -3.8098334793387334, 0
3102, 5.034527110526561, -3.897343071426244, 0
3103, 5.082627948750486, -3.8179311408496326, 0
3104, 5.086433592135084, -3.7545691198643327, 0
3105, 4.99242970380448, -3.710864391872989, 0
3106, 5.0464593032462055, -3.717601070399533, 0
3107, 5.041867577624027, -3.652194630272547, 0
3108, 4.933788016081231, -3.5984309858909973, 0
3109, 4.9954135548128615, -3.6100633694742763, 0
3110, 5.00441017487972, -3.5455220954952273, 0
3111, 4.954211252121606, -3.6592883980625124, 0
3112, 4.911593382965991, -3.495218598301207, 0
3113, 4.894687861459222, -3.645408308427986, 0
3114, 4.869318925330768, -3.58453266390671, 0
3115, 4.900717415888414, -3.7125370417519963, 0
3116, 4.9661627730814715, -3.5053122030537085, 0
3117, 4.96482339521249, -3.4379868422804045, 0
3118, 4.823476618439596, -3.6265016607891605, 0
3119, 4.910621163584222, -3.5494202065449048, 0
3120, 4.845510575834137, -3.518601826877774, 0
3121, 4.857263749777107, -3.3767071577902565, 0
3122, 4.785960946587329, -3.5223875328895917, 0
3123, 4.919703613734658, -3.3921466775636184, 0
3124, 4.8577716215265525, -3.448183318782263, 0
3125, 4.9325054969845805, -3.326400253105756, 0
3126, 4.801818279004546, -3.4128410087739924, 0
3127, 4.817239735359915, -3.477402717336615, 0
3128, 4.840146343979055, -3.269684152806052, 0
3129, 4.8955395019356915, -3.283038375564202, 0
3130, 4.897748444274278, -3.213761386073419, 0
3131, 4.796549778532984, -3.1467696332151203, 0
3132, 4.857129648270313, -3.165188773013324, 0
3133, 4.870301930130999, -3.097329846520789, 0
3134, 4.810060161408769, -3.211166529184601, 0
3135, 4.773203063659846, -3.032211965794045, 0
3136, 4.689608971956195, -3.193850108265211, 0
3137, 4.770748283059598, -3.2683713415130375, 0
3138, 4.831828239253011, -3.049746720006724, 0
3139, 4.841432307088465, -2.979349983487835, 0
3140, 4.788209048363267, -3.0888116140748405, 0
3141, 4.662889994054375, -3.078939286415194, 0
3142, 4.748853644969461, -3.20933150624404, 0
3143, 4.719027123345628, -3.306061756627617, 0
3144, 4.804288223962157, -3.3302997427065044, 0
3145, 4.746103047905096, -2.9085309407402726, 0
3146, 4.7127978028609165, -3.014714118734553, 0
3147, 4.737362112884621, -3.1257081554287307, 0
3148, 4.858047122592568, -3.322372589977751, 0
3149, 4.80486830005326, -2.9289979539449513, 0
3150, 4.817432622125949, -2.8583381370246954, 0
3151, 4.757495202306969, -2.970419009418142, 0
3152, 4.675329860227865, -2.954381144035081, 0
3153, 4.729758659099248, -3.0691756844496036, 0
3154, 4.724734051491022, -2.786404819851869, 0
3155, 4.782636447614896, -2.807483288928432, 0
3156, 4.794402485358116, -2.7351098774780875, 0
3157, 4.735284282074047, -2.8474913737498477, 0
3158, 4.6637575721641875, -2.828390379187323, 0
3159, 4.687822570759673, -2.8873821278450698, 0
3160, 4.7060320629755745, -2.6602380010664177, 0
3161, 4.762709221034254, -2.6829298367606036, 0
3162, 4.7744644598711155, -2.609258410831049, 0
3163, 4.713547568658183, -2.7235934890181692, 0
3164, 4.598928101274584, -2.718011779939472, 0
3165, 4.667158868141113, -2.764256960205704, 0
3166, 4.657341581428267, -2.6981373844982244, 0
3167, 4.987337467427288, -3.8589291090671765, 0
3168, 4.9533214413428555, -3.7963168735929234, 0
3169, 4.970963973800717, -3.913349763729918, 0
3170, 4.995832938975396, -3.7640973224462995, 0
3171, 4.689887014088764, -2.53248197897183, 0
3172, 4.7104724528620165, -2.5947786820677674, 0
3173, 4.745997324627747, -2.5484902802357206, 0
3174, 4.766152816043596, -2.4798093170305684, 0
3175, 4.583005817323211, -2.592304264139006, 0
3176, 4.6516174139747335, -2.6405566166578587, 0
3177, 4.67575965878061, -2.412469440006425, 0
3178, 4.73222988905468, -2.431006280406509, 0
3179, 4.782050492378755, -2.3461138057845217, 0
3180, 4.687521166759796, -2.4719227012888814, 0
3181, 4.613809268042163, -2.455614956891183, 0
3182, 4.632843245971667, -2.5293965481960097, 0
3183, 4.6929349170228605, -2.3216733334691924, 0
3184, 4.654063120394088, -2.58297810583025, 0
3185, 1.664046489726093, 4.433184281694282, 0
3186, 1.576226204151675, 4.543846043185576, 0
3187, 1.5491103537941742, 4.605986796165912, 0
3188, 1.533507047381483, 4.5153973192423065, 0
3189, 1.5851435400029477, 4.48949392372993, 0
3190, 1.653947474991869, 4.5691402849465765, 0
3191, 1.7074109303750333, 4.601238114390132, 0
3192, 1.7938430318655776, 4.607256845399057, 0
3193, 1.8134244231563108, 4.532772228619864, 0
3194, 1.6516765177314983, 4.6253533883825355, 0
3195, 1.754150943839802, 4.653090273920721, 0
3196, 1.8696466215941259, 4.64601507017146, 0
3197, 1.864055390509947, 4.498718929928761, 0
3198, 1.9099773016300379, 4.57072996404914, 0
3199, 1.8546856024444245, 4.707296631274362, 0
3200, 1.820290397112117, 4.649038606214491, 0
3201, 1.851560240372054, 4.587880842068388, 0
3202, 1.9696470622894142, 4.537259519211372, 0
3203, 2.041825462466213, 4.628274254190898, 0
3204, 1.9712791495467992, 4.610092783759601, 0
3205, 2.0197594731865514, 4.571645908084383, 0
3206, 2.0852314239681724, 4.555535989194595, 0
3207, 1.9688525175297464, 4.732201300213175, 0
3208, 1.919040828288635, 4.624030595187909, 0
3209, 2.1506312439373487, 4.643883001766791, 0
3210, 1.9595347717390619, 4.670937760828302, 0
3211, 2.1321653614930973, 4.589172604515493, 0
3212, 2.204613550807236, 4.581217723527817, 0
3213, 2.2817679743013115, 4.6631154305882285, 0
3214, 2.257208814679696, 4.608960410865249, 0
3215, 2.3311731409257894, 4.596018737728871, 0
3216, 2.215146191412856, 4.660681967509495, 0
3217, 2.215649096003247, 4.768712723944796, 0
3218, 2.1697336907855456, 4.702803206081201, 0
3219, 2.0952634644462145, 4.711509845662689, 0
3220, 2.246533825429919, 4.7145524006278805, 0
3221, 2.4105884722684414, 4.675866696881935, 0
3222, 2.042142096048525, 4.686842608418193, 0
3223, 2.093693894086113, 4.653745888170354, 0
3224, 2.3471641281818503, 4.659530895321136, 0
3225, 2.39082699122962, 4.621299803342028, 0
3226, 2.460950601074756, 4.601987834147586, 0
3227, 2.346113805784521, 4.782050492378755, 0
3228, 2.3053641337275708, 4.717064840101551, 0
3229, 2.533963011812776, 4.689809762804976, 0
3230, 2.512207107460882, 4.63363585853821, 0
3231, 2.587616170766652, 4.6238805814018145, 0
3232, 2.472445600098905, 4.681335249089738, 0
3233, 2.476237904179369, 4.796148663687501, 0
3234, 2.436805455714816, 4.731895670425091, 0
3235, 2.514627260449106, 4.748150751530343, 0
3236, 2.374761512691271, 4.726778978054372, 0
3237, 2.670205515108071, 4.705549269407819, 0
3238, 2.5969878433824176, 4.74354471329771, 0
3239, 2.6430561812046953, 4.650410125835847, 0
3240, 2.713155776696272, 4.633891453969506, 0
3241, 2.7875011885240553, 4.724683966966363, 0
3242, 2.7649651082128384, 4.667302515628823, 0
3243, 2.835138624555862, 4.653378215647316, 0
3244, 2.728943179060561, 4.714565977284496, 0
3245, 2.728969405989077, 4.831819255852811, 0
3246, 2.909405576752377, 4.746064693196814, 0
3247, 2.6912599972958544, 4.764219906358711, 0
3248, 2.88690923380125, 4.687993149533669, 0
3249, 2.95487950245303, 4.672714776862191, 0
3250, 2.848282249230137, 4.736350064637675, 0
3251, 2.8515768094039347, 4.853391676709374, 0
3252, 2.8078581034061414, 4.782792747432595, 0
3253, 2.750050004341876, 4.770424175635329, 0
3254, 3.0235576314397186, 4.766063325155365, 0
3255, 2.87040652244277, 4.794294471520804, 0
3256, 3.003927546700284, 4.708567402174679, 0
3257, 3.0716008936924153, 4.6965196752342715, 0
3258, 2.9669684959929072, 4.75328483355286, 0
3259, 2.9796761385380233, 4.828700271767987, 0
3260, 2.9282806369410888, 4.801209636153896, 0
3261, 3.1390196540127557, 4.794461821449844, 0
3262, 3.1200964110385505, 4.735312667939264, 0
3263, 3.1859103963384268, 4.721731864743073, 0
3264, 3.081270698853439, 4.780335529131835, 0
3265, 3.08927492125366, 4.904010767970315, 0
3266, 3.2460175399643565, 4.811965147424172, 0
3267, 3.0402082787060416, 4.8249668632391876, 0
3268, 3.157685595586195, 4.85519997048396, 0
3269, 3.230670025953387, 4.757052352134533, 0
3270, 3.2970681174823726, 4.751432930128622, 0
3271, 3.191132989171077, 4.811683709321451, 0
3272, 3.2140677756809057, 4.896597040555402, 0
3273, 3.098966289794126, 4.840008217936631, 0
3274, 3.359017857601931, 4.855472162282715, 0
3275, 3.34293121771315, 4.794587409748611, 0
3276, 3.2869157815273056, 4.877349165571797, 0
3277, 3.4062817480189733, 4.781177152251803, 0
3278, 3.4570987469880454, 4.865686475211832, 0
3279, 3.4463780205709234, 4.8145997875992945, 0
3280, 3.512234883803091, 4.827447721774281, 0
3281, 3.585759298183456, 4.928818243341031, 0
3282, 3.5207617956273762, 4.898612146761889, 0
3283, 3.575019973495152, 4.866893243672219, 0
3284, 3.528661540737994, 4.966647356016214, 0
3285, 3.62650166078916, 4.823476618439597, 0
3286, 3.6342878863910006, 4.888508455401628, 0
3287, 3.5861634442254147, 4.991433343212946, 0
3288, 3.454515828676386, 4.943360196349941, 0
3289, 3.7068993359870506, 4.914290056530734, 0
3290, 3.6603434066942384, 5.020853873238419, 0
3291, 3.534604365033152, 5.035145948683465, 0
3292, 3.6481168145586476, 4.954523434269002, 0
3293, 2.6038564375808884, 4.8127382515121875, 0
3294, 2.6396577251790636, 4.774246706731086, 0
3295, 2.593469524144107, 4.6838434268426274, 0
3296, 3.298321573214051, 4.824731646533908, 0
3297, 3.3395530462147724, 4.9210754349618355, 0
3298, 3.4024925247181916, 4.904060596969547, 0
3299, 3.4270303515782743, 4.9986250287312695, 0
3300, 3.784421209285277, 4.999456992587387, 0
3301, 3.6396728134946987, 5.074158285151599, 0
3302, 3.7607766856692257, 4.943114045703402, 0
3303, 3.81701989176788, 4.9277500087647885, 0
3304, 3.7195204860158992, 4.993560089520828, 0
3305, 3.746627430878561, 5.055317649720133, 0
3306, 3.7422356969629167, 5.115662038135672, 0
3307, 4.092072923607691, 5.076283202476557, 0
3308, 3.9966636035914824, 5.158155713917327, 0
3309, 3.939844768919362, 5.206143793651634, 0
3310, 3.9384254178630402, 5.145177624832537, 0
3311, 3.8693630502658998, 5.074873223979159, 0
3312, 3.8092858627777804, 5.056995172766624, 0
3313, 3.9261841106093356, 5.031892931507304, 0
3314, 3.858541886112821, 5.001517761283036, 0
3315, 3.911289045805627, 4.9751179448878275, 0
3316, 4.471024796380926, 1.7602138668785523, 0
3317, 5.157967269665415, 3.9978605440749844, 0
3318, 5.1458347874975, 3.9392163729861918, 0
3319, 5.0770566284379735, 3.8699244404094904, 0
3320, 5.033702701261589, 3.926275590083911, 0
3321, 4.9764450974207, 3.9106306668820854, 0
3322, 5.001247591079942, 3.827242400327295, 0
3323, 5.024604060196313, 3.8744227108675617, 0
3324, 4.9389143546976015, 3.8119444730459042, 0
3325, 4.973446043055277, 3.696055732895031, 0
3326, 4.984134713698997, 3.762329787051819, 0
3327, 4.929141715831545, 3.737200089668325, 0
3328, 4.863691463779477, 3.727916615201118, 0
3329, 4.910207790003111, 3.6723863264408596, 0
3330, 5.034841917857956, 3.720152775137631, 0
3331, 4.871113912998853, 3.6084853708214313, 0
3332, 4.969878989615098, 3.609273476594362, 0
3333, 5.026420097519672, 3.651347840489554, 0
3334, 5.087713579562252, 3.754029008144146, 0
3335, 5.082051893055772, 3.811946084477833, 0
3336, 4.889831642183766, 3.4867677329430515, 0
3337, 4.920389775167376, 3.62224803165694, 0
3338, 4.913263184495077, 3.5526690581860616, 0
3339, 4.853112963499879, 3.5369395038890916, 0
3340, 4.785960946587329, 3.522387532889591, 0
3341, 4.828854773108431, 3.4782117042554774, 0
3342, 4.809069966120284, 3.397651372548017, 0
3343, 4.953764960795392, 3.5011521881613565, 0
3344, 4.93612875041009, 3.430266678966068, 0
3345, 5.002344578088964, 3.5462558212555995, 0
3346, 4.8701667350886835, 3.4234357462722493, 0
3347, 4.9986250287312695, 3.4270303515782743, 0
3348, 4.875279776699509, 3.3260428484557396, 0
3349, 4.918802947322759, 3.3705073623408226, 0
3350, 4.93085036494547, 3.315181861488856, 0
3351, 4.855118695796756, 3.3738150734181422, 0
3352, 4.799408655975965, 3.322163680744316, 0
3353, 4.751144448222672, 3.415574231502409, 0
3354, 4.741495026846975, 3.299826200827557, 0
3355, 4.810275322832182, 3.207745946619228, 0
3356, 4.788797411262226, 3.2634310019505817, 0
3357, 4.858418655610267, 3.2582995693761947, 0
3358, 4.873992783739594, 3.195267191241886, 0
3359, 4.823715048666835, 3.1074577498553024, 0
3360, 4.933057438374695, 3.2043656296885286, 0
3361, 4.864454752136606, 3.1424297785329447, 0
3362, 4.904010767970315, 3.0892749212536605, 0
3363, 5.203821532753674, 4.065612714494899, 0
3364, 5.233949461035977, 4.111862115117222, 0
3365, 5.2551217961835235, 4.034890957407589, 0
3366, 4.179967321132649, 5.128108497331138, 0
3367, 4.151817463213066, 5.252367934216806, 0
3368, 4.195510593074088, 5.2839357112090655, 0
3369, 4.127431580902485, 5.306591215231352, 0
3370, 4.076201143702878, 5.203230225303954, 0
3371, 4.026507318117856, 5.19820651502659, 0
3372, -1.4689329358952392, 4.427729464490819, 0
3373, -1.5217145586143899, 4.402730701459786, 0
3374, -4.836731786060465, 3.3000402638690423, 0
3375, -4.864937076898134, 3.610821432751549, 0
3376, -4.911552195318114, 3.6632819274620405, 0
3377, -4.916254791931094, 3.600340265302845, 0
3378, -4.887337606015431, 3.7180946508600985, 0
3379, -4.9970263428039665, 3.753338880030428, 0
3380, -4.949539436793612, 3.712818527241208, 0
3381, -5.0186442215445135, 3.6799185224222226, 0
3382, -5.074158285151599, 3.6396728134946987, 0
3383, -5.017922997112598, 3.626771256783193, 0
3384, -4.9704713989211236, 3.667759504690923, 0
3385, 0.16407027852985778, -2.483614681005728, 0
3386, -0.05358022007629576, -3.051263028882459, 0
3387, -0.10949432455552502, -3.0159555581603765, 0
3388, -0.23069869821199748, -2.968451642414135, 0
3389, -0.2306986982119973, -3.194188518491344, 0
3390, -0.23069869821199718, -3.307056956529949, 0
3391, 0.0020549968538978447, -3.0656930448276323, 0
3392, -0.025149842536250244, -3.008055483021999, 0
3393, -0.16929772978132357, -3.1370958233033286, 0
3394, -0.08682947684431505, -3.128151569713608, 0
3395, -0.11401000753667398, -3.0752550585622767, 0
3396, -0.046360784824609015, -3.1000182947421697, 0
3397, -0.039576661868310874, -3.2295403821033166, 0
3398, -0.23069869821199734, -3.137754299472042, 0
3399, -0.042731668976016844, -3.1693051669013337, 0
3400, 0.009810983560507587, -3.19675331600124, 0
3401, 0.2306986982119978, -3.2056395839000147, 0
3402, -0.12017092536593357, -3.2053961592684908, 0
3403, -0.12538425624021776, -3.157327945988077, 0
3404, -0.17472776367092033, -3.1928195552819743, 0
3405, -0.20131619513417096, -3.2506227375106462, 0
3406, -0.10806908634150424, -3.3350380058638422, 0
3407, -0.165726507030097, -3.305018642252863, 0
3408, -0.2306986982119971, -3.419925394568553, 0
3409, -0.1108023036929892, -3.2699073808877768, 0
3410, -0.1679154203165583, -3.3796030771282326, 0
3411, -0.23069869821199712, -3.363491175549251, 0
3412, -0.15011397411164282, -3.476359613587855, 0
3413, -0.09424744466881267, -3.4160653466647024, 0
3414, -0.1788419136076524, -3.431629193234144, 0
3415, 0.026503690894760817, -3.5839781724564928, 0
3416, -0.018858017597032872, -3.361512902130545, 0
3417, -0.05089481392464667, -3.5122634627671694, 0
3418, -0.047595644805175835, -3.2984118909931945, 0
3419, -0.06997990670997453, -3.3702332726371713, 0
3420, -0.09291244244116198, -3.4733314183055026, 0
3421, -2.4836146810057276, -0.164070278529858, 0
3422, -3.0512630288824574, 0.053580220076298715, 0
3423, -3.015955558160371, 0.10949432455551392, 0
3424, -2.968451642414135, 0.23069869821199723, 0
3425, -3.194188518491344, 0.23069869821199704, 0
3426, -3.307056956529949, 0.23069869821199693, 0
3427, -3.0656930448276327, -0.0020549968538981084, 0
3428, -3.008055483021997, 0.025149842536248877, 0
3429, -3.1370958233032957, 0.1692977297813115, 0
3430, -3.1281515697136295, 0.08682947684431049, 0
3431, -3.0752550585622784, 0.11401000753664313, 0
3432, -3.100018294742175, 0.046360784824606024, 0
3433, -3.2295403821032793, 0.03957666186826125, 0
3434, -3.137754299472042, 0.2306986982119971, 0
3435, -3.1693051669013106, 0.04273166897598918, 0
3436, -3.196753316001191, -0.009810983560536612, 0
3437, -3.2056395839000147, -0.23069869821199787, 0
3438, -3.2053961592685507, 0.1201709253659652, 0
3439, -3.1573279459881167, 0.12538425624022048, 0
3440, -3.192819555281936, 0.1747277636709251, 0
3441, -3.2506227375106462, 0.20131619513413362, 0
3442, -3.3350380058639453, 0.10806908634142395, 0
3443, -3.305018642252913, 0.16572650703004532, 0
3444, -3.419925394568553, 0.23069869821199682, 0
3445, -3.2699073808878483, 0.11080230369288756, 0
3446, -3.379603077128286, 0.16791542031651943, 0
3447, -3.363491175549251, 0.23069869821199687, 0
3448, -3.476359613587855, 0.1501139741117356, 0
3449, -3.416065346664806, 0.09424744466881343, 0
3450, -3.431629193234147, 0.1788419136076875, 0
3451, -3.5839781724569315, -0.0265036908946317, 0
3452, -3.3615129021307015, 0.018858017596818884, 0
3453, -3.5122634627674136, 0.05089481392472584, 0
3454, -3.298411890993262, 0.04759564480497703, 0
3455, -3.3702332726372872, 0.0699799067098267, 0
3456, -3.4733314183056483, 0.09291244244120586, 0
3457, 2.483614681005728, 0.16407027852985812, 0
3458, 3.0512630288824782, -0.05358022007625145, 0
3459, 3.0159555581604343, -0.10949432455564367, 0
3460, 2.968451642414135, -0.23069869821199773, 0
3461, 3.194188518491344, -0.23069869821199757, 0
3462, 3.307056956529949, -0.23069869821199745, 0
3463, 3.0656930448276256, 0.002054996853916899, 0
3464, 3.0080554830220088, -0.02514984253625247, 0
3465, 3.1370958233039112, -0.16929772978145904, 0
3466, 3.128151569713442, -0.08682947684423842, 0
3467, 3.0752550585623144, -0.1140100075369813, 0
3468, 3.100018294742109, -0.04636078482455429, 0
3469, 3.229540382103506, -0.039576661868563255, 0
3470, 3.137754299472042, -0.2306986982119976, 0
3471, 3.169305166901454, -0.04273166897612391, 0
3472, 3.1967533160015185, 0.009810983560370863, 0
3473, 3.2056395839000147, 0.23069869821199798, 0
3474, 3.205396159267937, -0.12017092536540522, 0
3475, 3.157327945987722, -0.1253842562400909, 0
3476, 3.1928195552826906, -0.17472776367079532, 0
3477, 3.2506227375106462, -0.20131619513485147, 0
3478, 3.335038005862289, -0.10806908634232933, 0
3479, 3.3050186422521217, -0.1657265070306963, 0
3480, 3.419925394568553, -0.23069869821199737, 0
3481, 3.269907380886876, -0.11080230369443383, 0
3482, 3.3796030771276113, -0.16791542031682657, 0
3483, 3.363491175549251, -0.2306986982119974, 0
3484, 3.476359613587855, -0.15011397411060964, 0
3485, 3.416065346663536, -0.09424744466809648, 0
3486, 3.4316291932340697, -0.17884191360723217, 0
3487, 3.583978172452772, 0.02650369089597035, 0
3488, 3.361512902128061, -0.018858017599280262, 0
3489, 3.5122634627649854, -0.05089481392371602, 0
3490, 3.298411890992026, -0.04759564480769164, 0
3491, 3.370233272635492, -0.06997990671148638, 0
3492, 3.473331418304043, -0.09291244244050093, 0
3493, -0.10123455848928295, 2.8033585257256526, 0
3494, -0.04747060983763794, 2.763839853916552, 0
3495, -0.11685855967967634, 2.737221816229737, 0
3496, -0.1707866459229178, 2.784875523010038, 0
3497, -0.23069869821199762, 2.687425653858491, 0
3498, -0.15354030728435825, 2.860081824516839, 0
3499, -0.23069869821199773, 2.8025843049788293, 0
3500, -0.1779811074010701, 2.6586359910784063, 0
3501, -0.03372240368746153, 2.9180906717706105, 0
3502, -0.2306986982119979, 2.9753222816593374, 0
3503, -0.08484885361879228, 2.870945895217035, 0
3504, -0.040904489444043686, 2.8262065380295436, 0
3505, -0.12626832062248705, 2.9671580857706568, 0
3506, -0.12625301708294398, 2.9101430128055537, 0
3507, -5.135331958243166, -3.8534311238586754, 0
3508, -4.684890272088152, -2.9490299825944195, 0
3509, -4.756671802998081, -3.1495178488060493, 0
3510, -4.807674754328507, -3.1563528075026555, 0
3511, -4.749284635983654, -3.210105479912725, 0
3512, -4.689608971956195, -3.19385010826521, 0
3513, -4.7201527959632426, -3.117042429064785, 0
3514, -4.713968499997181, -3.0133918543392553, 0
3515, -4.771262440140339, -3.022177357482685, 0
3516, 3.851892651293369, -5.138691929920627, 0
3517, 3.924367743648521, -5.032702619508167, 0
3518, 3.911158890481491, -4.975380310467764, 0
3519, 3.824796073438955, -5.004653203900172, 0
3520, 3.8714020856032136, -5.029965857434791, 0
3521, 4.727302526771836, -2.3710492987552865, 0
3522, 4.695572205042311, -2.223453086586407, 0
3523, 4.625782023359037, -2.3559930092510593, 0
3524, 4.628449991555895, -2.2783549258113447, 0
3525, 4.557480942045994, -2.335004981434426, 0
3526, 4.679400793450666, -2.2721644019689458, 0
3527, 4.612751151336579, -2.1906794905355427, 0
3528, 4.645029864149042, -2.230142989082249, 0
3529, 4.593138651850168, -2.239434438256171, 0
3530, 1.5923330584952227, 4.428685571838524, 0
3531, 3.85399898697302, 5.1340917645446265, 0
3532, 5.1353319582431665, 3.8534311238586754, 0
3533, 4.755049246221832, 3.149300408280361, 0
3534, 4.806317578536564, 3.1561709309594335, 0
3535, 4.749272030157089, 3.2100741357997817, 0
3536, 4.689608971956195, 3.1938501082652104, 0
3537, 4.727364392354393, 3.064870212945262, 0
3538, 4.719786673372899, 3.114109025376567, 0
3539, 0.23069869821199776, -3.1480602583398456, 0
3540, -0.2306986982119968, -3.7585307086843667, 0
3541, -0.10777055385335554, -3.531507022313742, 0
3542, -0.1691994518767177, -3.535510591537075, 0
3543, -0.019362071533786357, -3.4401852175249434, 0
3544, 0.028591930873957956, -3.5041006864572894, 0
3545, -0.007563386100532171, -3.543121516175769, 0
3546, -0.23069869821199657, -3.984267584761576, 0
3547, 0.12522895127919498, -3.5465931110110165, 0
3548, 0.02251646814586767, -3.271672726942386, 0
3549, -0.0631343913459171, -3.569760474341512, 0
3550, -0.23069869821199687, -3.6456622706457624, 0
3551, -0.20238207687524495, -3.58922805162646, 0
3552, -0.1295924333673158, -3.602138602333164, 0
3553, 0.09768643447108971, -3.6229074910011705, 0
3554, -0.0697344974029773, -3.640606977131498, 0
3555, -0.1485128290429754, -3.6973838532892875, 0
3556, 0.2306986982119985, -4.011750141742386, 0
3557, -0.12030146569761724, -3.6534861323835877, 0
3558, -0.02200069440647323, -3.60010425088872, 0
3559, 0.02322390824649676, -3.6551225032417114, 0
3560, -0.17471056303748927, -3.638433832933231, 0
3561, 0.09554987948876836, -3.2544444912748953, 0
3562, 0.23069869821199832, -3.7814328395017087, 0
3563, 0.06822353377378772, -3.545102816338162, 0
3564, 0.09050061555278668, -3.4500066677981924, 0
3565, 0.16172790605197085, -3.226175223862326, 0
3566, 0.09519803230188771, -3.19874424541384, 0
3567, 0.10812946528111492, -3.7492104654615837, 0
3568, 0.20805348446840688, -3.6086948628212006, 0
3569, 0.15549064852014652, -3.3031695057987327, 0
3570, 0.2306986982119979, -3.3207982350203533, 0
3571, 0.08157123183845016, -3.6878231489075146, 0
3572, 0.004004597807022971, -3.7578197575528205, 0
3573, 0.2306986982119982, -3.6662741883813696, 0
3574, 0.05461263952646777, -3.7359250036930827, 0
3575, 0.06171018732275299, -3.821766117671719, 0
3576, 0.177709994634851, -3.5547740221176487, 0
3577, 0.15148304509911792, -3.6050312020868893, 0
3578, 0.1581687286516854, -3.691123130215285, 0
3579, 0.1707536883290634, -3.1050003666471624, 0
3580, 0.14833857012060175, -3.164254337080981, 0
3581, -0.08720540501931258, -3.898138346180044, 0
3582, 0.2306986982119984, -3.8965914906220473, 0
3583, 0.1723966160914131, -3.7539765248264385, 0
3584, 0.23069869821199826, -3.723853513941539, 0
3585, 0.039491267910497826, -3.4012245187436836, 0
3586, 0.041856304809293345, -3.3350266591730904, 0
3587, 0.11314409438124409, -3.3707147202935897, 0
3588, 0.1627091734604544, -3.4785802028024446, 0
3589, 0.1091083045515226, -3.800963470426674, 0
3590, 0.09718614708348981, -3.3136631966244905, 0
3591, 0.23069869821199807, -3.493536211700862, 0
3592, 0.16768185442292732, -3.4109746922533195, 0
3593, 0.23069869821199795, -3.378377560580523, 0
3594, 0.1787354304312047, -3.355132775152689, 0
3595, 0.01413484343144654, -3.806688281349953, 0
3596, -0.09008436227308453, -3.772598622678553, 0
3597, -0.0798468446280518, -3.7066124490048655, 0
3598, -0.04611476301600082, -3.745633104078051, 0
3599, -0.0283855429529979, -3.6807191958833716, 0
3600, 0.05386436077936067, -3.989836629800829, 0
3601, -0.08559182733810297, -3.835298469788839, 0
3602, -0.23069869821199668, -3.8713991467229714, 0
3603, 0.03540836545025036, -3.904756686998023, 0
3604, -0.14517041857735496, -3.7550890320474095, 0
3605, -0.15525897981604744, -3.8649502385947776, 0
3606, -0.02589851978453111, -3.9014475165890334, 0
3607, -0.06276511130120843, -4.01489997013976, 0
3608, -0.059438225682196005, -3.953264886530896, 0
3609, -0.1462174662727348, -3.962419077657487, 0
3610, -0.007761232662280355, -3.986961592578844, 0
3611, 0.017610523593298233, -4.105026243891448, 0
3612, 0.020520939469054957, -4.042642319212501, 0
3613, 0.2306986982119987, -4.242067443983063, 0
3614, 0.08215551063245301, -4.0446306501157, 0
3615, 0.15002592607360465, -3.9992720037505, 0
3616, 0.10290988720723843, -3.8804864930418415, 0
3617, 0.08562094851344564, -3.9384060633688676, 0
3618, -0.13697741848364758, -3.8112352156092077, 0
3619, -0.13625090052796784, -3.912340768899604, 0
3620, -0.20022785383534047, -3.9278333657422735, 0
3621, -0.045187208841174234, -4.145060745117401, 0
3622, 0.17218019166548088, -3.845882683923166, 0
3623, 0.19830341530519513, -3.954170816182217, 0
3624, 0.14499790225957482, -3.924589878332389, 0
3625, -0.17129967336581475, -4.061452051919707, 0
3626, -0.23069869821199637, -4.210004460838785, 0
3627, -0.08527471742086273, -4.20782465308365, 0
3628, 0.23069869821199837, -3.8390121650618783, 0
3629, -0.03527173235448668, -4.071250178032705, 0
3630, -3.1480602583398456, -0.23069869821199782, 0
3631, -3.7585307086843667, 0.23069869821199648, 0
3632, -3.531507022313735, 0.10777055385335102, 0
3633, -3.5355105915367138, 0.16919945187671886, 0
3634, -3.440185217525164, 0.019362071533756048, 0
3635, -3.5041006864576336, -0.02859193087398832, 0
3636, -3.543121516176091, 0.007563386100602601, 0
3637, -3.984267584761576, 0.23069869821199626, 0
3638, -3.5465931110116, -0.12522895127914613, 0
3639, -3.271672726942237, -0.022516468145914785, 0
3640, -3.569760474341781, 0.06313439134609124, 0
3641, -3.6456622706457624, 0.2306986982119966, 0
3642, -3.58922805162646, 0.2023820768749301, 0
3643, -3.6021386023326754, 0.12959243336736517, 0
3644, -3.622907491000976, -0.09768643447063129, 0
3645, -3.640606977132279, 0.06973449740322817, 0
3646, -3.6973838532871595, 0.14851282904344043, 0
3647, -4.011750141742386, -0.23069869821199868, 0
3648, -3.65348613238246, 0.12030146569769931, 0
3649, -3.600104250889894, 0.02200069440679705, 0
3650, -3.655122503242771, -0.023223908247226713, 0
3651, -3.6384338329332855, 0.1747105630376872, 0
3652, -3.254444491274851, -0.09554987948877364, 0
3653, -3.7814328395017087, -0.23069869821199845, 0
3654, -3.5451028163386327, -0.06822353377371931, 0
3655, -3.4500066677983945, -0.09050061555304986, 0
3656, -3.226175223862294, -0.16172790605197124, 0
3657, -3.198744245413807, -0.09519803230189865, 0
3658, -3.7492104654598686, -0.10812946528293838, 0
3659, -3.6086948628212006, -0.2080534844692873, 0
3660, -3.303169505798708, -0.15549064852014516, 0
3661, -3.3207982350203533, -0.23069869821199798, 0
3662, -3.6878231489069515, -0.08157123183931422, 0
3663, -3.757819757552962, -0.004004597810392162, 0
3664, -3.6662741883813696, -0.23069869821199834, 0
3665, -3.735925003692495, -0.0546126395287453, 0
3666, -3.8217661176696165, -0.06171018732654135, 0
3667, -3.554774022118523, -0.1777099946348345, 0
3668, -3.605031202088382, -0.15148304509956947, 0
3669, -3.6911231302131693, -0.15816872865181109, 0
3670, -3.10500036664715, -0.17075368832906535, 0
3671, -3.164254337080959, -0.14833857012060706, 0
3672, -3.8981383461831083, 0.08720540501513088, 0
3673, -3.8965914906220473, -0.23069869821199857, 0
3674, -3.7539765248236914, -0.1723966160930247, 0
3675, -3.723853513941539, -0.2306986982119984, 0
3676, -3.4012245187440087, -0.03949126791061864, 0
3677, -3.335026659173124, -0.041856304809786055, 0
3678, -3.3707147202941714, -0.11314409438174125, 0
3679, -3.4785802028029913, -0.16270917346084285, 0
3680, -3.800963470423437, -0.10910830455314736, 0
3681, -3.313663196624875, -0.09718614708313646, 0
3682, -3.493536211700862, -0.23069869821199818, 0
3683, -3.410974692254119, -0.16768185442291353, 0
3684, -3.378377560580523, -0.23069869821199807, 0
3685, -3.355132775153146, -0.17873543043073037, 0
3686, -3.806688281350254, -0.014134843434398144, 0
3687, -3.772598622678832, 0.09008436227235786, 0
3688, -3.7066124490050063, 0.07984684463033603, 0
3689, -3.7456331040768895, 0.046114763014110535, 0
3690, -3.680719195885526, 0.02838554295299528, 0
3691, -3.9898366298054704, -0.053864360790161464, 0
3692, -3.835298469790435, 0.08559182733595551, 0
3693, -3.8713991467229714, 0.23069869821199637, 0
3694, -3.9047566870002575, -0.03540836545732018, 0
3695, -3.755089032047391, 0.14517041857869056, 0
3696, -3.864950238599344, 0.15525897981420628, 0
3697, -3.855722484175256, -0.02477160444585918, 0
3698, -3.901447516591683, 0.025898519778905355, 0
3699, -4.01489997014879, 0.06276511129571281, 0
3700, -3.953264886536866, 0.05943822567703058, 0
3701, -3.9624190776621413, 0.1462174662695938, 0
3702, -3.9869615925860487, 0.007761232654482066, 0
3703, -4.10502624391115, -0.017610523607071063, 0
3704, -4.042642319225397, -0.020520939480408673, 0
3705, -4.242067443983063, -0.2306986982119989, 0
3706, -4.0446306501206335, -0.08215551064523097, 0
3707, -3.999272003775524, -0.1500259260834756, 0
3708, -3.88048649303834, -0.10290988721103028, 0
3709, -3.9384060633703384, -0.08562094852432325, 0
3710, -3.8112352156110125, 0.13697741848378192, 0
3711, -3.9123407689038845, 0.13625090052398675, 0
3712, -3.9278333657422735, 0.20022785383142677, 0
3713, -4.145060745138872, 0.045187208831644426, 0
3714, -3.8458826839180835, -0.17218019166912513, 0
3715, -3.954170816182217, -0.19830341529711232, 0
3716, -3.924589878322602, -0.14499790226267192, 0
3717, -4.061452051930629, 0.1712996733594296, 0
3718, -4.210004460838785, 0.23069869821199604, 0
3719, -4.207824653109946, 0.08527471741219468, 0
3720, -3.8390121650618783, -0.2306986982119985, 0
3721, -4.071250178049085, 0.03527173234884291, 0
3722, 3.1480602583398456, 0.23069869821199795, 0
3723, 3.7585307086843667, -0.2306986982119971, 0
3724, 3.531507022313778, -0.10777055385338383, 0
3725, 3.5355105915406044, -0.1691994518766962, 0
3726, 3.4401852175226884, -0.019362071532502557, 0
3727, 3.504100686454732, 0.028591930873641522, 0
3728, 3.543121516173289, -0.0075633861000158065, 0
3729, 3.984267584761576, -0.2306986982119969, 0
3730, 3.546593111006049, 0.12522895127966155, 0
3731, 3.27167272694433, 0.02251646814542376, 0
3732, 3.5697604743398617, -0.06313439134406534, 0
3733, 3.6456622706457624, -0.23069869821199718, 0
3734, 3.58922805162646, -0.20238207687831647, 0
3735, 3.602138602337541, -0.129592433367042, 0
3736, 3.622907490999915, 0.09768643447398928, 0
3737, 3.6406069771269993, -0.06973449740044572, 0
3738, 3.6973838533065724, -0.14851282903960694, 0
3739, 4.011750141742386, 0.23069869821199857, 0
3740, 3.6534861323930996, -0.12030146569682662, 0
3741, 3.6001042508813534, -0.022000694403689847, 0
3742, 3.655122503234121, 0.023223908243751527, 0
3743, 3.638433832932594, -0.17471056303575772, 0
3744, 3.2544444912750854, 0.09554987948876023, 0
3745, 3.7814328395017087, 0.2306986982119984, 0
3746, 3.5451028163342677, 0.06822353377448372, 0
3747, 3.450006667796142, 0.09050061555072943, 0
3748, 3.2261752238624437, 0.16172790605196985, 0
3749, 3.1987442454139847, 0.09519803230183799, 0
3750, 3.7492104654677605, 0.10812946527278891, 0
3751, 3.6086948628212006, 0.2080534844613793, 0
3752, 3.3031695057988086, 0.1554906485201744, 0
3753, 3.3207982350203533, 0.23069869821199807, 0
3754, 3.687823148908043, 0.0815712318349163, 0
3755, 3.7578197575498824, 0.004004597790882029, 0
3756, 3.6662741883813696, 0.23069869821199832, 0
3757, 3.735925003693741, 0.05461263951580375, 0
3758, 3.8217661176802125, 0.06171018730468977, 0
3759, 3.55477402211066, 0.17770999463499756, 0
3760, 3.6050312020749162, 0.15148304509559068, 0
3761, 3.6911231302237844, 0.15816872865111015, 0
3762, 3.1050003666472303, 0.1707536883290558, 0
3763, 3.1642543370810725, 0.14833857012055862, 0
3764, 3.898138346163174, -0.08720540504010536, 0
3765, 3.8965914906220473, 0.23069869821199848, 0
3766, 3.753976524838022, 0.17239661608424245, 0
3767, 3.723853513941539, 0.23069869821199834, 0
3768, 3.401224518738686, 0.039491267910566445, 0
3769, 3.3350266591722466, 0.041856304802983975, 0
3770, 3.3707147202837096, 0.11314409437421633, 0
3771, 3.4785802027975445, 0.16270917345788471, 0
3772, 3.800963470439966, 0.10910830454333735, 0
3773, 3.313663196617938, 0.09718614708901747, 0
3774, 3.493536211700862, 0.2306986982119982, 0
3775, 3.4109746922437343, 0.16768185442160294, 0
3776, 3.378377560580523, 0.23069869821199812, 0
3777, 3.3551327751472844, 0.17873543043667067, 0
3778, 3.8066882813464624, 0.014134843417319583, 0
3779, 3.772598622676341, -0.0900843622720661, 0
3780, 3.7066124490038175, -0.07984684461131447, 0
3781, 3.745633104083312, -0.04611476302304307, 0
3782, 3.6807191958690675, -0.028385542951013434, 0
3783, 3.9898366297768595, 0.05386436072644439, 0
3784, 3.8352984697798194, -0.08559182734795176, 0
3785, 3.8713991467229714, -0.230698698211997, 0
3786, 3.9047566869854893, 0.035408365415770394, 0
3787, 3.755089032048977, -0.14517041856181204, 0
3788, 3.864950238569779, -0.1552589798251523, 0
3789, 3.855722484165976, 0.024771604416544954, 0
3790, 3.901447516574332, -0.025898519812167488, 0
3791, 4.014899970094086, -0.06276511132857474, 0
3792, 3.9532648865000173, -0.059438225707809454, 0
3793, 3.962419077632835, -0.14621746628852567, 0
3794, 3.9869615925421322, -0.007761232700685822, 0
3795, 4.10502624379379, 0.01761052352538188, 0
3796, 4.042642319148069, 0.02052093941317286, 0
3797, 4.242067443983063, 0.23069869821199873, 0
3798, 4.044630650090417, 0.08215551056956101, 0
3799, 3.999272003626991, 0.15002592602525008, 0
3800, 3.880486493057538, 0.1029098871891726, 0
3801, 3.938406063360333, 0.08562094846038501, 0
3802, 3.811235215600726, -0.1369774184807518, 0
3803, 3.9123407688764913, -0.13625090054811217, 0
3804, 3.9278333657422735, -0.20022785385552816, 0
3805, 4.145060745005749, -0.045187208889552216, 0
3806, 3.8458826839454354, 0.172180191648631, 0
3807, 3.954170816182217, 0.19830341534530724, 0
3808, 3.9245898783792468, 0.14499790224508124, 0
3809, 4.061452051866896, -0.17129967339664925, 0
3810, 4.210004460838785, -0.2306986982119967, 0
3811, 4.207824652944769, -0.0852747174672887, 0
3812, 3.8390121650618783, 0.23069869821199845, 0
3813, 4.071250177948129, -0.03527173238155458, 0
3814, -0.17525115370781186, 2.7195755707445786, 0
3815, 0.018752363442847572, 3.1288721971433344, 0
3816, -0.23069869821199795, 3.0329016072195065, 0
3817, -0.1759136489996641, 3.004111944439422, 0
3818, -0.0842823191704043, 3.075388514838359, 0
3819, -0.12024168668836403, 3.027079226634753, 0
3820, -0.03808477640516073, 3.0034630887465275, 0
3821, -0.15658976442927838, 3.0916731323122817, 0
3822, -0.010718937243569732, 3.0666447550648597, 0
3823, -0.23069869821199823, 3.3207982350203533, 0
3824, -0.045262361805168565, 3.1262061849615326, 0
3825, -0.23069869821199812, 3.2056395839000147, 0
3826, -0.020436859729488277, 3.2999858261087094, 0
3827, 0.116054360181919, 2.974218200598922, 0
3828, -0.1945609274824935, 3.1480602583398456, 0
3829, -0.016722221592548294, 3.210792107732186, 0
3830, 0.08208732667858662, 3.0607837515982, 0
3831, -0.11662863271652162, 3.1595614876935425, 0
3832, 0.03232259543555852, 3.010484892192971, 0
3833, 0.001535405456966607, 2.9626899437320753, 0
3834, 0.05867396865996352, 2.8812831296945287, 0
3835, 0.08221707904930538, 3.0108878098589136, 0
3836, 0.010821833887605811, 2.850242568094711, 0
3837, 0.06741034623642451, 2.8205273074551545, 0
3838, -0.07133078404673487, 2.9589666161235417, 0
3839, -0.0637996640245822, 3.1795686833988173, 0
3840, -0.1285986349017254, 3.27091926166777, 0
3841, -0.1081028445649017, 3.216800159622142, 0
3842, -0.0684218393226926, 3.2627686029931966, 0
3843, -0.17057175080262374, 3.224082758448832, 0
3844, -0.18692529579447545, 3.2809638085345747, 0
3845, 0.02141095084430636, 3.502060008981827, 0
3846, -0.23069869821199834, 3.4359568861406924, 0
3847, -0.0901643272833471, 3.328462278742071, 0
3848, -0.01826618104529998, 3.4049065481177614, 0
3849, -0.03952039692678635, 3.352863455976333, 0
3850, 3.811100145183622, -4.940771613940944, 0
3851, 3.693216859056914, -4.972277435892454, 0
3852, 3.7598158956389, -4.985175696517014, 0
3853, 3.7361600438301648, -4.928932340802479, 0
3854, 3.727916615201117, -4.863691463779478, 0
3855, 3.672799728307782, -4.909104571557288, 0
3856, 3.715889523256585, -5.033597394526481, 0
3857, 3.6085743057274913, -4.870878758129332, 0
3858, 3.604088299894303, -4.966197522209489, 0
3859, 3.6486075195898513, -5.023622970991259, 0
3860, 3.755337983923981, -5.08461149442313, 0
3861, 3.813380185554969, -5.082697620725159, 0
3862, 3.780019480433203, -5.035904254788076, 0
3863, 3.4866732212559404, -4.890107247175846, 0
3864, 3.6232234995081583, -4.919333140961233, 0
3865, 3.552931633512384, -4.9141428183083224, 0
3866, 3.5373616171938655, -4.853719940519064, 0
3867, 3.52238753288959, -4.78596094658733, 0
3868, 3.4781644484119214, -4.828992575604472, 0
3869, 3.3976570333066456, -4.809051670915476, 0
3870, 3.501025060911241, -4.953888249933627, 0
3871, 3.43025145596965, -4.936308338538245, 0
3872, 3.5462545928555245, -5.002348036300996, 0
3873, 3.4233131818053812, -4.870282887472388, 0
3874, 3.427030351578274, -4.99862502873127, 0
3875, 3.325886167802283, -4.875114606279781, 0
3876, 3.3704586699497985, -4.918690492103516, 0
3877, 3.315129372091908, -4.930701317613792, 0
3878, 3.373725396646509, -4.85506975941394, 0
3879, 3.3222546957190064, -4.799338488590185, 0
3880, 3.4155742315024082, -4.751144448222673, 0
3881, 3.299833609741962, -4.741468331107374, 0
3882, 3.2076549349680334, -4.810460299986668, 0
3883, 3.263398509495246, -4.788863132612212, 0
3884, 3.258262894290311, -4.8583451297138796, 0
3885, 3.1953445209478044, -4.874156175731374, 0
3886, 3.1075923236719905, -4.824158883402254, 0
3887, 3.2043656296885277, -4.9330574383746955, 0
3888, 3.142674083593437, -4.8645928163594885, 0
3889, 3.0892749212536597, -4.904010767970316, 0
3890, 4.7687127239447955, -2.2156490960032476, 0
3891, 4.679719280346696, -2.14248053063651, 0
3892, 4.717650435989022, -2.1770924461471273, 0
3893, 4.726239675057288, -2.0930843133175925, 0
3894, 4.628024925693085, -2.0320910928515286, 0
3895, 4.686493766513609, -2.0475133383692525, 0
3896, 4.693537990636318, -1.9763344048649967, 0
3897, 4.602672255046325, -1.9000846897156491, 0
3898, 4.660160586822785, -1.923843216866546, 0
3899, 4.678122417142867, -1.8618080707439173, 0
3900, 4.608505135585115, -1.9674022203700432, 0
3901, 4.549997695520115, -1.938560263646602, 0
3902, 4.570014368299536, -2.014306236416546, 0
3903, 4.561209719782076, -2.084174631525751, 0
3904, 4.499436303947831, -1.9786108168020844, 0
3905, 4.59169913546261, -2.1351435168773336, 0
3906, 4.63944091081567, -2.094043805831574, 0
3907, 4.662889994054375, 3.078939286415193, 0
3908, 4.745692449447216, 2.9431840309021444, 0
3909, 4.8035228441905335, 3.0228545597277447, 0
3910, 4.843867410051486, 3.057936767890809, 0
3911, 4.781429531806166, 3.0728387875746415, 0
3912, 4.744095809937938, 3.005166902431132, 0
3913, 4.851559300911787, 2.9771933856900956, 0
3914, 4.796365096063063, 2.9672262298370766, 0
3915, -0.20884637132979147, -3.7020964896650645, 0
3916, 0.23069869821199862, -4.126908792862725, 0
3917, 0.1750921981179316, -4.108520968783073, 0
3918, 0.14042440829951067, -4.1557262574295954, 0
3919, -0.10243356963436734, -4.069136431356286, 0
3920, -0.12057839016493531, -4.0142403864022524, 0
3921, -0.1085245100335673, -4.133272773886348, 0
3922, -0.23069869821199648, -4.09713602280018, 0
3923, 0.03481239971681285, -4.240340714639327, 0
3924, 0.017304706896132775, -4.1738157520458135, 0
3925, -0.024208912941670102, -4.220307363035192, 0
3926, -0.08613248348662615, -4.367630131606924, 0
3927, -0.021154043728672085, -4.308266827136936, 0
3928, 0.07705696429886444, -4.193656737423012, 0
3929, 0.13235930193600304, -4.2861557470205, 0
3930, 0.07643969193410032, -4.1298194848293726, 0
3931, 0.13110447280503482, -4.224124675520224, 0
3932, 0.17709546407942606, -4.254222549586266, 0
3933, 0.2306986982119988, -4.357226095103401, 0
3934, 0.23069869821199873, -4.299646769543232, 0
3935, -0.09959258504270822, -4.2876528423375, 0
3936, -0.2306986982119963, -4.32287289887739, 0
3937, 0.05874162080102181, -4.460963774872292, 0
3938, 0.05842641626684608, -4.316816345383517, 0
3939, 0.11955457643220235, -4.089926144110909, 0
3940, -0.051789653248981236, -4.265298034253314, 0
3941, -0.16364487182145412, -4.2462946632136855, 0
3942, -0.0013703897867071019, -4.395165809385397, 0
3943, 0.08143471247155634, -4.267828318889546, 0
3944, 0.1315738594860737, -4.388730454584479, 0
3945, -0.1562672770579807, -4.338312444751992, 0
3946, -0.23069869821199634, -4.266438679858087, 0
3947, -0.18575440448357944, -4.29437195447518, 0
3948, -0.13505723225454871, -4.205470819966091, 0
3949, -0.035933764179292955, -4.357333108513166, 0
3950, 0.015071633888305104, -4.345721083625965, 0
3951, 0.06499673357343794, -4.389778971732712, 0
3952, 0.11023554869570003, -4.337276700376585, 0
3953, 0.1726700921360851, -4.333948911655483, 0
3954, -0.2035879797656985, -4.379307117896691, 0
3955, 0.014352237519677184, -4.579568939288532, 0
3956, -0.1367792643373792, -4.390240834401831, 0
3957, -3.7020964896650645, 0.20884637133001072, 0
3958, -4.126908792862725, -0.2306986982119988, 0
3959, -4.108520968811278, -0.17509219811977747, 0
3960, -4.15572625743848, -0.14042440829296962, 0
3961, -4.069136431365305, 0.10243356962792226, 0
3962, -4.014240386409768, 0.12057839016192806, 0
3963, -4.133272773900148, 0.10852451002748634, 0
3964, -4.09713602280018, 0.23069869821199615, 0
3965, -4.240340714669872, -0.034812399741880815, 0
3966, -4.1738157520721995, -0.01730470691075529, 0
3967, -4.220307363072114, 0.02420891292711006, 0
3968, -4.367630131620036, 0.086132483494922, 0
3969, -4.308266827180648, 0.0211540436991147, 0
3970, -4.1936567374431775, -0.07705696432301196, 0
3971, -4.286155747024433, -0.1323593019555958, 0
3972, -4.129819484855692, -0.076439691938612, 0
3973, -4.224124675518778, -0.13110447284702104, 0
3974, -4.25422254960427, -0.17709546409513377, 0
3975, -4.357226095103401, -0.230698698211999, 0
3976, -4.299646769543232, -0.23069869821199895, 0
3977, -4.287652842356001, 0.09959258499067812, 0
3978, -4.32287289887739, 0.23069869821199596, 0
3979, -4.460963774983845, -0.058741620764208385, 0
3980, -4.316816345411579, -0.05842641629729507, 0
3981, -4.089926144130257, -0.11955457644819958, 0
3982, -4.265298034297535, 0.051789653198677205, 0
3983, -4.246294663243211, 0.16364487180768497, 0
3984, -4.395165809453281, 0.0013703897974123025, 0
3985, -4.267828318919174, -0.08143471248919637, 0
3986, -4.388730454688223, -0.1315738595812686, 0
3987, -4.338312444723097, 0.15626727705040022, 0
3988, -4.266438679858087, 0.230698698211996, 0
3989, -4.294371954477214, 0.185754404499598, 0
3990, -4.205470819979325, 0.13505723225211394, 0
3991, -4.357333108556929, 0.03593376417408212, 0
3992, -4.345721083690145, -0.015071633921833527, 0
3993, -4.389778971860464, -0.06499673361838161, 0
3994, -4.337276700446632, -0.11023554875699554, 0
3995, -4.333948911619779, -0.17267009217183157, 0
3996, -4.379307117896691, 0.2035879797449644, 0
3997, -4.5795689393053784, -0.0143522373811073, 0
3998, -4.390240834407695, 0.1367792643693363, 0
3999, 3.7020964896650645, -0.20884637132830985, 0
4000, 4.126908792862725, 0.23069869821199865, 0
4001, 4.108520968642205, 0.17509219810932897, 0
4002, 4.155726257384875, 0.14042440833331216, 0
4003, 4.0691364313112475, -0.1024335696652997, 0
4004, 4.014240386364523, -0.12057839018068738, 0
4005, 4.133272773814595, -0.10852451006208791, 0
4006, 4.09713602280018, -0.23069869821199682, 0
4007, 4.240340714488028, 0.03481239959012185, 0
4008, 4.173815751915193, 0.017304706820237832, 0
4009, 4.220307362853391, -0.024208913017995444, 0
4010, 4.36763013152004, -0.08613248347045407, 0
4011, 4.308266826922423, -0.021154043876756574, 0
4012, 4.193656737321977, 0.07705696417798227, 0
4013, 4.2861557470013585, 0.13235930183769573, 0
4014, 4.1298194846977765, 0.0764396919126073, 0
4015, 4.22412467552706, 0.13110447259609873, 0
4016, 4.254222549497303, 0.17709546400103582, 0
4017, 4.357226095103401, 0.23069869821199881, 0
4018, 4.299646769543232, 0.23069869821199876, 0
4019, 4.287652842228862, -0.09959258528518232, 0
4020, 4.32287289887739, -0.23069869821199662, 0
4021, 4.4609637743774915, 0.05874162094641905, 0
4022, 4.316816345244128, 0.05842641611453409, 0
4023, 4.08992614401384, 0.11955457635368187, 0
4024, 4.265298034036053, -0.05178965348404203, 0
4025, 4.246294663072615, -0.16364487189063615, 0
4026, 4.395165809072338, -0.00137038975646947, 0
4027, 4.267828318741866, 0.0814347123828131, 0
4028, 4.388730454117231, 0.131573859031537, 0
4029, 4.338312444843763, -0.15626727709616695, 0
4030, 4.266438679858087, -0.23069869821199668, 0
4031, 4.2943719544441485, -0.18575440441456628, 0
4032, 4.205470819907125, -0.1350572322689067, 0
4033, 4.357333108301747, -0.03593376421788036, 0
4034, 4.345721083326294, 0.015071633719779876, 0
4035, 4.3897789711461614, 0.06499673334888285, 0
4036, 4.33727670005706, 0.11023554840169882, 0
4037, 4.333948911824124, 0.17267009196460684, 0
4038, 4.379307117896691, -0.20358797984052082, 0
4039, 4.5795689393027885, 0.014352238044681382, 0
4040, 4.390240834379293, -0.1367792642309321, 0
4041, -0.043640365518688926, 3.4719480068824726, 0
4042, 0.23069869821199723, 2.968451642414135, 0
4043, 0.061270537359189824, 2.9438615103041093, 0
4044, -0.11000218842798012, 3.4990499420743717, 0
4045, 3.149118223298953, -4.755181040823144, 0
4046, 3.156128748615807, -4.806390092772506, 0
4047, 3.2099961215576713, -4.7493484658407645, 0
4048, 3.1938501082652095, -4.689608971956196, 0
4049, 3.064903402079568, -4.727212296378126, 0
4050, 3.1141296154086433, -4.71976171647086, 0
4051, 0.23069869821199857, -4.0693294673025555, 0
4052, 0.17602894799262572, -4.050805932281254, 0
4053, -0.2306986982119965, -4.040701803780879, 0
4054, -0.172849549283846, -4.126151517537128, 0
4055, -0.23069869821199643, -4.153570241819483, 0
4056, -0.17985950278747964, -4.00659130471251, 0
4057, 0.14421306666074762, -4.474309180648075, 0
4058, 0.18636586893922025, -4.42436087978005, 0
4059, 0.10639007715971513, -4.4361725840172515, 0
4060, 0.2306986982119997, -5.39365395518645, 0
4061, 0.2306986982119993, -4.933019350705095, 0
4062, 0.2306986982119991, -4.702702048464418, 0
4063, 0.230698698211999, -4.58754339734408, 0
4064, 0.18871569762598203, -4.52996407178391, 0
4065, -0.2306986982119958, -4.887215089070412, 0
4066, 0.155240898389451, -4.59846692437337, 0
4067, 0.13107248646898967, -4.530436609204238, 0
4068, -0.23069869821199537, -5.33868884122483, 0
4069, 0.20051451334733153, -4.645122722904249, 0
4070, -0.11607757730002938, -4.471242867105415, 0
4071, 0.02245862787474561, -4.51499364396857, 0
4072, 0.08533645531838888, -4.584992952058329, 0
4073, -4.0693294673025555, -0.23069869821199873, 0
4074, -4.050805932312026, -0.17602894798507035, 0
4075, -4.040701803780879, 0.2306986982119962, 0
4076, -4.12615151755468, 0.1728495492850313, 0
4077, -4.153570241819483, 0.2306986982119961, 0
4078, -4.0065913047203345, 0.17985950278663881, 0
4079, -4.474309180791282, -0.1442130666415956, 0
4080, -4.424360879990112, -0.18636586885185305, 0
4081, -4.436172584103722, -0.10639007714875766, 0
4082, -5.39365395518645, -0.230698698212, 0
4083, -4.933019350705095, -0.23069869821199956, 0
4084, -4.702702048464418, -0.23069869821199934, 0
4085, -4.58754339734408, -0.23069869821199923, 0
4086, -4.52996407178391, -0.1887156977082833, 0
4087, -4.887215089070412, 0.2306986982119954, 0
4088, -4.598466924275538, -0.1552408984580054, 0
4089, -4.530436609501014, -0.13107248639071611, 0
4090, -5.33868884122483, 0.23069869821199498, 0
4091, -4.645122722904249, -0.2005145133279735, 0
4092, -4.471242867113723, 0.11607757731186322, 0
4093, -4.514993644019396, -0.022458627794864898, 0
4094, -4.584992952433716, -0.08533645522352763, 0
4095, 4.0693294673025555, 0.23069869821199862, 0
4096, 4.050805932128352, 0.17602894803092464, 0
4097, 4.040701803780879, -0.23069869821199684, 0
4098, 4.126151517452449, -0.17284954927799817, 0
4099, 4.153570241819483, -0.23069869821199676, 0
4100, 4.006591304674115, -0.1798595027908082, 0
4101, 4.474309180011144, 0.14421306673692, 0
4102, 4.4243608788285425, 0.18636586932302285, 0
4103, 4.436172583636867, 0.10639007719319657, 0
4104, 5.39365395518645, 0.23069869821199956, 0
4105, 4.933019350705095, 0.23069869821199923, 0
4106, 4.702702048464418, 0.23069869821199906, 0
4107, 4.58754339734408, 0.23069869821199898, 0
4108, 4.52996407178391, 0.18871569725530224, 0
4109, 4.887215089070412, -0.23069869821199618, 0
4110, 4.598466924814292, 0.15524089808028846, 0
4111, 4.530436607889373, 0.13107248680742345, 0
4112, 5.33868884122483, -0.23069869821199582, 0
4113, 4.645122722904249, 0.20051451343446183, 0
4114, 4.471242866928668, -0.11607757722386627, 0
4115, 4.514993643785543, 0.022458628181954696, 0
4116, 4.584992950412951, 0.08533645569292443, 0
4117, 0.2306986982119973, 2.9120174233948326, 0
4118, 0.23069869821199693, 3.307056956529949, 0
4119, 0.16046418779405508, 3.041590810458932, 0
4120, 0.17402995634660887, 2.984325638086866, 0
4121, 0.15873186579072912, 2.9007486580203556, 0
4122, 0.10487170904872782, 2.9107093040339347, 0
4123, 0.11169379959251258, 2.85500375187358, 0
4124, 0.23069869821199718, 3.0248858614334373, 0
4125, 0.17206351404145437, 2.842072504535262, 0
4126, -0.10642184889825249, 3.413018987415273, 0
4127, -0.16315976860763542, 3.4537477110760353, 0
4128, -0.172944946329461, 3.519068260110813, 0
4129, -0.1794187334092409, 3.378377560580523, 0
4130, 0.23069869821199648, 3.7585307086843667, 0
4131, -0.2306986982119984, 3.493536211700862, 0
4132, -0.0803899779514065, 3.6118094066873243, 0
4133, -0.1252309860071712, 3.5601299685402688, 0
4134, -0.04251104061386671, 3.5548298802165714, 0
4135, -0.12833525829414089, 3.364964494921177, 0
4136, 0.12867415404504656, -4.854083786929112, 0
4137, -0.23069869821199868, 3.7814328395017087, 0
4138, -0.06698150753255958, 3.7656032281316514, 0
4139, -0.2306986982119989, 4.011750141742386, 0
4140, 3.0789392864151925, -4.662889994054375, 0
4141, 2.9432663726771193, -4.74573410274683, 0
4142, 3.023096512443098, -4.803493304734297, 0
4143, 3.0579774588304187, -4.84394754414658, 0
4144, 3.073275591765669, -4.781397727689918, 0
4145, 3.0052484333363036, -4.744114477690653, 0
4146, 2.9772247264218987, -4.851412130494694, 0
4147, 2.9675427514425126, -4.796228249210661, 0
4148, 0.19934252060857519, -4.184488118422895, 0
4149, 0.0006561534683090023, -4.453672078104628, 0
4150, -0.06124220645727456, -4.429315728342443, 0
4151, -4.184488118422895, -0.1993425206071368, 0
4152, -4.4536720781618, -0.0006561534493976645, 0
4153, -4.429315728357646, 0.0612422064628492, 0
4154, 4.184488118422895, 0.19934252061638771, 0
4155, 4.453672077820746, 0.0006561535558401096, 0
4156, 4.429315728231323, -0.061242206421465994, 0
4157, 0.23069869821199704, 3.194188518491344, 0
4158, 0.1352774115458648, 3.108364849971384, 0
4159, 0.15221365958474922, 3.185492564838472, 0
4160, 0.0823176325981218, 3.1487493163465636, 0
4161, 0.19458643655504446, 3.135764703503524, 0
4162, 0.18472165767956295, 3.2506227375106462, 0
4163, 0.10786711670073554, 3.3601821346166862, 0
4164, 0.03434538046480236, 3.353058551748636, 0
4165, 0.08276207736493912, 3.2608353187016084, 0
4166, 0.16177593126242668, 3.3162625447786382, 0
4167, 0.06392969158665651, 3.4306888197236987, 0
4168, 0.1318016578924892, 3.2363585128687085, 0
4169, 0.07507857478804056, 3.3156223896364283, 0
4170, 0.23069869821199682, 3.419925394568553, 0
4171, 0.17218597292333906, 3.3840850892503918, 0
4172, 0.23069869821199687, 3.363491175549251, 0
4173, 0.15589868041322485, 3.476359613587855, 0
4174, 0.013117207042753815, 3.4487684137704457, 0
4175, 0.08963805662636035, 3.494355018094251, 0
4176, 0.23069869821199626, 3.984267584761576, 0
4177, 0.01167604741309057, 3.5553681878963634, 0
4178, -0.14914261472529994, 3.959821808465527, 0
4179, 0.17020470637085083, -4.8157747851237485, 0
4180, 0.13569487564160837, 3.532953824437036, 0
4181, -0.11947327505214755, 3.867801827841963, 0
4182, -0.1575612574593173, 3.6334756213542776, 0
4183, -0.23069869821199873, 3.8390121650618783, 0
4184, -0.23069869821199857, 3.6662741883813696, 0
4185, 0.08494349652317058, -4.753973369308374, 0
4186, -0.17881195439845235, 3.867801827841963, 0
4187, 0.19437815073848486, -4.760281374024587, 0
4188, 0.23069869821199918, -4.817860699584756, 0
4189, -0.13576073237645228, 3.696882280146061, 0
4190, -0.16408290662697028, 3.7606566377834465, 0
4191, -0.2306986982119988, 3.8965914906220473, 0
4192, -0.23069869821199862, 3.723853513941539, 0
4193, -0.11458132561313447, 3.7444641623391535, 0
4194, -0.12187081083772705, 3.8059408866344624, 0
4195, 0.11171610900832686, -4.800187672928729, 0
4196, -0.2306986982119985, 3.6086948628212, 0
4197, -0.18002904455374408, 3.5797736618786256, 0
4198, 0.05324788546964018, -4.91308835418897, 0
4199, 0.19843032688390627, -4.8754400251449255, 0
4200, 0.07812186564872331, -4.513175903071536, 0
4201, 0.03523282153894067, -4.7735024100171985, 0
4202, -0.027285102210414653, -4.541545579392813, 0
4203, -0.048828724448408814, -4.4868118956702645, 0
4204, -0.09008752189394417, -4.6521262244106545, 0
4205, 0.1266133133363448, -4.720564373436736, 0
4206, 0.17576674132343342, -4.694797205400979, 0
4207, 0.11412453050135789, -4.908679343987784, 0
4208, 0.10868040475446306, -4.651954924371122, 0
4209, 0.0551753517594236, -4.702588242769483, 0
4210, 0.04459129132737723, -4.637817403486681, 0
4211, -0.03504163095833429, -4.7818575141530735, 0
4212, -0.23069869821199598, -4.661478212993202, 0
4213, 0.011536554605748438, -4.72857732019255, 0
4214, -0.09763716338208508, -4.81487426383411, 0
4215, -0.17383277193745517, -4.433438894394799, 0
4216, -0.23069869821199607, -4.548609774954598, 0
4217, -0.04611577606146, -4.603975126644081, 0
4218, -0.19993416017586504, -4.492175555935296, 0
4219, 0.022603066629032054, -4.966989418880043, 0
4220, -0.10072137228142101, -4.733182063854604, 0
4221, -0.10735412426996523, -4.55144902593516, 0
4222, -0.02323205590799171, -4.66902574013821, 0
4223, 0.010961638779198854, -4.869073826790541, 0
4224, -0.16892633335521873, -4.545681752327529, 0
4225, -0.19706812791898778, -4.6050439939739, 0
4226, -0.044971274469997304, -4.721643418833024, 0
4227, 0.004725567548608114, -4.816622476773001, 0
4228, -0.1598158671924753, -4.665481313732779, 0
4229, -0.23069869821199587, -4.7743466510318076, 0
4230, -0.198331362179507, -4.717912432012505, 0
4231, -0.15908471872575913, -4.777921095457209, 0
4232, -0.19761928560537562, -4.830780870051109, 0
4233, -0.13443949791745188, -4.905726260386708, 0
4234, -0.17929303770587804, -4.879434964514937, 0
4235, -0.23069869821199557, -5.112951965147621, 0
4236, -0.23069869821199568, -5.000083527109016, 0
4237, -0.18861223619037693, -4.946739945742778, 0
4238, -0.10432059281076486, -5.056517746128319, 0
4239, -0.11989248997345132, -4.98122435831082, 0
4240, -0.1685077302026325, -5.030535735367306, 0
4241, -0.23069869821199562, -5.056517746128319, 0
4242, -0.15994853303074288, -5.101667119194266, 0
4243, -0.09459310111443488, -5.125346766914886, 0
4244, -0.23069869821199546, -5.225820403186225, 0
4245, -0.05078696197141815, -5.1793197265384086, 0
4246, -0.18542222047364684, -5.169386184166923, 0
4247, 0.013229751640209002, -5.082598068157379, 0
4248, -0.124751398774132, -5.264441125257992, 0
4249, -0.11926925944117603, -5.1901384023586115, 0
4250, -0.04869599458015928, -5.083758309189416, 0
4251, -0.018882913684557884, -5.021810129002707, 0
4252, -0.17118455255779672, -5.227188378783582, 0
4253, -0.20222308469206557, -5.282254622205527, 0
4254, -0.05058202930556076, -4.954713820165276, 0
4255, -0.007287129603568674, -4.9208933033469275, 0
4256, -0.0590861136522577, -4.873528766410137, 0
4257, -0.0731208066225955, -5.0108081682102315, 0
4258, -0.08494905425475177, -4.9172758191736845, 0
4259, -4.5131759032144725, -0.07812186559561553, 0
4260, -4.77350241033106, -0.035232820456366915, 0
4261, -4.541545579386563, 0.027285102284129233, 0
4262, -4.486811895662446, 0.048828724455704645, 0
4263, -4.6521262239814805, 0.09008752178436846, 0
4264, -4.720564373718038, -0.12661331284712884, 0
4265, -4.694797205553219, -0.17576674104889314, 0
4266, -4.908679346367666, -0.11412453116376949, 0
4267, -4.651954924488188, -0.10868040518032465, 0
4268, -4.702588242360874, -0.05517535071577252, 0
4269, -4.6378174029210895, -0.044591292034271174, 0
4270, -4.781857514057467, 0.03504163221853862, 0
4271, -4.661478212993202, 0.23069869821199562, 0
4272, -4.728577320281959, -0.011536553751728917, 0
4273, -4.814874263420052, 0.09763716495502736, 0
4274, -4.433438894401798, 0.17383277194936947, 0
4275, -4.548609774954598, 0.23069869821199573, 0
4276, -4.603975126428287, 0.04611577605154248, 0
4277, -4.492175555935296, 0.1999341601885626, 0
4278, -4.966989419467683, -0.022603064354594193, 0
4279, -4.733182063347515, 0.10072137332765155, 0
4280, -4.551449025857497, 0.10735412426790836, 0
4281, -4.669025739837879, 0.023232055921130104, 0
4282, -4.869073827130682, -0.010961637075285344, 0
4283, -4.545681752319236, 0.16892633335763219, 0
4284, -4.6050439939739, 0.19706812791211775, 0
4285, -4.7216434183058125, 0.04497127538345485, 0
4286, -4.816622476980562, -0.004725566150312797, 0
4287, -4.665481313796513, 0.15981586709313575, 0
4288, -4.7743466510318076, 0.2306986982119955, 0
4289, -4.717912432012505, 0.198331362172672, 0
4290, -4.7779210950504565, 0.1590847194432426, 0
4291, -4.830780870051109, 0.19761928569121134, 0
4292, -4.9057262601146086, 0.13443949821771767, 0
4293, -4.879434964377033, 0.17929303789359058, 0
4294, -5.112951965147621, 0.23069869821199518, 0
4295, -5.000083527109016, 0.2306986982119953, 0
4296, -4.9467399455967564, 0.188612236386562, 0
4297, -5.056517746128319, 0.10432059203695856, 0
4298, -4.981224358216254, 0.11989248992702188, 0
4299, -5.030535735903276, 0.16850773004895572, 0
4300, -5.056517746128319, 0.23069869821199523, 0
4301, -5.101667120303652, 0.1599485321947383, 0
4302, -5.125346769307584, 0.09459309785332237, 0
4303, -5.225820403186225, 0.23069869821199507, 0
4304, -5.179319730490235, 0.0507869563195078, 0
4305, -5.169386184166923, 0.18542222123449975, 0
4306, -5.082598070012304, -0.013229755512551039, 0
4307, -5.264441124685419, 0.12475139846825742, 0
4308, -5.190138408728401, 0.11926925772769459, 0
4309, -5.083758308734168, 0.04869599209134325, 0
4310, -5.021810132598469, 0.01888290813466407, 0
4311, -5.227188378593304, 0.17118455255570633, 0
4312, -5.282254622205527, 0.20222308451491794, 0
4313, -4.954713830658055, 0.05058202933470006, 0
4314, -4.920893304086581, 0.007287135152622751, 0
4315, -4.873528763683716, 0.059086114186560984, 0
4316, -5.01080816709233, 0.07312080280790954, 0
4317, -4.91727582243362, 0.08494905170127523, 0
4318, 4.513175902459572, 0.07812186585227258, 0
4319, 4.773502408796297, 0.03523282645953085, 0
4320, 4.5415455794571065, -0.027285101977096604, 0
4321, 4.4868118957077385, -0.04882872449566297, 0
4322, 4.652126226430086, -0.09008752262722834, 0
4323, 4.72056437218361, 0.1266133155134832, 0
4324, 4.694797204722937, 0.17576674254542937, 0
4325, 4.9086793330765826, 0.11412452754000148, 0
4326, 4.651954923853564, 0.10868040285987877, 0
4327, 4.702588244615333, 0.05517535630555661, 0
4328, 4.637817406026319, 0.04459128819080131, 0
4329, 4.781857515055236, -0.03504162535554563, 0
4330, 4.661478212993202, -0.23069869821199637, 0
4331, 4.728577319975449, 0.011536558279794728, 0
4332, 4.8148742664731214, -0.0976371563806697, 0
4333, 4.43343889438959, -0.17383277188761698, 0
4334, 4.548609774954598, -0.23069869821199646, 0
4335, 4.603975127691453, -0.046115776272960846, 0
4336, 4.492175555935296, -0.19993416014760904, 0
4337, 4.9669894168829245, 0.022603077609958167, 0
4338, 4.733182066561344, -0.10072136806242706, 0
4339, 4.551449026258139, -0.10735412447463741, 0
4340, 4.669025741632984, -0.023232056049306685, 0
4341, 4.8690738257439525, 0.010961646801991923, 0
4342, 4.5456817522959865, -0.16892633344156122, 0
4343, 4.6050439939739, -0.1970681279280112, 0
4344, 4.721643421470363, -0.04497127070876175, 0
4345, 4.816622476235591, 0.004725573986791371, 0
4346, 4.665481313381919, -0.15981586777124612, 0
4347, 4.7743466510318076, -0.23069869821199626, 0
4348, 4.717912432012505, -0.1983313622344665, 0
4349, 4.777921097361135, -0.15908471533952054, 0
4350, 4.830780870051109, -0.1976192851886115, 0
4351, 4.905726261187312, -0.13443949734760074, 0
4352, 4.879434964891632, -0.1792930372941183, 0
4353, 5.112951965147621, -0.23069869821199598, 0
4354, 5.000083527109016, -0.2306986982119961, 0
4355, 4.946739946034083, -0.18861223592524534, 0
4356, 5.056517746128319, -0.10432059410161287, 0
4357, 4.981224358720582, -0.11989249041025037, 0
4358, 5.030535734910681, -0.16850773065434543, 0
4359, 5.056517746128319, -0.23069869821199604, 0
4360, 5.101667117882464, -0.15994853418472238, 0
4361, 5.125346764053521, -0.09459310512525965, 0
4362, 5.225820403186225, -0.2306986982119959, 0
4363, 5.179319721751717, -0.05078696870989242, 0
4364, 5.169386184166923, -0.18542221963353728, 0
4365, 5.0825980650593285, 0.01322974765606854, 0
4366, 5.264441125885729, -0.12475139911745231, 0
4367, 5.190138394852111, -0.11926926151744252, 0
4368, 5.083758309479551, -0.048695997323631494, 0
4369, 5.021810120822418, -0.018882920556034494, 0
4370, 5.227188378991183, -0.17118455256321694, 0
4371, 5.282254622205527, -0.20222308488697818, 0
4372, 4.954713793901459, -0.050582026750234224, 0
4373, 4.920893301669878, -0.0072871124465579765, 0
4374, 4.873528773126784, -0.05908610787591716, 0
4375, 5.010808169725043, -0.07312081189418376, 0
4376, 4.917275810461803, -0.08494905939708491, 0
4377, 0.022316315809533818, 3.257092150853727, 0
4378, 0.044634631356189364, 3.198666177320752, 0
4379, 0.23069869821199676, 3.4763596135878556, 0
4380, 0.12491522505651248, 3.4233160622390977, 0
4381, 0.06754149049635383, -4.843702839311487, 0
4382, -0.13448358304967042, -4.607921102917443, 0
4383, -4.800187673822901, -0.1117161083870374, 0
4384, -4.817860699584756, -0.23069869821199945, 0
4385, -4.753973369869636, -0.08494349586639577, 0
4386, -4.760281374024587, -0.19437815082695317, 0
4387, -4.8157747852138035, -0.17020470616920516, 0
4388, -4.8754400251449255, -0.19843032687864284, 0
4389, -4.854083788383783, -0.12867415409904076, 0
4390, -4.913088358945147, -0.05324788337955413, 0
4391, -4.843702841046156, -0.0675414899812643, 0
4392, -4.60792110274188, 0.13448358310025077, 0
4393, 4.80018766885896, 0.11171611185935827, 0
4394, 4.817860699584756, 0.23069869821199915, 0
4395, 4.753973366787564, 0.08494349945146293, 0
4396, 4.760281374024587, 0.19437815034421554, 0
4397, 4.815774784702021, 0.170204707301828, 0
4398, 4.8754400251449255, 0.19843032690233672, 0
4399, 4.854083780264017, 0.1286741538349675, 0
4400, 4.913088341779071, 0.05324789179477621, 0
4401, 4.843702831418001, 0.06754149287609235, 0
4402, 4.60792110368501, -0.13448358286261972, 0
4403, -0.0574570274178733, 3.6872914214967936, 0
4404, -0.10063865498338802, 3.659186113677802, 0
4405, -0.005695731946401952, 3.630340548770556, 0
4406, 0.08596058938300274, 3.612079373591042, 0
4407, 0.05906556175235467, 3.741198292692889, 0
4408, 0.03600721390283971, 3.6005047211860117, 0
4409, -0.00789744866211043, 3.7330540818960944, 0
4410, 0.03222372867373625, 3.682533735675727, 0
4411, 0.012970770526984372, 3.8408346526163415, 0
4412, -0.014861416112716928, 3.7903129417851966, 0
4413, -0.05506907944899161, 3.8453903349251095, 0
4414, -0.012112055197097238, 3.976589512562459, 0
4415, -0.06478854358279533, 3.921204715078106, 0
4416, 0.0032523886736108426, 3.9092336815570703, 0
4417, 0.14754287177387446, 3.8609582779276783, 0
4418, 0.07640483257196484, 3.961350678984388, 0
4419, 0.06678659380179493, 3.8833709256941473, 0
4420, 0.07998756130388321, 3.8113580436630032, 0
4421, 0.03577891470326044, 3.786341890496966, 0
4422, 0.14447166000081407, 3.7539291533232197, 0
4423, -0.08350858232778992, 3.9917520528227293, 0
4424, -0.23069869821199912, 4.242067443983063, 0
4425, -0.013404663439639142, 4.146178220861801, 0
4426, -0.03144275577260228, 4.061241453899945, 0
4427, -0.11657145244313308, 3.919530467684125, 0
4428, 0.11114148129237711, 3.684684997457159, 0
4429, -0.061728961271022426, 4.112057126594509, 0
4430, -0.17909109072239615, 4.0027943578574945, 0
4431, 0.04330337586170021, 4.0337770100615735, 0
4432, -0.230698698211999, 4.126908792862725, 0
4433, -0.11285397448322984, 4.0822960805956665, 0
4434, -0.010371430034736132, 4.2019513207544845, 0
4435, 0.23069869821199637, 3.8713991467229714, 0
4436, -0.07957445543513948, 4.04305455298491, 0
4437, -0.10721136763361473, 4.227752383542494, 0
4438, -0.12121850101141611, 4.15545815785595, 0
4439, -0.06462784732562432, 4.181997685379841, 0
4440, -0.17266230250698406, 4.202929551082153, 0
4441, -0.16860429182937145, 4.112981409692552, 0
4442, 0.10541638393096152, 4.1904468937853725, 0
4443, -0.23069869821199906, 4.184488118422895, 0
4444, -0.23069869821199895, 4.0693294673025555, 0
4445, -0.1631677161276147, 4.056871441736715, 0
4446, 0.23069869821199604, 4.210004460838785, 0
4447, 0.02303331668190614, 4.094056090638504, 0
4448, 0.07974601800995174, 4.079579233880594, 0
4449, 0.23069869821199615, 4.09713602280018, 0
4450, 0.03845318108992789, 4.229080576642792, 0
4451, 0.10522274131173633, 4.1335711191694475, 0
4452, -0.035418266866048445, 4.2518762157596175, 0
4453, 0.05173978258441825, 4.152922200829073, 0
4454, 0.1740600029186494, 4.16177496871712, 0
4455, 0.2306986982119966, 3.6456622706457624, 0
4456, 0.23069869821199596, 4.32287289887739, 0
4457, 0.13460766897295667, 3.80777082823504, 0
4458, 0.18137955777508508, 3.9278333657422735, 0
4459, 0.11945750826946634, 3.916457395959411, 0
4460, 0.13140655307059634, 3.971006942315665, 0
4461, -0.05230366230373683, 4.3257077267801485, 0
4462, 0.10269402028474042, 4.0239216574767305, 0
4463, 0.1904740412588949, 3.7020964896650645, 0
4464, 0.1586377131254646, 3.6275430816365373, 0
4465, 0.1298219122067443, 3.5844553720180907, 0
4466, 0.20658019625270566, 3.58922805162646, 0
4467, 0.10315027462712106, 4.2638690955056715, 0
4468, 0.171937520546874, 4.282534329658625, 0
4469, 0.04364748864791755, 4.340601535664627, 0
4470, 0.05040599577856796, 4.284405297883701, 0
4471, 0.16170708310202542, 4.093817164547257, 0
4472, 0.19883784511050798, 4.040701803780878, 0
4473, 0.17908887385026945, 3.9923413119021633, 0
4474, 0.2306986982119961, 4.153570241819483, 0
4475, 0.1552473036566171, 4.213241380324906, 0
4476, 0.230698698211996, 4.266438679858087, 0
4477, 0.14873108072701713, 4.379307117896691, 0
4478, 0.17889246943288617, 4.335371035018771, 0
4479, -0.0038054610645147924, 4.297952734838831, 0
4480, 0.23069869821199498, 5.33868884122483, 0
4481, 0.10766245580781891, 4.3288052789085425, 0
4482, -0.018609487189482778, 4.425160431251311, 0
4483, -0.23069869821199915, 4.299646769543232, 0
4484, -0.009527227204762095, 4.366649320659292, 0
4485, 0.07169654978719023, 4.4264507961460025, 0
4486, -0.12164230507356756, 4.4622988338929614, 0
4487, -0.08829104473682284, 4.393334184330968, 0
4488, -0.2306986982119992, 4.357226095103401, 0
4489, -0.1453696435101073, 4.31957127745862, 0
4490, -0.17329440223890732, 4.264591382482204, 0
4491, -0.1654048466462898, 4.398588647985777, 0
4492, -0.10021860865121635, 4.343598375987262, 0
4493, -0.17742905079849974, 4.453733419589872, 0
4494, -0.23069869821200018, 5.39365395518645, 0
4495, -0.23069869821199973, 4.933019350705095, 0
4496, -0.18063839936936615, 4.52996407178391, 0
4497, -0.2306986982119995, 4.702702048464418, 0
4498, -0.23069869821199943, 4.58754339734408, 0
4499, -0.23069869821199926, 4.414805420663571, 0
4500, 0.23069869821199562, 4.661478212993202, 0
4501, -0.16016946119137476, 4.598311299716583, 0
4502, -0.07099135240224919, 4.550109193022434, 0
4503, -0.17202743900332262, 4.666320838942017, 0
4504, 0.2306986982119954, 4.887215089070412, 0
4505, -0.23069869821199962, 4.817860699584756, 0
4506, -0.23069869821199948, 4.645122722904249, 0
4507, 0.10159007853806928, 4.490845250193778, 0
4508, 0.1063844387739927, 4.561678031328072, 0
4509, 0.23069869821199573, 4.548609774954598, 0
4510, 0.12253354935843133, 4.423009862649463, 0
4511, 0.17923208471847152, 4.422749928141364, 0
4512, -0.12790442268505572, 4.5514097402303415, 0
4513, 0.0192551466418482, 4.531996785732522, 0
4514, 0.14961217719821746, 4.468520840774953, 0
4515, -0.1543792174393231, 4.760281374024587, 0
4516, 0.06902288715194572, 4.52862822569136, 0
4517, -0.027410575247643704, 4.690025892141261, 0
4518, -0.09425552485413118, 4.644842427001797, 0
4519, -0.1813925455197735, 4.716717512495429, 0
4520, 0.2063435506872599, 4.492175555935296, 0
4521, 0.16721600831533007, 4.542534261340819, 0
4522, 0.19326567889765045, 4.6050439939739, 0
4523, 0.10480715809480137, 4.704350684502708, 0
4524, 0.16210918250508552, 4.66634204676879, 0
4525, 0.2306986982119955, 4.7743466510318076, 0
4526, 0.09869556311444638, 4.6329380741454464, 0
4527, 0.16844840057818716, 4.738097822911372, 0
4528, 0.14080281466441708, 4.601436565791866, 0
4529, 0.041229644650766104, 4.673823915733342, 0
4530, 0.04764436395969806, 4.5913848774152495, 0
4531, 0.23069869821199557, 4.717912432012505, 0
4532, 0.15615748267533422, 4.830780870051109, 0
4533, 0.029831063925120707, 4.77903273613634, 0
4534, 0.1069958421562248, 4.777104941322848, 0
4535, 0.1816486130525751, 4.787004821685263, 0
4536, 0.01693876284732638, 4.724414067481582, 0
4537, -0.05388611690055352, 4.769962612166604, 0
4538, -0.024804925833235052, 4.614133728975696, 0
4539, -0.03318712664305902, 4.969800635645097, 0
4540, -0.09169256430277474, 4.713088087810123, 0
4541, -0.02145427796773873, 4.563045220413777, 0
4542, -0.02212133469749785, 4.867663453355538, 0
4543, -0.016055648247076455, 4.811677209827211, 0
4544, -0.055991236675437026, 4.4829433221765305, 0
4545, 0.0005095659118706762, 4.478512425989448, 0
4546, 0.05227946880364427, 4.474600586390125, 0
4547, 0.027517252074259382, 4.924709457776204, 0
4548, 0.0696431641701302, 4.861911022706922, 0
4549, 0.10605395341578691, 4.827319087052813, 0
4550, -0.12391535716001828, 4.9083028788007885, 0
4551, 0.23069869821199518, 5.112951965147621, 0
4552, 0.1357917372861268, 4.945643587694205, 0
4553, 0.08767624580002328, 4.9195363117144595, 0
4554, 0.14292564590977927, 4.89136838407615, 0
4555, 0.06494806665667592, 5.007612038016306, 0
4556, 0.02000451376507273, 4.97800285042148, 0
4557, -0.23069869821199995, 5.163336652945773, 0
4558, -0.015544281050934576, 5.03196208638259, 0
4559, -0.0793692111272375, 5.178392961794388, 0
4560, 0.07270741181527882, 5.1784757378893636, 0
4561, 0.2306986982119953, 5.000083527109016, 0
4562, 0.04716075468116055, 5.094027839557721, 0
4563, 0.0326312630652235, 5.045998658113295, 0
4564, -0.08750943627607255, 4.952267867304585, 0
4565, 0.08849471147101545, 5.057497256368451, 0
4566, 0.14760751798346386, 4.99909522664517, 0
4567, -0.032428053395797116, 5.11172809108872, 0
4568, 0.18847599250516905, 5.056517746128319, 0
4569, 0.1461097501276314, 5.132227243571907, 0
4570, 0.017634398954004135, 5.1490480282143345, 0
4571, -0.003372361939277757, 5.254609047686174, 0
4572, 0.0231292156069162, 5.205012197059227, 0
4573, 0.09169224126231351, 5.273527010006568, 0
4574, -0.15740055251117682, 5.072373668426338, 0
4575, 0.23069869821199507, 5.225820403186225, 0
4576, 0.09138061470163827, 5.1267387780629, 0
4577, 0.1386946313768077, 5.078369219095251, 0
4578, 0.14590575803311345, 5.213277228155443, 0
4579, -0.09486573642821258, 5.117622372528345, 0
4580, -0.1544685743970236, 5.165182225568663, 0
4581, -0.08417171143041227, 5.047969052481617, 0
4582, -0.23069869821199984, 5.048178001825434, 0
4583, 0.19906775794715365, 5.169386184166923, 0
4584, 0.09632535286395862, 5.223180047077115, 0
4585, 0.17902633905500012, 5.282254622205527, 0
4586, -0.23069869821200006, 5.278495304066112, 0
4587, 0.023217066489428215, 5.369308006296785, 0
4588, -0.19150971443432024, 5.119901825735554, 0
4589, -0.17104924398262406, 4.9905986762652645, 0
4590, 0.13096688315840177, 5.321844064000276, 0
4591, 0.23069869821199454, 5.790162593379248, 0
4592, 0.07058518528194674, 5.330804708825259, 0
4593, 0.23069869821199476, 5.564425717302039, 0
4594, 0.014980142044449998, 5.310786033878122, 0
4595, 0.07936984521967039, 5.390000524825927, 0
4596, -0.10602500342462766, 5.357658075563599, 0
4597, -0.060674079254708344, 5.4408253147919075, 0
4598, -0.04004176165142592, 5.348370982961312, 0
4599, 0.033844052282482856, 5.427006282976587, 0
4600, -0.23069869821200062, 5.854288559667806, 0
4601, -0.19395532183396108, 5.220915978505943, 0
4602, -0.15014465492193155, 5.289386371397448, 0
4603, -0.2306986982119998, 4.9905986762652645, 0
4604, -0.17418290982819112, 4.9341583381426535, 0
4605, -0.20126890539562972, 4.8754400251449255, 0
4606, -0.1677122924314632, 4.82197795597694, 0
4607, -0.10774779755815345, 4.802647736831508, 0
4608, -0.1242304498202663, 4.854190095676222, 0
4609, -0.13213108225664302, 5.026129539700339, 0
4610, -0.1747138332893132, 5.353655577208725, 0
4611, 0.15020574462448985, 5.56773683226917, 0
4612, -0.23069869821200012, 5.336074629626282, 0
4613, -0.14255671727267422, 5.3931941317796905, 0
4614, -0.12652342827354154, 5.226386708301986, 0
4615, -0.06480305992279906, 5.2398658748471565, 0
4616, -0.04492857018257215, 5.292408304601036, 0
4617, -0.09791364072718066, 5.304024507175364, 0
4618, 0.12409181045486335, 5.491525668377322, 0
4619, 0.07012302633408662, 5.471637960401563, 0
4620, 0.07124290536810063, 5.551769707414162, 0
4621, 0.0435327399730015, 5.626966101889684, 0
4622, -0.04214296701143923, 5.552690419471559, 0
4623, 0.23069869821199487, 5.451557279263435, 0
4624, 0.1276093304514559, 5.372910960984064, 0
4625, -0.0005502769117239487, 5.49202436963127, 0
4626, -0.2306986982120004, 5.623971257427128, 0
4627, -0.02231854349971163, 5.400855479595951, 0
4628, 0.014507002160094457, 5.546938666629792, 0
4629, -0.03849107124513803, 8.685532839468666, 0
4630, 0.19589356622332293, 5.395123060244132, 0
4631, 0.1719216650103853, 5.45694187810168, 0
4632, 0.11764445954808776, 5.433753119966854, 0
4633, 0.20623351070899595, 5.5079914982827365, 0
4634, 0.1782907736892172, 5.345316813061175, 0
4635, 0.23069869821199465, 5.677294155340643, 0
4636, 0.10145243856810408, 5.605605887910418, 0
4637, 0.16703489601580945, 5.639720456776955, 0
4638, 0.2306986982119947, 5.620859936321342, 0
4639, 0.154472123084282, 5.733728374359946, 0
4640, 0.09691694342807841, 5.682514321664806, 0
4641, 0.1806445507338744, 5.689382560118281, 0
4642, -0.23069869821200034, 5.566391931866958, 0
4643, -0.12333446629304784, 5.454346914450655, 0
4644, -0.08035852902946562, 5.501553605805072, 0
4645, -0.012268896574292087, 5.863166878916679, 0
4646, -0.01598964416747061, 5.737596002169541, 0
4647, 0.03159133176093709, 5.691868659154116, 0
4648, 0.07024048836180276, 5.779703068717322, 0
4649, -0.055485998946106736, 5.648880051859708, 0
4650, 0.07000955805226095, 5.727384220491521, 0
4651, -0.002865884795691366, 5.651979055683159, 0
4652, 0.12184068910321572, 5.9477959741516955, 0
4653, 0.007053797634595852, 5.799753772318286, 0
4654, -0.09658401443187628, 5.802824628792315, 0
4655, -0.04528314381584463, 5.783806111499836, 0
4656, -0.09813064284301391, 5.719953549898184, 0
4657, -0.05087489581705162, 5.699977054812962, 0
4658, -0.0721712058808255, 5.597545286704048, 0
4659, -0.14416911433351887, 5.643999808215065, 0
4660, -0.11856493013914152, 5.569954045458238, 0
4661, -0.2306986982120005, 5.739129908547467, 0
4662, -0.10111486328139485, 5.669832689036153, 0
4663, -0.17749072164940535, 5.591027875175493, 0
4664, -0.23069869821200029, 5.508812606306789, 0
4665, -0.1596397146072409, 5.762551469622419, 0
4666, -0.16130178082698574, 5.83465351341885, 0
4667, -0.09443649373179012, 5.88890104545014, 0
4668, -0.23069869821200056, 5.796709234107636, 0
4669, -0.23069869821200045, 5.681550582987297, 0
4670, -0.0630556196093219, 5.84505312637757, 0
4671, 0.01597151747897068, 6.09738187214588, 0
4672, -0.15551197851937879, 5.70280486372503, 0
4673, -0.019884701438586228, 5.982895189712315, 0
4674, -0.03909213356064525, 5.921567050602654, 0
4675, 0.23069869821199435, 6.015899469456457, 0
4676, 0.044010708291333765, 5.845665438528529, 0
4677, 0.09783564453102633, 5.821653554423279, 0
4678, 0.0949664802247578, 5.887554862998785, 0
4679, 0.23069869821199446, 5.903031031417853, 0
4680, 0.04606002369101714, 5.945487552975645, 0
4681, 0.1568506694777038, 5.797464115177353, 0
4682, 0.16306070403070472, 5.8932922886089365, 0
4683, 0.19862524945651275, 5.842872265361836, 0
4684, 0.08136818912861304, 6.031408943765837, 0
4685, 0.03381680544053705, 6.0007341161744705, 0
4686, 0.08291723476589986, 5.9805569976975335, 0
4687, 0.15519077393010458, 6.015540694909658, 0
4688, 0.18915209583156234, 5.956740531650499, 0
4689, 0.23069869821199424, 6.128767907495062, 0
4690, 0.1367923373315121, 6.109600697483408, 0
4691, 0.12583573061650338, 6.058628152517277, 0
4692, 0.07716441822969942, 6.095753946705084, 0
4693, 0.23069869821199224, 8.120818172766834, 0
4694, 0.04864627232160029, 6.174690331870683, 0
4695, 0.19267873491944987, 6.071702857419213, 0
4696, 0.13161689688663464, 6.194821639081995, 0
4697, -0.23069869821200084, 6.084605861908483, 0
4698, 0.08445049266110527, 6.208170448420814, 0
4699, 0.09855331045348574, 6.150046075866249, 0
4700, 0.17648038006309286, 6.154778561805069, 0
4701, 0.23069869821199418, 6.185202126514364, 0
4702, -0.2306986982120028, 8.15746158207458, 0
4703, -0.007005347410533179, 6.234053841316326, 0
4704, 0.17726953078905977, 6.226458382254711, 0
4705, 0.23069869821199318, 7.1812272591502495, 0
4706, 0.23069869821199365, 6.7114318023419575, 0
4707, 0.2306986982119939, 6.476534073937811, 0
4708, 0.230698698211994, 6.359085209735738, 0
4709, 0.18514604145535954, 6.300360777634702, 0
4710, 0.09436503296922555, 6.417809641836775, 0
4711, 0.12050323382674971, 6.269879465679663, 0
4712, 0.15493975613117067, 6.370821710687832, 0
4713, 0.052118787054812016, 6.268446049251891, 0
4714, 0.0848600473046298, 6.3383843105537405, 0
4715, -0.04626433462539777, 6.103014772542082, 0
4716, 0.2010076549522122, 6.417809641836775, 0
4717, 0.1476863439607189, 6.48163697408904, 0
4718, -0.05119967769025425, 6.0389744889212364, 0
4719, -0.015743856764821, 6.31709301195986, 0
4720, -0.010041556683630413, 6.1539357035254385, 0
4721, -0.09208932183361646, 6.197161639197324, 0
4722, 0.1476863439607189, 6.427451014060551, 0
4723, 0.2306986982119938, 6.5939829381398845, 0
4724, 0.027001695973641847, 6.385589739103599, 0
4725, -0.23069869821200195, 7.23619237311187, 0
4726, 0.03654041844086231, 6.318371949816146, 0
4727, -0.0901665019117431, 6.331946871165082, 0
4728, -0.03834097434850619, 6.272735658697659, 0
4729, 0.192645562757778, 6.535258506038848, 0
4730, -0.23069869821200073, 5.969447210788145, 0
4731, -0.09624785733399273, 6.136911670032679, 0
4732, -0.09023115972604016, 5.944992738305749, 0
4733, -0.10303677000179617, 6.076901147066805, 0
4734, 0.07573488571808762, 6.652707370240921, 0
4735, -0.2306986982120015, 6.775557768630515, 0
4736, 0.1468746027226714, 6.606609192864043, 0
4737, -0.23069869821200129, 6.545240466389838, 0
4738, -0.17362046956044014, 6.03879200834603, 0
4739, -0.1665080688995096, 5.922507919671378, 0
4740, -0.10193710322661463, 6.0240160699564615, 0
4741, -0.23069869821200095, 6.199764513028821, 0
4742, -0.23069869821200079, 6.027026536348314, 0
4743, -0.1479619577106622, 5.982001829916153, 0
4744, 2.7459786709004008e-05, 6.528515223772276, 0
4745, 0.1966812597702609, 6.652707370240921, 0
4746, 0.13620807274417426, 6.726952710432495, 0
4747, 0.13773183369688122, 6.66644329998385, 0
4748, 0.18051251657894973, 6.701288372150745, 0
4749, -0.04070480554791507, 6.195214338010076, 0
4750, -0.10716441939602123, 6.264783028880613, 0
4751, -0.1592531514820823, 6.313698566061352, 0
4752, -0.16484416921135217, 6.1142826099422045, 0
4753, -0.16104063558679668, 6.2172811262279, 0
4754, -0.2306986982120009, 6.142185187468652, 0
4755, -0.23069869821200117, 6.430081815269499, 0
4756, -0.19580140201946794, 6.266150845516612, 0
4757, -0.14356640917596086, 6.165066350576733, 0
4758, -0.19397850295752922, 6.37250248970933, 0
4759, -0.10992113925032934, 6.466607074834899, 0
4760, -0.16517627310012792, 6.431369091686653, 0
4761, -0.1317870022016977, 6.378552927897499, 0
4762, -0.17210252314020247, 6.503170406164694, 0
4763, -0.09340171137747173, 6.565856831474064, 0
4764, -0.23069869821200123, 6.487661140829669, 0
4765, -0.2306986982120014, 6.660399117510176, 0
4766, -0.12071673199180455, 6.519403575684552, 0
4767, -0.05887963757780597, 6.504545780905164, 0
4768, -0.11228916372002132, 6.7032872259884835, 0
4769, -0.04089734513217051, 6.427048847822352, 0
4770, -0.07710842221386145, 6.385495256698881, 0
4771, -0.06834943358900472, 5.9886128212237875, 0
4772, -0.23069869821200067, 5.911867885227975, 0
4773, -0.14252938399779436, 5.879847439845612, 0
4774, 0.032494779552431075, 6.460634602876741, 0
4775, 0.07237632008582029, 6.569583084788715, 0
4776, 0.129655096263318, 6.542414253544707, 0
4777, 0.07730284704407724, 6.506005953137711, 0
4778, -0.025039693726939236, 6.370480199870296, 0
4779, -0.017669782144017362, 6.473273303776571, 0
4780, 0.09866408719261521, 6.610150942762159, 0
4781, 0.0025921397844259064, 6.044940092043141, 0
4782, 0.2306986982119934, 6.9463295307461035, 0
4783, -0.016163384090572688, 6.623556812488259, 0
4784, 0.01833043499943772, 6.580533126529471, 0
4785, 0.006664819705342551, 6.770715792613461, 0
4786, 0.2306986982119935, 6.8288806665440305, 0
4787, 0.1927113854303681, 6.770156234442994, 0
4788, 0.0999929136104114, 6.871782130260432, 0
4789, 0.12440228944656424, 6.800943208987966, 0
4790, 0.16695377548946277, 6.8552303204234315, 0
4791, 0.23069869821199346, 6.887605098645067, 0
4792, 0.15096513590829108, 6.934269811723019, 0
4793, 0.05740693570533961, 6.817483133765003, 0
4794, -0.0026165526461521954, 7.008338241067353, 0
4795, 0.07205842763794303, 6.750675380885403, 0
4796, -0.032573893430770794, 6.864200444365362, 0
4797, 0.020667129288829418, 6.69969382427285, 0
4798, 0.09063753392928534, 6.70231961260742, 0
4799, 0.003962519659989424, 6.8245587870543805, 0
4800, -0.0690712207655278, 6.79390402249025, 0
4801, -0.04521356211028242, 6.723596435442921, 0
4802, -0.06377211000588547, 6.663969575145758, 0
4803, 0.09088651719134597, 6.931243644368728, 0
4804, 0.04427300881142514, 6.969267044431154, 0
4805, 0.2306986982119933, 7.0637783949481765, 0
4806, 0.027386303371137805, 6.900981524483347, 0
4807, -0.23069869821200173, 7.005875070871193, 0
4808, -0.06340066955363866, 7.013859156937516, 0
4809, 0.1810378160589593, 7.00505396284714, 0
4810, 0.10901923549135224, 7.001056671871952, 0
4811, 0.05054514654625887, 7.038321955300983, 0
4812, 0.13320761167768666, 7.103520765062903, 0
4813, 0.10324574268014498, 7.05650668569705, 0
4814, 0.050824882911224764, 7.122968596714, 0
4815, 0.17315907126842806, 7.062077017266779, 0
4816, 0.2001673199452866, 7.122502827049213, 0
4817, 0.23069869821199296, 7.4161249875543955, 0
4818, 0.15152777763816114, 7.1664879831133845, 0
4819, 0.09092381647302217, 7.168452379416727, 0
4820, -0.041928763664279944, 7.268205643047362, 0
4821, 0.010161224473269746, 7.199235754211135, 0
4822, 0.23069869821199307, 7.2986761233523225, 0
4823, -0.003220093646141682, 7.0715285429913495, 0
4824, -0.03410628165787282, 7.126659495360128, 0
4825, 0.2306986982119927, 7.6510227159585416, 0
4826, -0.06215440340315017, 7.198774480695211, 0
4827, 0.23069869821199285, 7.5335738517564685, 0
4828, -0.11521798096878627, 7.209037325932174, 0
4829, -0.039393728585220375, 6.940799904957501, 0
4830, 0.009448686248155432, 7.149881867824623, 0
4831, -0.164953438499716, 6.8752171444547505, 0
4832, -0.10054419539865378, 6.854867301396669, 0
4833, -0.10423021409241363, 6.922214239544907, 0
4834, -0.23069869821200162, 6.890716419750854, 0
4835, -0.23069869821200167, 6.9482957453110235, 0
4836, -0.1704621611954417, 6.741112969994078, 0
4837, -0.23069869821200145, 6.717978443070345, 0
4838, -0.17010690118091978, 6.678013729113447, 0
4839, -0.1162751743803308, 6.760802660027932, 0
4840, -0.1811035746464447, 6.602819791950007, 0
4841, -0.11265519010836754, 6.980885351724731, 0
4842, -0.20869860126910394, 7.0634543964313625, 0
4843, -0.15930505206315027, 7.026580824671904, 0
4844, -0.10703772638146211, 7.052750340700726, 0
4845, -0.09354003706306033, 7.1123691176148105, 0
4846, -0.23069869821200184, 7.121033721991532, 0
4847, -0.1220128274192451, 6.632579183984077, 0
4848, -0.15401234150637094, 7.094722718853457, 0
4849, -0.13823945860639253, 7.1531099815591395, 0
4850, -0.1777847299753101, 7.202089934957978, 0
4851, -0.2306986982120019, 7.178613047551702, 0
4852, 0.12346495520195622, 7.2365508719149005, 0
4853, 0.0447504616967843, 7.279515123443311, 0
4854, 0.06528696012382768, 7.222527257715706, 0
4855, 0.004626910262019349, 7.249211532216186, 0
4856, -0.23069869821200206, 7.351351024232208, 0
4857, -0.03244341226136878, 7.328986015154474, 0
4858, 0.02804762346785195, 7.340169043417059, 0
4859, 0.1319023790699827, 7.345597266956794, 0
4860, -0.013414320532196822, 7.387484897132494, 0
4861, 0.08598319041958596, 7.315646545684062, 0
4862, -0.09946227752593685, 7.390630296189154, 0
4863, 0.07664168621683304, 7.426897088767417, 0
4864, -0.2306986982120024, 7.696826977593226, 0
4865, 0.1701296466455025, 7.396509485111704, 0
4866, 0.19046500563738827, 7.341433232634018, 0
4867, 0.15729202249789076, 7.288783134058042, 0
4868, 0.18868610919130158, 7.231381642997351, 0
4869, -0.16307321428645366, 7.283018953074402, 0
4870, -0.23069869821200217, 7.4665096753525475, 0
4871, -0.08406793185485444, 7.305912183843674, 0
4872, 0.2306986982119929, 7.474849419655432, 0
4873, 0.07515120058108714, 7.370754469385267, 0
4874, 0.1370678987820501, 7.50421163570595, 0
4875, -0.04913338924801321, 7.588896329794667, 0
4876, -0.11420899393553884, 7.26215845501447, 0
4877, -0.13679093891865216, 7.3400894800946155, 0
4878, -0.230698698212002, 7.293771698672039, 0
4879, -0.05295514012442776, 7.484345571963722, 0
4880, -0.05505176852428666, 7.426988592091507, 0
4881, 0.1339948695207378, 7.444342674034862, 0
4882, 0.1608636367872439, 7.592298283857505, 0
4883, 0.011126364827110904, 7.454004072175222, 0
4884, 0.06711988187804824, 7.49660971016981, 0
4885, -0.23069869821200223, 7.524089000912717, 0
4886, 0.17705500761362988, 7.540666929066953, 0
4887, 0.2306986982119928, 7.592298283857505, 0
4888, -0.2306986982120025, 7.811985628713565, 0
4889, 0.0025695868085924348, 7.534661148882641, 0
4890, 0.07458843484477382, 7.583056470130818, 0
4891, 0.1211438768960655, 7.55577076882074, 0
4892, 0.23069869821199246, 7.885920444362688, 0
4893, 0.013228228890707648, 7.596584235534647, 0
4894, 0.05662298727378405, 7.647492396297426, 0
4895, 0.11518928649767857, 7.632069329937993, 0
4896, -0.027268184262930758, 7.668305223792147, 0
4897, 0.037464075946009284, 7.719232565399427, 0
4898, -0.13289395281906757, 7.6546744995521285, 0
4899, -0.04825341374848323, 7.761582253441684, 0
4900, -0.07722341581567592, 7.639345641008306, 0
4901, -0.08864929805671881, 7.70660481064624, 0
4902, -0.23069869821200228, 7.581668326472887, 0
4903, -0.23069869821200262, 7.927144279833903, 0
4904, -0.015501051599182039, 7.719951680115176, 0
4905, -0.16117948708329427, 7.723587182060214, 0
4906, -0.23069869821200245, 7.754406303153395, 0
4907, -0.1290594559573258, 7.463715642828633, 0
4908, -0.10113930840052032, 7.511407842741158, 0
4909, -0.12304010887958508, 7.581706084428786, 0
4910, -0.176879889272828, 7.611584972788656, 0
4911, -0.1863313445543835, 7.665228311349911, 0
4912, -0.16595933476361857, 7.517336368059078, 0
4913, 0.0649279762315485, 7.882743301090978, 0
4914, -0.18142351204861734, 7.408930349792378, 0
4915, 0.026578676176023303, 7.805122759257933, 0
4916, 0.1677740375203713, 7.673053767309677, 0
4917, -0.0825295771957566, 7.907312638694124, 0
4918, 0.09678230815008629, 7.818721588796015, 0
4919, 0.07037472192926861, 7.767038420973377, 0
4920, 0.10927234399034497, 7.705029257937826, 0
4921, 0.14781872956009767, 7.884050521921654, 0
4922, 0.23069869821199257, 7.768471580160615, 0
4923, 0.23069869821199263, 7.709747148059578, 0
4924, 0.1673532773369251, 7.741788440239434, 0
4925, 0.23069869821199251, 7.827196012261651, 0
4926, -0.04355493941064148, 7.83958346051947, 0
4927, -0.09275745322016773, 7.856348492372891, 0
4928, 0.16400323766309016, 7.8188069601678105, 0
4929, 0.010639575316938186, 7.861281372984675, 0
4930, 0.002313803715163029, 7.961734381303171, 0
4931, -0.13781079053281253, 7.830422627773694, 0
4932, 0.23069869821199235, 8.00336930856476, 0
4933, -0.17647333025557074, 7.782905991070595, 0
4934, -0.11313484638054153, 7.76760523661039, 0
4935, 0.10487012811972354, 7.978716257089776, 0
4936, 0.18791268974770353, 7.944644876463724, 0
4937, 0.16476381523308453, 8.006459840593532, 0
4938, 0.13570283045659265, 7.935629173478554, 0
4939, 0.20041138651401424, 8.062093740665796, 0
4940, 0.2306986982119913, 9.060409086383416, 0
4941, 0.09469645020980813, 8.079201443943257, 0
4942, 0.11715481793889494, 8.03071764048432, 0
4943, 0.042188531393794144, 8.025435635509586, 0
4944, 0.15590030800967347, 8.122223074744987, 0
4945, 0.016940886950216075, 8.102615226649108, 0
4946, 0.14952730682362017, 8.070965969265409, 0
4947, 0.23069869821199177, 8.590613629575124, 0
4948, 0.23069869821199201, 8.355715901170978, 0
4949, 0.23069869821199213, 8.238267036968907, 0
4950, 0.19438930191292056, 8.17954260486787, 0
4951, -0.23069869821200303, 8.387778884315257, 0
4952, 0.09837637747143205, 8.202431405038643, 0
4953, 0.14211033042709287, 8.173064872461236, 0
4954, 0.07107595405326103, 8.141576731799596, 0
4955, -0.07045787195286628, 8.236467845902164, 0
4956, 0.013042026766639547, 8.165122237997313, 0
4957, -0.10780114058805229, 8.128609423139997, 0
4958, -0.042371385719769256, 8.130290738461065, 0
4959, -0.07258418940677352, 8.03207984341191, 0
4960, -0.032724552531958745, 8.073570406353214, 0
4961, -0.015853188957549637, 8.017436985235017, 0
4962, -0.02373844108572047, 7.909003579059484, 0
4963, -0.15844181565802046, 7.903573238596338, 0
4964, -0.12383248656958416, 7.97338494130653, 0
4965, -0.20950873236525194, 7.869564954273734, 0
4966, -0.060827203890834465, 7.96682488134292, 0
4967, -0.18659455732332098, 7.9933781755070665, 0
4968, -0.2306986982120027, 8.042302930954241, 0
4969, 0.05829874155221389, 7.941800331582338, 0
4970, 0.15116097531977263, 8.269741898098983, 0
4971, 0.10099553469100983, 8.254729446583605, 0
4972, 0.039232501573113046, 8.241986071088894, 0
4973, -0.1128849616143289, 8.19076336401127, 0
4974, 0.2079407575534608, 8.296991469069942, 0
4975, -0.23069869821200326, 8.618096186555935, 0
4976, 0.12041443008884464, 8.312511392032684, 0
4977, -0.15089509078693106, 8.048734792348341, 0
4978, -0.10434389128847821, 8.075181831916499, 0
4979, -0.19517837338186722, 8.09988225651441, 0
4980, -0.16579430679018498, 8.157754898504388, 0
4981, -0.23069869821200292, 8.272620233194917, 0
4982, -0.2306986982120037, 9.078730791037291, 0
4983, -0.14801249819252776, 8.265916561310775, 0
4984, -0.039843127437802446, 8.187762866542494, 0
4985, -0.19850605265742413, 8.21504090763475, 0
4986, -0.04273026149066818, 8.42633615878196, 0
4987, -0.18441568665554364, 8.330199558755087, 0
4988, -0.08886847884372967, 8.341858552540932, 0
4989, -0.14552784552592843, 8.408849218189273, 0
4990, -0.13421959544542583, 8.316176407801338, 0
4991, -0.09074916821195983, 8.39772391607581, 0
4992, -0.23069869821200314, 8.502937535435596, 0
4993, -0.1997514802201927, 8.445358209875426, 0
4994, -0.11125566088025235, 8.518272041241792, 0
4995, -0.10724245102763014, 8.456936483407986, 0
4996, -0.16945496300243237, 8.498747988403077, 0
4997, -0.16341112712700978, 8.577237156914727, 0
4998, -0.2306986982120032, 8.560516860995765, 0
4999, 0.021510305537465274, 8.688254064149747, 0
5000, -0.060647633920907426, 8.615584222169073, 0
5001, -0.10465793654270024, 8.576656496399274, 0
5002, -0.08590981390556302, 8.729881991823419, 0
5003, -0.13354009270470418, 8.62697584649386, 0
5004, 0.013345021742419, 8.340871922097628, 0
5005, 0.05998596407295228, 8.300665662484427, 0
5006, -0.037498449700177766, 8.36864054908393, 0
5007, -0.03819569325073154, 8.296407116042312, 0
5008, -0.09041385169823282, 8.285861265567933, 0
5009, -0.015942203366210474, 8.245777066659397, 0
5010, 0.10228468011394193, 8.46035585480281, 0
5011, 0.03599095196288536, 8.416858835150268, 0
5012, 0.07872823284670709, 8.365110309140984, 0
5013, 0.2306986982119919, 8.47316476537305, 0
5014, 0.010825490372937743, 8.527481053943335, 0
5015, -0.045867318572935925, 8.55453201864197, 0
5016, -0.05192847652910431, 8.490247384070427, 0
5017, 0.0038589275165946332, 8.467722673430199, 0
5018, 0.16911443892650357, 8.33259331625979, 0
5019, 0.23069869821199196, 8.414440333272015, 0
5020, 0.16878165648033902, 8.443802549322532, 0
5021, 0.1649299010762727, 8.531889197474086, 0
5022, 0.12369527661424848, 8.404524711849032, 0
5023, 0.18034966580209144, 8.388232050986716, 0
5024, 0.23069869821199185, 8.531889197474086, 0
5025, 0.022387348724649897, 8.821365304863853, 0
5026, 0.16835228623342402, 8.59424758077378, 0
5027, 0.087687425687897, 8.536336781145263, 0
5028, 0.11279321181565702, 8.586501612264424, 0
5029, 0.058326311116584276, 8.629460461401381, 0
5030, -0.0023140864831799023, 8.632411731114464, 0
5031, 0.02565494016699042, 8.582626037251131, 0
5032, 0.05506553596774939, 8.490676893941664, 0
5033, -3.6805182473465807, -4.968827886077146, 0
5034, -3.4861729442583003, -4.891566102077162, 0
5035, -3.232603357886564, -4.826940832376156, 0
5036, -2.9942384476183705, -4.77151876806566, 0
5037, -2.8714443346785177, -4.74772937695737, 0
5038, -1.9892245612457335, -4.626926976020455, 0
5039, -2.1952853527087237, -4.6475381454377604, 0
5040, -2.941166578304631, 4.7446719035878715, 0
5041, -3.382825029562849, 4.856987745205023, 0
5042, -3.1676387728454394, 4.795656134026385, 0
5043, -2.1952853527087237, 4.6475381454377604, 0
5044, -1.9534117699255888, 4.605765518240634, 0
5045, -3.684332121376889, 4.968620081362188, 0
5046, 2.1046240699313574, -4.648237445683032, 0
5047, 4.629035374482128, 2.07154138463746, 0
5048, 4.6475381454377604, 2.1952853527087237, 0
5049, 4.601536549877195, 1.8805054179742566, 0
5050, -2.6302138098297423, -0.5186939817425966, 0
5051, -2.6265167489835823, -0.5756919380773328, 0
5052, -2.5797142053149877, -0.49153289162959796, 0
5053, -2.639905422566684, -0.4647988904418889, 0
5054, -2.6829271083018194, -0.5348084417264807, 0
5055, -2.5713776707892553, -0.3607302541258397, 0
5056, -2.5521548969151717, -0.4071666843445656, 0
5057, -2.5385084197665555, -0.3160161949351185, 0
5058, -2.6109348465301228, -0.3899195131917357, 0
5059, 0.5158113013148633, -2.628922599280408, 0
5060, 0.49020761473223173, -2.578797380787053, 0
5061, 0.46315691781871304, -2.6397202722677098, 0
5062, 0.5340448743020195, -2.681737972902412, 0
5063, 0.5735189396188412, -2.6264508686760917, 0
5064, 0.3607302541258398, -2.5713776707892553, 0
5065, 0.4071666843445659, -2.5521548969151717, 0
5066, 0.31601619493511846, -2.5385084197665555, 0
5067, 0.38991951319173557, -2.610934846530123, 0
5068, 2.567295730501538, 0.34082305613763186, 0
5069, 2.6041232433089236, 0.38180564680656326, 0
5070, 2.628922599280408, 0.5158113013148635, 0
5071, 2.578797380787053, 0.49020761473223196, 0
5072, 2.6397202722677093, 0.4631569178187133, 0
5073, 2.6817379729024116, 0.5340448743020201, 0
5074, 2.6264508686760917, 0.5735189396188414, 0
5075, 0.46558273372001036, 2.6060955372244945, 0
5076, 0.4877577662892243, 2.6561729759316957, 0
5077, 0.4164070219081452, 2.6196313508865887, 0
5078, 0.43793107579564805, 2.560854817904623, 0
5079, 0.518208427312402, 2.592094196758139, 0
5080, -3.873588787608408, -5.091308307246565, 0
5081, -3.9195031902806186, -5.129456149440181, 0
5082, -3.842293015437805, -5.159657207635684, 0
5083, -3.781557684046226, -5.0229680078105, 0
5084, -3.9206863801718694, -5.032587618089697, 0
5085, -3.8513013395253313, -5.025184484706114, 0
5086, -3.8182831348092945, -4.965750149651537, 0
5087, -3.8908036473047845, -4.983806855757774, 0
5088, -3.7492792907859664, -4.9618549275952155, 0
5089, -3.8266323961254636, -4.9066054826069685, 0
5090, -3.7088049080730308, -4.905249231964383, 0
5091, -3.8124563106678395, -5.077495506214064, 0
5092, -3.75270687730328, -5.090846840312073, 0
5093, -1.66709689967625, -4.5830248698856, 0
5094, -1.6448145205766387, -4.644189379250729, 0
5095, -1.7379132385584826, -4.602993718509108, 0
5096, -1.8456246069681659, -4.568260652061235, 0
5097, -1.8032451811212002, -4.519356418979349, 0
5098, -1.7466729367933889, -4.6779593242868795, 0
5099, -1.7883636805713594, -4.575067124404472, 0
5100, -1.8241237692513481, -4.631643410568455, 0
5101, -1.8631940777634262, -4.501650971372037, 0
5102, -1.9065305955265968, -4.624259474277652, 0
5103, -1.8607508923234901, -4.682452706631824, 0
5104, -1.7745762049414278, -4.63670425327058, 0
5105, -1.9138402634823692, -4.555188265888932, 0
5106, -1.9717217776187752, -4.528505106715797, 0
5107, -2.0158502414508286, -4.571424784747306, 0
5108, -2.084453611842595, -4.559711924100118, 0
5109, -1.9609196716863595, -4.581193323832019, 0
5110, -2.1395478106722376, -4.604030966200936, 0
5111, -2.205163166101002, -4.577310139470772, 0
5112, -2.1214923651384794, -4.684618591844219, 0
5113, -1.9464095880005368, -4.671101703991743, 0
5114, -1.9688525175297467, -4.732201300213175, 0
5115, -2.063168516182379, -4.637866914204837, 0
5116, -2.0891736820493545, -4.75267333110332, 0
5117, -2.008349549338356, -4.6852362255954345, 0
5118, -2.0649974895955934, -4.698947183988936, 0
5119, -2.1789218769975878, -4.706940680030244, 0
5120, -2.259512272756829, -4.697185654472863, 0
5121, -2.215649096003247, -4.7687127239447955, 0
5122, -2.264699589025306, -4.624107435164767, 0
5123, -2.3314638683416145, -4.593094818081067, 0
5124, -2.407486800587945, -4.6760432002003665, 0
5125, -2.3838328809275797, -4.621410189714978, 0
5126, -2.460148054461255, -4.610758226355164, 0
5127, -2.332022820000455, -4.676278992790883, 0
5128, -2.5435131097963084, -4.689311625755524, 0
5129, -2.3461138057845212, -4.782050492378755, 0
5130, -2.3178525045560723, -4.7319911339551854, 0
5131, -2.3791371381504827, -4.73039975850126, 0
5132, -2.476011239342818, -4.6774357891178875, 0
5133, -2.518302576611616, -4.634830339095281, 0
5134, -2.5884314393245833, -4.616772380408495, 0
5135, -2.476237904179369, -4.796148663687501, 0
5136, -2.4402753580288756, -4.727715234235932, 0
5137, -2.6623611755221375, -4.705929223394294, 0
5138, -2.640067872082954, -4.649184995345617, 0
5139, -2.712713622393665, -4.637074976725447, 0
5140, -2.6030993561089453, -4.696460283671674, 0
5141, -2.6038564375808884, -4.812738251512187, 0
5142, -2.514896232182356, -4.74589169175001, 0
5143, -2.7828761594849976, -4.705603369202011, 0
5144, -2.6242187922611606, -4.754464224402556, 0
5145, -2.5702563971174786, -4.741265319408427, 0
5146, -2.7616754272290587, -4.657127638049808, 0
5147, -2.834852168034992, -4.655123239269251, 0
5148, -2.88750711346557, -4.687849829929953, 0
5149, -2.955008383572426, -4.672038486747804, 0
5150, -2.8359290901468817, -4.708230246083118, 0
5151, -3.0041691051268145, -4.710127280252862, 0
5152, -3.0715882180857927, -4.696577763786571, 0
5153, -3.135269974495868, -4.782541339657366, 0
5154, -3.1180172830858797, -4.728752633227288, 0
5155, -3.18560543099556, -4.722965709132262, 0
5156, -3.064877032356377, -4.7754585807054255, 0
5157, -3.233200668599462, -4.7640614834121, 0
5158, -3.08927492125366, -4.904010767970314, 0
5159, -3.026601968639854, -4.826483962204714, 0
5160, -3.2974971447085264, -4.749887062747146, 0
5161, -3.1883446179644075, -4.795077893181989, 0
5162, -3.175826935874221, -4.859135333094048, 0
5163, -2.9716786478254624, -4.877455514081875, 0
5164, -2.953246283740701, -4.81815975466615, 0
5165, -2.892445696852556, -4.806057136400543, 0
5166, -2.8515768094039347, -4.853391676709373, 0
5167, -2.9330614089395066, -4.758488402861059, 0
5168, -2.8311719168116785, -4.794855994554738, 0
5169, -3.3575422564037387, -4.85812836423828, 0
5170, -3.2315344661675254, -4.891216907265659, 0
5171, -3.342451178563879, -4.795724717516143, 0
5172, -3.2906996040919143, -4.860053880528039, 0
5173, -3.4060680117844657, -4.781867933901584, 0
5174, -3.2839669105231297, -4.8043453375128395, 0
5175, -3.450728024134106, -4.833352447948066, 0
5176, -3.512205880001499, -4.8156516065403565, 0
5177, -3.416922031353236, -4.893833733848198, 0
5178, -3.453514342841197, -4.952765449101864, 0
5179, -3.360706514113121, -4.92009446792306, 0
5180, -3.316950773130067, -4.964595525295012, 0
5181, -3.0933087843540816, -4.836653853672742, 0
5182, -5.091308307246564, 3.873588787608408, 0
5183, -5.1294561494401805, 3.9195031902806186, 0
5184, -5.159657207635684, 3.842293015437805, 0
5185, -5.058895351534042, 3.8019163216459924, 0
5186, -5.092712527992211, 3.7519196197405402, 0
5187, -4.9880723660234745, 3.8284302101594774, 0
5188, -5.044495564271281, 3.727422949017887, 0
5189, -4.945030045302747, 3.785218287889581, 0
5190, -4.996839478846343, 3.9005133438489414, 0
5191, -5.040673903262291, 3.9391854014699477, 0
5192, -5.036124817534808, 3.8591605466151404, 0
5193, -3.88335775400262, 5.031421516185827, 0
5194, -3.942177754839872, 5.0276689909128764, 0
5195, -3.8846574692444804, 5.107008148220063, 0
5196, -3.9102689176697556, 4.977174307251453, 0
5197, -3.8218437631174003, 5.070283742130822, 0
5198, -3.8112574407473194, 4.985411383494881, 0
5199, -3.756592828727928, 5.081637691944738, 0
5200, -3.712812686548528, 5.030019975091158, 0
5201, -3.6467085249802222, 5.023377278096435, 0
5202, -3.770195721961573, 5.025725080016951, 0
5203, -3.5679866472908772, 4.928983421908667, 0
5204, -3.5915671460091367, 4.9893408026812125, 0
5205, -3.6292091182069592, 4.939849868752479, 0
5206, -3.682095032787754, 4.905714037211546, 0
5207, -3.6101078406278977, 4.869568579387799, 0
5208, -3.530539534158485, 4.97839822804849, 0
5209, -3.473983661379679, 4.896643200441762, 0
5210, -3.474614521873121, 4.956646198669148, 0
5211, -3.4137036066295563, 4.927281789345878, 0
5212, -3.4270303515782743, 4.9986250287312695, 0
5213, -3.7389062973375573, 4.935186493656599, 0
5214, -3.727916615201118, 4.863691463779477, 0
5215, -3.8422930154378045, 5.159657207635684, 0
5216, -3.817129342606042, 4.9275092508910445, 0
5217, -3.5375810278486135, 4.864574257968527, 0
5218, -3.5146714743700884, 4.8084617008556405, 0
5219, -3.4474298286099954, 4.833080329645055, 0
5220, -3.405865403770217, 4.782522749865118, 0
5221, -1.6670968996762499, 4.583024869885601, 0
5222, -1.6229722799502646, 4.557194377896585, 0
5223, -1.644814520576638, 4.644189379250729, 0
5224, -1.7379132385584837, 4.602993718509109, 0
5225, -1.7466729367933886, 4.6779593242868795, 0
5226, -1.8456246069681645, 4.568260652061231, 0
5227, -1.8130791571057283, 4.516648574672799, 0
5228, -1.7865504986861578, 4.569444231812372, 0
5229, -1.8722331512577743, 4.515414620635064, 0
5230, -1.7934838694506874, 4.63152553104159, 0
5231, -1.9068427104197645, 4.565962764915143, 0
5232, -1.8546856024444254, 4.707296631274362, 0
5233, -1.9700855417137788, 4.5391130912924424, 0
5234, -1.6834240313544406, 4.529564392996272, 0
5235, -1.8979538882289941, 4.650604654512609, 0
5236, -1.8433898475064083, 4.653817981949841, 0
5237, 4.5830248698856, -1.6670968996762505, 0
5238, 4.644189379250729, -1.6448145205766391, 0
5239, 4.5794315416488205, -1.6160941117667633, 0
5240, 4.602993718509108, -1.7379132385584828, 0
5241, 4.5677494490465085, -1.8189294199882944, 0
5242, 4.5116806298566265, -1.8022668801363584, 0
5243, 4.500874466874572, -1.8634221827320416, 0
5244, 4.6779593242868795, -1.7466729367933895, 0
5245, 4.631999770348395, -1.8170377262597541, 0
5246, 4.555122267661603, -1.8724548005597992, 0
5247, 4.583024869885601, 1.6670968996762499, 0
5248, 4.557194377896585, 1.6229722799502646, 0
5249, 4.644189379250729, 1.644814520576638, 0
5250, 4.602993718509109, 1.7379132385584837, 0
5251, 4.6779593242868795, 1.7466729367933886, 0
5252, 4.567556520643093, 1.808854636283054, 0
5253, 4.510502856556742, 1.8019743884372315, 0
5254, 4.5313156976733415, 1.8693818950696508, 0
5255, 4.471263815525205, 1.8721205698228787, 0
5256, 4.630009856742441, 1.7957301807045931, 0
5257, -4.3330154564947225, -5.25968563591334, 0
5258, -4.56978270685945, -2.463897574850929, 0
5259, -4.61690718182932, -2.4857236349996232, 0
5260, 1.9598259105959823, -4.57870058434892, 0
5261, 1.9304297310662535, -4.648174544734943, 0
5262, 1.975133043633547, -4.699746130257224, 0
5263, 2.040298089599251, -4.675046478756002, 0
5264, 2.0939280829355917, -4.7205362695622535, 0
5265, 2.0440316460683507, -4.593427969276707, 0
5266, 1.9124008463124997, -4.5995899587185605, 0
5267, 1.9922677230303314, -4.633383642473322, 0
5268, 2.1078994106433795, -4.583719020561287, 0
5269, 2.200104976916201, -4.620742276461692, 0
5270, 2.091254967730409, -4.523196654508838, 0
5271, 2.1607092124168563, -4.585526973040681, 0
5272, 2.2100530226078563, -4.542544867208226, 0
5273, 2.0069965854400293, -4.557088431688774, 0
5274, 1.903806025378823, -4.541576475010969, 0
5275, 2.1679589189138455, -4.688643629441106, 0
5276, 2.2188093849797945, -4.7390938804616525, 0
5277, 2.3044285982760377, -4.664908698917631, 0
5278, 2.273979657688308, -4.716267083502929, 0
5279, 2.35042376351886, -4.7379944385566395, 0
5280, 2.243514194004244, -4.663499615432434, 0
5281, 2.2751861093199737, -4.611692343298895, 0
5282, 2.335004981434424, -4.557480942045994, 0
5283, 2.4398817151117003, -4.669102948309179, 0
5284, 2.3608244806629752, -4.6228950043216, 0
5285, 2.3601552002206883, -4.680854162739148, 0
5286, 2.4170695352495373, -4.6173988008121025, 0
5287, 2.463897574850929, -4.569782706859451, 0
5288, 2.532299484607651, -4.7050222480340915, 0
5289, 2.491194378994926, -4.628946801450875, 0
5290, 2.412101989060024, -4.725557872763388, 0
5291, 2.479384679242958, -4.757338544295254, 0
5292, 2.4793557015349337, -4.704391006178514, 0
5293, 2.6130026484584876, -4.747935974043623, 0
5294, 2.5587984127610865, -4.752530286061061, 0
5295, 2.6038564375808875, -4.8127382515121875, 0
5296, 2.730679201276007, -4.718343511353854, 0
5297, 2.6071012220172634, -4.6616924611425, 0
5298, 2.5923042641390057, -4.583005817323212, 0
5299, 2.5527598407069005, -4.632534420050744, 0
5300, 2.663793064344049, -4.701136847439412, 0
5301, 2.672193039999566, -4.761213835181571, 0
5302, 2.734686352657915, -4.796983220570958, 0
5303, 2.7140323884627975, -4.644449390832304, 0
5304, 2.583194070369629, -4.706652033662428, 0
5305, 2.659258997212728, -4.6449606860283605, 0
5306, -0.1782878334597091, -2.916426479745629, 0
5307, -0.16880266633568947, -2.9783942621284614, 0
5308, -2.916426479745638, 0.17828783345970275, 0
5309, -2.9783942621284747, 0.16880266633568727, 0
5310, 2.9164264797455166, -0.17828783345978239, 0
5311, 2.9783942621283312, -0.1688026663356726, 0
5312, -0.1940706604132869, 2.9177429560991683, 0
5313, -0.20075476250082716, -3.814964927703669, 0
5314, -3.814964927703669, 0.2007547625009903, 0
5315, 3.814964927703669, -0.20075476249851915, 0
5316, 4.675476553552194, 2.954353188577141, 0
5317, 4.721068086781053, 2.824026909654487, 0
5318, 4.7012744708039795, 2.8902402797498237, 0
5319, 2.9543497172166857, -4.675494769150958, 0
5320, 2.8637599041142274, -4.788597808958113, 0
5321, 2.7980924755539425, -4.775386792294498, 0
5322, 2.8474793199392883, -4.699712373478363, 0
5323, 2.9045462669829445, -4.703630193502477, 0
5324, 2.914363694057928, -4.809926342785884, 0
5325, 2.7902408330487423, -4.716309934523222, 0
5326, 2.8049704569874807, -4.660111296793418, 0
5327, 2.7557838436225497, -4.673865804995976, 0
5328, 2.8515768094039338, -4.853391676709374, 0
5329, 0.06936141103595989, -5.197003447462779, 0
5330, -5.1970034462981, -0.06936141432259875, 0
5331, 5.197003448032758, 0.06936140659633616, 0
5332, 0.23069869821199962, -5.278495304066112, 0
5333, -5.278495304066112, -0.2306986982119999, 0
5334, 5.278495304066112, 0.23069869821199948, 0
5335, 0.19895577725790667, 3.814964927703669, 0
5336, 0.20000291336035675, 4.9436493080897135, 0
5337, -0.09147380951235581, 8.657241502892244, 0
5338, 0.01096168711324923, 8.918857518586996, 0
5339, -0.23069869821200348, 8.848413488796613, 0
5340, -0.013803503453427839, 8.740287695656063, 0
5341, -0.06475990359166019, 8.838356858940628, 0
5342, -0.23069869821200337, 8.733254837676274, 0
5343, 0.12376963614166842, 8.722815801997648, 0
5344, 0.20284242599971442, 8.64933806167616, 0
5345, -0.05640010079556742, 8.78042761691832, 0
5346, 0.23069869821199152, 8.82551135797927, 0
5347, -0.14354735311187794, 8.797419170995095, 0
5348, 0.23069869821199163, 8.708062493777197, 0
5349, 0.13176168295378982, 8.65357323655145, 0
5350, 0.07994489371852741, 8.683921537155783, 0
5351, 0.05771986324441583, 8.753101201299996, 0
5352, 0.1749052128199906, 8.698559347014271, 0
5353, 0.19199026680742085, 8.766786925878232, 0
5354, 0.12596606448685074, 8.85242664890885, 0
5355, 0.11360382024438063, 8.787812109438008, 0
5356, 0.17370420595312058, 8.820959872505641, 0
5357, 0.2306986982119914, 8.942960222181343, 0
5358, 0.1849769345336127, 8.890006767166145, 0
5359, 0.076737908484201, 8.828355264643077, 0
5360, 0.07429184304860031, 8.895731395358935, 0
5361, 0.1341465361724851, 8.980110982200461, 0
5362, 0.17574862165943875, 8.944190366244122, 0
5363, 0.20452452953893036, 9.001684654282379, 0
5364, 0.06418165193923682, 8.966321831878991, 0
5365, 0.12994271272448918, 8.90965486331828, 0
5366, 0.23069869821199082, 9.530204543191708, 0
5367, -0.06842474107742247, 9.061439498452904, 0
5368, 0.0812309235493843, 9.064207669675188, 0
5369, -0.012769770061248163, 8.999035654502807, 0
5370, 0.09152285076125337, 9.011987374796375, 0
5371, 0.15586970097955608, 9.058565965614303, 0
5372, 0.006233291347753994, 9.072003476883388, 0
5373, -0.1529698963504816, 9.038100357144064, 0
5374, 0.03695070869960716, 9.02504531670518, 0
5375, -0.05878728362523572, 8.941814064485827, 0
5376, -0.07357829969736605, 9.000823377947128, 0
5377, -0.2306986982120036, 8.963572139916952, 0
5378, -0.10041870709802482, 8.892316457371928, 0
5379, -0.037619378524895636, 8.888691030590513, 0
5380, -0.23069869821200392, 9.30904809327797, 0
5381, 0.23069869821199107, 9.295306814787562, 0
5382, -0.23069869821200364, 9.021151465477121, 0
5383, -0.14120365919605557, 8.959978172701065, 0
5384, -0.11033547543655617, 9.231217095450049, 0
5385, 0.23069869821199118, 9.177857950585489, 0
5386, -0.18395405385530184, 8.99348656415374, 0
5387, -0.17362808381681716, 8.894310481558295, 0
5388, -0.17704891517582613, 8.840133390882324, 0
5389, -0.23069869821200342, 8.790834163236443, 0
5390, -0.23069869821200353, 8.905992814356782, 0
5391, -0.03694974251381382, 9.108093158609265, 0
5392, 0.0721909277746354, 9.115297214302107, 0
5393, -0.23069869821200412, 9.539365395518645, 0
5394, 0.12330009361941985, 9.124225610599522, 0
5395, 0.039228434971400564, 9.155363873284234, 0
5396, -0.18697599717324082, 8.675675512116104, 0
5397, -0.13333337069346068, 8.696981127399525, 0
5398, -0.11755742638479216, 9.088063984955436, 0
5399, -0.09227871651266871, 9.158547421691791, 0
5400, -0.02607418382602982, 9.175583937570261, 0
5401, 0.05780166882241769, 9.330908434892187, 0
5402, 0.031191704066014417, 9.244969025396776, 0
5403, -0.2306986982120038, 9.19388944215763, 0
5404, -0.16911959525563003, 9.146331420695107, 0
5405, -0.1695467221022914, 9.209424322435549, 0
5406, -0.16271513740580185, 9.282198067018173, 0
5407, -0.23069869821200387, 9.2514687677178, 0
5408, -0.05903322573981256, 9.33632569886766, 0
5409, -0.10197172587635009, 9.292209157863477, 0
5410, -0.0409988474454233, 9.252778553583626, 0
5411, -0.23069869821200403, 9.424206744398308, 0
5412, 0.000786574329644827, 9.301472969554508, 0
5413, -0.14713206346258537, 9.37693528729751, 0
5414, -0.18156988336532986, 9.333949653521339, 0
5415, -0.23069869821200376, 9.13631011659746, 0
5416, -0.17527620310838424, 9.090092341918181, 0
5417, -0.17130901678020238, 8.743857592422827, 0
5418, 0.10597537271693541, 9.206513424774773, 0
5419, 0.0564101292927347, 9.202067893303994, 0
5420, 0.16459234348336904, 9.175886866946904, 0
5421, 0.1993671130064311, 9.119133518484452, 0
5422, 0.1958651571725409, 9.236582382686525, 0
5423, 0.14310964209088917, 9.307568657120818, 0
5424, 0.09101417299401347, 9.269361533145307, 0
5425, 0.14197539551778515, 9.248288184758415, 0
5426, -0.0150555624321497, 9.547597304790527, 0
5427, -0.14297415132818803, 9.481786069958478, 0
5428, 0.23069869821199096, 9.412755678989635, 0
5429, -0.20573295287844204, 9.481786069958478, 0
5430, -0.17202479125922687, 9.43043025473202, 0
5431, -0.07091255637408514, 9.426420596647498, 0
5432, 0.13490072890603766, 9.806498564392708, 0
5433, 0.12561509725625253, 9.411197475929251, 0
5434, 0.1942668860818237, 9.354031246888598, 0
5435, 0.17826596638433764, 9.40462110062368, 0
5436, 0.1947406278377345, 9.47148011109067, 0
5437, 0.14161601695373888, 9.360607622194168, 0
5438, 0.23069869821199057, 9.765102271595854, 0
5439, 0.1653384626182866, 9.529854724156882, 0
5440, 0.23069869821199068, 9.647653407393781, 0
5441, 0.19770334117755528, 9.588928975292744, 0
5442, 0.06535884721164772, 9.701920788891554, 0
5443, 0.09741803145389037, 9.605469102268342, 0
5444, 0.14465622060124458, 9.579588820661424, 0
5445, 0.08419186892839862, 9.52527686388461, 0
5446, 0.04285435067829381, 9.573281509327071, 0
5447, 0.04025818480318902, 9.64002382738535, 0
5448, -0.0100504654610462, 9.759282293623675, 0
5449, -0.0009794391367217992, 9.692784579223504, 0
5450, -0.12263619612973245, 9.710056798797613, 0
5451, -7.105427357601002e-15, 10.0, 0
5452, -0.23069869821200434, 9.769682697759322, 0
5453, 0.056423746249614284, 9.768523977261937, 0
5454, 0.015843121444468387, 9.816724098860151, 0
5455, 0.14315765897701693, 9.746258765424734, 0
5456, -0.05935616350386416, 9.718688897613807, 0
5457, 0.007166748372514353, 9.879132106214774, 0
5458, -0.03601453746517553, 9.622905296565731, 0
5459, -0.10619974221504119, 9.825826846251383, 0
5460, -0.0838497788279505, 9.661984142126094, 0
5461, -0.23069869821200423, 9.654524046638983, 0
5462, 0.07930059599108949, 9.857353502788907, 0
5463, -0.09798533214627755, 9.765608798680102, 0
5464, -0.16373842387397225, 9.787308639292675, 0
5465, -0.04601545761927926, 9.810051625364364, 0
5466, -0.23069869821200445, 9.884841348879661, 0
5467, -0.2306986982120044, 9.827262023319491, 0
5468, -0.1681033188468811, 9.856063822584067, 0
5469, -0.05767467455300648, 9.964411150145741, 0
5470, -0.060993158020154196, 9.875602572451488, 0
5471, -0.1730240236590052, 9.971210337219915, 0
5472, -0.11534934910600583, 10.0, 0
5473, 0.12764629297860897, 9.476495284046754, 0
5474, -0.10407106646121989, 9.563393933744306, 0
5475, 0.0855640393018826, 9.808379861925715, 0
5476, 0.005420948973987203, 9.939675010380547, 0
5477, 0.11534934910599162, 10.0, 0
5478, -0.2306986982120045, 9.94242067443983, 0
5479, -0.05577647734902982, 9.576834805869193, 0
5480, 0.23069869821199046, 9.882551135797927, 0
5481, 0.05767467455299226, 9.974776720693399, 0
5482, 0.06022054580758863, 9.914542555721393, 0
5483, 0.1479933833686351, 9.91204893338575, 0
5484, 0.13306533779342522, 9.86031343205781, 0
5485, 0.20503041830301558, 9.941275567898963, 0
5486, 0.173024023658991, 10.0, 0
5487, 0.10504006721750882, 9.946139958509772, 0
5488, -0.09340548885275668, 9.377624209267932, 0
5489, 0.002008016270869939, 9.390204817074471, 0
5490, 0.0561114882006139, 9.446039995908091, 0
5491, 0.05961660215649635, 9.388513265686425, 0
5492, 0.02661784413550141, 9.501086180595294, 0
5493, -0.0382968762046105, 9.484848370789619, 0
5494, -0.09041039271149764, 9.475622006905663, 0
5495, 0.0007364994874204409, 9.445567224293228, 0
5496, 0.13434514542640147, 9.67129700996012, 0
5497, 0.17747901196305813, 9.63892409851288, 0
5498, 0.194223746328547, 9.703433032429238, 0
5499, -0.1565018367386229, 9.643049682171169, 0
5500, -0.20161752906166222, 9.596944721078815, 0
5501, -0.16575295538289211, 9.54269729339836, 0
5502, -0.11069020611375231, 9.616120390491655, 0
5503, 0.19923166162979883, 9.82382670369689, 0
5504, -3.6551356425815054, -5.034283425101401, 0
5505, -3.7176531546713614, -5.020877457942379, 0
5506, -3.594672453357931, -4.907636971803416, 0
5507, -3.651495858582719, -4.894836357456292, 0
5508, -3.611717320747487, -4.850777970501955, 0
5509, -3.55122591598871, -4.863628509161055, 0
5510, -3.608779878707807, -4.978658153442604, 0
5511, -3.532336884624202, -4.955986148291171, 0
5512, -3.559246440461275, -5.005462520402423, 0
5513, -2.9544341302629142, 4.675051820572009, 0
5514, -2.8244169245315955, 4.7186922107793725, 0
5515, -2.8900944057981515, 4.698864795764168, 0
5516, -2.9716786478254624, 4.877455514081875, 0
5517, -3.019987368949521, 4.79645729586413, 0
5518, -2.9538367030489545, 4.811265059380376, 0
5519, -3.0940252239875488, 4.8351558084288735, 0
5520, -3.0437753019783953, 4.841120043212366, 0
5521, -3.0892749212536605, 4.904010767970315, 0
5522, -3.1525961359520225, 4.8559666954881955, 0
5523, -3.2151960646894704, 4.892356961490449, 0
5524, -3.298193995445679, 4.870802385976676, 0
5525, -3.3169507731300665, 4.964595525295012, 0
5526, -3.0957498931918077, 4.750025223004743, 0
5527, -3.3305594252331985, 4.802938998095103, 0
5528, -3.2406493747396796, 4.8197943609589435, 0
5529, -3.3523547802525306, 4.9123017845488075, 0
5530, -3.1188501342704287, 4.793075975979127, 0
5531, -3.1558949310711397, 4.7347140261654035, 0
5532, -3.214988010817053, 4.754929102896878, 0
5533, -3.1938501082652104, 4.689608971956195, 0
5534, -3.2798245937304022, 4.761960889551424, 0
5535, -3.073272524093775, 4.688859088022325, 0
5536, -3.009250417309548, 4.721572447139836, 0
5537, -3.0463605919733547, 4.75446376281628, 0
5538, -2.2051564884223045, 4.5773576155710725, 0
5539, -2.0742200157719264, 4.630590123297348, 0
5540, -2.0251933233676858, 4.581390350316855, 0
5541, -2.090199370620154, 4.5656399856016865, 0
5542, -2.1385449215934975, 4.6119749266061705, 0
5543, -2.12581809101929, 4.688442415718669, 0
5544, -2.0633340889376197, 4.692235345577889, 0
5545, -2.007167288218542, 4.650533069155308, 0
5546, -2.0891736820493536, 4.75267333110332, 0
5547, -1.9688525175297467, 4.732201300213175, 0
5548, -2.1848416691514245, 4.70924162458337, 0
5549, -2.215649096003247, 4.768712723944796, 0
5550, -2.267955252048176, 4.691573528902749, 0
5551, -2.346113805784521, 4.782050492378755, 0
5552, -2.260946178067059, 4.621160472655559, 0
5553, -2.3312251180476764, 4.595495990579309, 0
5554, -2.3017350518452764, 4.729512243165554, 0
5555, -2.3977536674398245, 4.6495673238767985, 0
5556, -2.334020214442594, 4.6600204726488625, 0
5557, -2.4243324124034116, 4.717044387317983, 0
5558, -2.48010810666581, 4.763643319452272, 0
5559, -2.4863690243054593, 4.653635475382722, 0
5560, -2.4789140184146357, 4.7083932728500235, 0
5561, -2.5990996972662366, 4.6968695842886525, 0
5562, -2.5376522689517436, 4.688503817927542, 0
5563, -2.561174068077105, 4.745585519763372, 0
5564, -2.592304264139006, 4.583005817323212, 0
5565, -2.603856437580888, 4.812738251512187, 0
5566, -2.527417395559713, 4.6254783577021685, 0
5567, -2.6350473738578257, 4.64761644326565, 0
5568, -2.692195923236056, 4.727071502697942, 0
5569, -2.711884239480436, 4.643046555792036, 0
5570, -2.5795268386331713, 4.6448393499651175, 0
5571, -2.6428727573664093, 4.764590671217708, 0
5572, -2.4440913911395845, 4.607381516097502, 0
5573, -2.6754581652718947, 4.678830484157354, 0
5574, -2.7567214456972593, 4.697871700165047, 0
5575, -2.752722376257131, 4.774928512823556, 0
5576, -2.841020122252324, 4.61754955871357, 0
5577, -2.8043532842306798, 4.663464553667827, 0
5578, -2.6997518044903277, 4.779718790281413, 0
5579, -2.8168219335711258, 4.78282863836753, 0
5580, -2.8515768094039347, 4.853391676709374, 0
5581, -2.8868957232042907, 4.789499464292828, 0
5582, -1.952576433821321, 4.674743520575422, 0
5583, -2.362983876316313, 4.722788079346536, 0
5584, 4.560300236417715, 2.0843440324395135, 0
5585, 4.605901744077767, 2.138255726168185, 0
5586, 4.660585089722321, 1.9827112488213592, 0
5587, 4.732201300213175, 1.9688525175297467, 0
5588, 4.682880772775099, 2.0406477946179042, 0
5589, 4.726036448423202, 2.0931143789440947, 0
5590, 4.696279279992125, 2.151492588356607, 0
5591, 4.729689395340227, 2.2198128303262097, 0
5592, 4.6550374184879315, 2.1179258008749335, 0
5593, 4.661543686627617, 2.3191686747722997, 0
5594, 4.674453829043467, 2.254975773470741, 0
5595, 4.717653977168894, 2.297058623556442, 0
5596, 4.782050492378755, 2.346113805784521, 0
5597, 4.614516090852423, 2.276316068323421, 0
5598, 4.709789784961184, 2.3863415513060873, 0
5599, 4.598240142568853, 2.3414087025834647, 0
5600, 4.637810264054625, 2.404104680804765, 0
5601, 4.699297923165992, 2.4985453673327, 0
5602, 4.59671179084014, 2.4614333925610277, 0
5603, 4.6850021367141235, 2.440616168546835, 0
5604, 4.796148663687502, 2.4762379041793694, 0
5605, 4.636829004927165, 2.5108820351333967, 0
5606, 4.7538403964886715, 2.5139498309807284, 0
5607, 4.731794602349847, 2.6152808460023422, 0
5608, 4.743323347873397, 2.4498529218600082, 0
5609, 4.626050380475818, 2.587367307662792, 0
5610, 4.7332217396944065, 2.3434176681619787, 0
5611, 4.665646256094292, 2.651618136872474, 0
5612, 4.738967109997303, 2.7067144848314335, 0
5613, 4.631313273698445, 2.713513855964788, 0
5614, 4.684668083544557, 2.702639321768168, 0
5615, 4.707520119497089, 2.761938129059292, 0
5616, 4.7771997278202045, 2.765051504439291, 0
5617, 4.61754955871357, 2.841020122252324, 0
5618, 4.663243142637728, 2.80228495342319, 0
5619, 4.792882456810333, 2.7130765789898748, 0
5620, 4.585865400921627, 2.006190936843476, 0
5621, 4.531109004090733, 1.9711046778644978, 0
5622, 4.55924129232201, 1.9203002393164144, 0
5623, 4.6172545157682965, 1.9395848068236272, 0
5624, 4.660957913205935, 1.896327033185338, 0
5625, 4.707296631274362, 1.8546856024444254, 0
5626, 4.812738251512187, 2.603856437580888, 0
5627, 4.766714926530585, 2.658539665690095, 0
5628, 4.5773576155710725, 2.2051564884223045, 0
5629, -2.722769214739724, -4.761445180230706, 0
5630, -2.7742484825331855, -4.786982493610023, 0
5631, -2.7289694059890772, -4.83181925585281, 0
5632, -2.6725780123812335, -4.770885784249657, 0
5633, -2.721941337737579, -4.701722424912899, 0
5634, 4.853391676709374, 2.8515768094039347, 0
5635, 4.75341403681285, 2.891601435228928, 0
5636, 4.811146270600357, 2.8909314203250327, 0
5637, 4.789087949146222, 2.829362768267808, 0
5638, 0.11537280777029119, -5.14072130742898, 0
5639, -0.002142965628843245, -5.141969450617935, 0
5640, 0.003441550793587468, -5.301136059176835, 0
5641, 0.11243271162263278, -5.030656625658349, 0
5642, 0.2306986982119995, -5.163336652945773, 0
5643, 0.0006175024283314803, -5.220646690590029, 0
5644, -0.06122936176469487, -5.244941639244325, 0
5645, 0.11056132552304884, -5.363382952790597, 0
5646, 0.05644624133498144, -5.1254637640148974, 0
5647, 0.058669356039119776, -5.329389210338646, 0
5648, -0.23069869821199518, -5.564425717302038, 0
5649, 0.03660798554707578, -5.419670045998032, 0
5650, 0.11292515026779462, -5.303170722971591, 0
5651, 0.16757432677084402, -5.3906456367781574, 0
5652, 0.23069869821200012, -5.854288559667806, 0
5653, 0.2306986982119999, -5.623971257427128, 0
5654, 0.2306986982119998, -5.508812606306789, 0
5655, 0.19632077063475598, -5.45123328074662, 0
5656, 0.11285375582953205, -5.453721734290548, 0
5657, 0.05794218765718302, -5.262705830957817, 0
5658, 0.06940446696875269, -5.069181568946202, 0
5659, 0.05764376301923544, -5.012754672292202, 0
5660, 0.10209192258315494, -4.9695128258670875, 0
5661, 0.17075171016992016, -5.0449116248599974, 0
5662, 0.1578042295459129, -5.222358091969773, 0
5663, 0.20180888690633653, -5.336074629626282, 0
5664, 0.11903467105062751, -5.190663463157326, 0
5665, 0.11045963282584476, -5.248933450387506, 0
5666, 0.17044314740069588, -5.284299965171664, 0
5667, 0.08702011688713424, -5.40917880979951, 0
5668, 0.030445710403099027, -5.535855618408617, 0
5669, 0.1299877845167114, -5.085259296292061, 0
5670, -0.23069869821199496, -5.7901625933792475, 0
5671, 0.1963332310149245, -4.9905986762652645, 0
5672, -0.039437399815077205, -5.377040880839712, 0
5673, -0.07448486089969508, -5.31497544745463, 0
5674, -0.14998341033718582, -5.3440149807031245, 0
5675, -0.016999571663498192, -5.64209123428647, 0
5676, 0.016242281065054022, -5.366857486225433, 0
5677, 0.05586116307259083, -5.478947404366009, 0
5678, -0.043634366694006235, -5.473670339259759, 0
5679, -0.2306986982119953, -5.451557279263434, 0
5680, -0.017144206574317394, -5.426415028790379, 0
5681, -0.19388923763012192, -5.395123060244131, 0
5682, -0.13823423074711483, -5.471645949891818, 0
5683, -0.1290158364084909, -5.406441067549702, 0
5684, -0.09034589793154313, -5.445162132429468, 0
5685, -0.09262643635228263, -5.366147851502155, 0
5686, 0.1706988240132339, -4.928637065203988, 0
5687, 0.23069869821199956, -5.220915978505943, 0
5688, 0.2306986982119994, -5.048178001825434, 0
5689, 0.1974988470669034, -5.105757327385604, 0
5690, -0.054377216536175554, -5.561685776389437, 0
5691, -0.19454505055474075, -5.507991498282736, 0
5692, -0.14225463464281543, -5.581288214392831, 0
5693, -0.142795511300862, -5.526373538230111, 0
5694, -0.0007379711477379612, -5.585641293625953, 0
5695, 0.10790847193141592, -5.647506421204539, 0
5696, 0.06683399345056476, -5.593306649135885, 0
5697, 0.11305265654280222, -5.531165896981321, 0
5698, 0.045123915287083476, -5.652423026445902, 0
5699, 0.16929746219159594, -5.506420027515146, 0
5700, 0.16876777467565882, -5.581508354486448, 0
5701, -0.013770218081189101, -5.8146090363703795, 0
5702, 0.11885843553243908, -5.596544434165524, 0
5703, 0.0006253910012965352, -5.728050439451157, 0
5704, 0.23069869821199984, -5.566391931866958, 0
5705, 0.230698698212, -5.739129908547467, 0
5706, -0.23069869821199507, -5.677294155340643, 0
5707, 0.17100851510802906, -5.644633986463837, 0
5708, 0.1432017008249659, -5.728298892699767, 0
5709, 0.23069869821199995, -5.681550582987297, 0
5710, 0.18140287758398282, -5.694542030622815, 0
5711, -0.05986658002876026, -5.695667131642733, 0
5712, -0.08809853256630355, -5.629140986242837, 0
5713, -0.07931667987193414, -5.771608445223436, 0
5714, -0.14597923088232717, -5.692957560690417, 0
5715, -0.14339235985463833, -5.63714705479627, 0
5716, 0.07192935923165862, -5.719100103298295, 0
5717, 0.04331309685313584, -5.779626225285318, 0
5718, 0.03283994694224713, -6.335470664265536, 0
5719, 0.05226412177654437, -5.858296436368365, 0
5720, 0.1791522400437076, -5.796709234107636, 0
5721, -0.029729198202491675, -5.767478519990492, 0
5722, -0.14884888197211954, -5.7477777515036985, 0
5723, -0.1973248675340059, -5.733728374359945, 0
5724, -0.15289953705534481, -5.798085786326382, 0
5725, -0.10388393786088328, -5.724854837740456, 0
5726, 0.11115419962502371, -5.788791691075203, 0
5727, 0.13712041506730543, -5.861738402535472, 0
5728, -0.23069869821199476, -6.015899469456457, 0
5729, 0.09569118188220954, -5.835390770193122, 0
5730, -0.06665513908433575, -5.977606369652191, 0
5731, -0.23069869821199487, -5.903031031417852, 0
5732, 0.007228192010545087, -5.932327874228425, 0
5733, -0.19714301474889584, -5.846596812398549, 0
5734, -0.13911787134161963, -5.919291640126553, 0
5735, -0.1363696567188149, -5.857592708982461, 0
5736, -0.0629131143504973, -5.891775306618067, 0
5737, 0.048757271872935826, -5.906877285785305, 0
5738, -0.0055058732121578136, -5.873867104414062, 0
5739, 0.15497843428507369, -6.3066429839662925, 0
5740, -0.09089832913265396, -5.933552322685268, 0
5741, -0.04151791394528696, -5.935705188191838, 0
5742, -0.07192804888787682, -5.831802876476916, 0
5743, 0.09392998780117731, -6.502849089924478, 0
5744, 0.2306986982120003, -6.084605861908483, 0
5745, -0.004936604073015499, -5.995396858683142, 0
5746, -0.07258570292553486, -6.114132422409725, 0
5747, -0.05311541707380661, -6.046586357940687, 0
5748, -0.1413620551603446, -6.028089015279366, 0
5749, -0.0049824068460603554, -6.097039999067362, 0
5750, -0.1037833250590524, -6.0685604401894055, 0
5751, -0.23069869821199468, -6.128767907495061, 0
5752, -0.15048115505623466, -6.13399340370257, 0
5753, -0.2306986982119929, -8.120818172766832, 0
5754, -0.05871796186326339, -6.334843288643029, 0
5755, 0.01686525995289259, -6.183451051360614, 0
5756, -0.02786022148632113, -6.148791736885169, 0
5757, -0.1870798739444747, -6.077497198042082, 0
5758, -0.19409594141701147, -6.185202126514363, 0
5759, 0.2306986982120021, -8.157461582074578, 0
5760, -0.1222515928573496, -6.202214549890066, 0
5761, -0.1687894337179464, -6.243068401387777, 0
5762, -0.23069869821199435, -6.476534073937811, 0
5763, -0.23069869821199374, -7.181227259150249, 0
5764, -0.23069869821199415, -6.7114318023419575, 0
5765, -0.09238895204750384, -6.283165221895927, 0
5766, -0.04847041605072318, -6.22157503619637, 0
5767, -0.23069869821199446, -6.359085209735738, 0
5768, -0.2010858889613174, -6.300360777634702, 0
5769, -0.1342166896196878, -6.370909327791378, 0
5770, -0.18033232053570095, -6.347654724333639, 0
5771, -0.18746353898861529, -6.419149155083954, 0
5772, -0.06382315438587098, -6.396311127160518, 0
5773, 0.01100946012184744, -6.397073373737325, 0
5774, -0.13227352971410863, -6.4265608764376285, 0
5775, 0.2306986982120009, -6.775557768630515, 0
5776, 0.023994260938622197, -6.270715604168223, 0
5777, -0.034050719033717224, -6.278311127054307, 0
5778, 0.09717928371454297, -6.35625526013207, 0
5779, 0.08048643997246765, -6.290735044553695, 0
5780, 0.23069869821200129, -7.236192373111869, 0
5781, -0.0620183404212312, -6.492966169602208, 0
5782, -0.017110595778848263, -6.578574282850815, 0
5783, 0.2306986982120007, -6.545240466389838, 0
5784, 0.04029707834437777, -6.459503707497437, 0
5785, -0.0268883767562375, -6.443965825483763, 0
5786, 0.2306986982120004, -6.199764513028821, 0
5787, 0.029525974837203497, -6.527684930754572, 0
5788, 0.10860180032273031, -6.429841369318114, 0
5789, -0.02250162131359295, -6.526819509556321, 0
5790, 0.11465340529183804, -6.652512602907825, 0
5791, 0.08673388166509989, -6.580112019657766, 0
5792, -0.08320794326850935, -6.445017465807496, 0
5793, 0.13603938624886905, -6.212963194317809, 0
5794, 0.19868226614560625, -6.257343838588991, 0
5795, 0.06466601436131707, -6.398981775630084, 0
5796, -0.09422236636756698, -6.692721696530868, 0
5797, 0.050792015318242706, -6.8289854044727205, 0
5798, 0.033882685299980786, -6.642076331980623, 0
5799, 0.23069869821200079, -6.660399117510176, 0
5800, 0.12515799859763027, -6.263917390584576, 0
5801, 0.07031057374444286, -6.223008358538835, 0
5802, 0.23069869821200062, -6.430081815269499, 0
5803, 0.034665347962455434, -6.58922255698336, 0
5804, 0.1860894101326819, -6.37250248970933, 0
5805, 0.16964759231461082, -6.431310775706174, 0
5806, 0.20131984916288864, -6.487661140829669, 0
5807, 0.1457264956669104, -6.481831883468059, 0
5808, -0.038005661185597575, -6.647578676928306, 0
5809, -0.23069869821199424, -6.5939829381398845, 0
5810, -0.006381524024305529, -6.744535192335152, 0
5811, -0.0960900465745284, -6.632820964777595, 0
5812, -0.16753966907057757, -6.665028217280681, 0
5813, -0.040512391527277494, -6.702031945257048, 0
5814, 0.16564155593849875, -6.591266728843601, 0
5815, 0.13899869981361196, -6.539585718110208, 0
5816, 0.13737349452327746, -6.387695645559125, 0
5817, 0.06568590705730923, -6.713715269418099, 0
5818, 0.17315753960313046, -6.64937105766332, 0
5819, 0.18983595189122734, -6.717978443070345, 0
5820, 0.2306986982120011, -7.005875070871192, 0
5821, 0.18058435181356444, -6.767833441258106, 0
5822, 0.12720139827693927, -6.732141248380412, 0
5823, 0.08105650291250932, -6.7742985593625935, 0
5824, 0.23069869821200073, -6.602819791950006, 0
5825, 0.01445167966840552, -6.693581279551172, 0
5826, -0.1573190069166269, -6.5923453524033055, 0
5827, -0.09180377033276156, -6.559787489668912, 0
5828, -0.19530110996143343, -6.535258506038848, 0
5829, -0.16738482767406385, -6.478823700819918, 0
5830, -0.1389304587061836, -6.528021057204313, 0
5831, -0.23069869821199418, -6.652707370240921, 0
5832, -0.020369679862266787, -5.521173279329559, 0
5833, -0.08624677096099016, -5.513132556920037, 0
5834, -0.20376568305095571, -5.620859936321341, 0
5835, -0.19348487315569374, -5.959465250437154, 0
5836, 0.23069869821200023, -5.969447210788145, 0
5837, 0.11050763262236338, -6.046270461064534, 0
5838, 0.23069869821200034, -6.142185187468652, 0
5839, 0.08985480330121666, -6.140719174253745, 0
5840, 0.18132811184833472, -6.191726553059395, 0
5841, 0.16056878633785424, -6.113395524688568, 0
5842, 0.03610858837950314, -6.132618235852788, 0
5843, 0.052823956573934544, -6.071794774071486, 0
5844, 0.1755232033339586, -6.050012612595916, 0
5845, 0.23069869821200029, -6.027026536348314, 0
5846, 0.11335655753540115, -6.0963758313889596, 0
5847, 0.1382081659764598, -6.160692137801185, 0
5848, -0.08864124112771396, -7.025509388953645, 0
5849, 0.11446467943451272, -6.936442386615299, 0
5850, 0.230698698212001, -6.890716419750854, 0
5851, 0.13354459602559227, -6.813003462649918, 0
5852, 0.10188451942640131, -6.871303824735587, 0
5853, 0.017299927370533284, -6.921423660710871, 0
5854, 0.16448502028487053, -6.892997917706436, 0
5855, 0.0685736424316063, -6.911521207830965, 0
5856, 0.05675167629692195, -6.988004287400762, 0
5857, 0.17906590099422373, -6.960303811533655, 0
5858, 0.23069869821200117, -7.12103372199153, 0
5859, 0.17492055277662372, -7.017036468795497, 0
5860, 0.1157748374444043, -7.002769792534498, 0
5861, 0.04648706998000854, -7.15438710582487, 0
5862, 0.23069869821200112, -7.063454396431361, 0
5863, 0.12405118264742598, -7.098192613139223, 0
5864, 0.18109494921266023, -7.0922440592114455, 0
5865, 0.16136851055013013, -7.179562413044643, 0
5866, -0.06432278137907718, -6.852496693154901, 0
5867, 3.1845566001225886e-05, -7.068013122435929, 0
5868, 0.010403382713545892, -6.970488848026806, 0
5869, 0.1881969493443539, -5.911867885227975, 0
5870, 0.11764332531445204, -5.932668935742367, 0
5871, 0.06230244195170749, -5.975658309553626, 0
5872, 0.1462760206652934, -5.991492322390374, 0
5873, 0.03936995423166049, -6.0219327957260225, 0
5874, -0.23069869821199393, -6.9463295307461035, 0
5875, -0.07928646294256203, -6.76613692820432, 0
5876, -0.10719494551215877, -6.928942087462205, 0
5877, -0.04418562683870875, -6.937798602718933, 0
5878, -0.04106054905861998, -6.99450393279051, 0
5879, -0.23069869821199404, -6.8288806665440305, 0
5880, -0.029035287332558894, -6.801906106083339, 0
5881, -0.15729478869980745, -6.745156391155405, 0
5882, -0.14953535885856684, -6.854952207681627, 0
5883, -0.2306986982119941, -6.770156234442994, 0
5884, -0.1061932474030727, -6.879259363567626, 0
5885, -0.10802787127240665, -6.815593265521871, 0
5886, -0.1772101206392061, -6.80173592994435, 0
5887, -0.2047932829642967, -6.887605098645067, 0
5888, -0.16881794922325047, -6.938551196965121, 0
5889, -0.23069869821199382, -7.0637783949481765, 0
5890, -0.13025769422171815, -6.983439222335321, 0
5891, 0.19709793503385148, -6.833137094190684, 0
5892, 0.23069869821200123, -7.1786130475517, 0
5893, 0.10643988417315421, -7.155511424966228, 0
5894, -0.23069869821199332, -7.65102271595854, 0
5895, 0.10497534904952965, -7.23360580130131, 0
5896, 0.016693747031211056, -7.237584643958394, 0
5897, 0.026325890551655046, -7.63542067712127, 0
5898, 0.06181463824407615, -7.257341227878777, 0
5899, -0.06804383756023535, -7.160306510617227, 0
5900, -0.23069869821199354, -7.416124987554394, 0
5901, 0.23069869821200148, -7.466509675352547, 0
5902, -0.1706936583352849, -7.562936067806985, 0
5903, -0.059063915194512207, -7.453340005160778, 0
5904, 0.2306986982120014, -7.351351024232208, 0
5905, -0.16870849910233257, -7.513456306769063, 0
5906, -0.02956159714472649, -7.4067617499486635, 0
5907, -0.09487988997033148, -7.4114217921767604, 0
5908, -0.032512654128625536, -7.2632659737387595, 0
5909, -0.09361921876110162, -7.313201796632259, 0
5910, 0.07596735178000466, -7.3059814013682445, 0
5911, 0.23069869821200167, -7.696826977593224, 0
5912, -0.009542664332733104, -7.181255980829354, 0
5913, -0.0021315947491608866, -7.124856391133552, 0
5914, -0.043314856436815215, -7.312403320615602, 0
5915, -0.10898293880433854, -7.232045159140222, 0
5916, -0.10965948579851635, -7.0976932729189315, 0
5917, -0.012846954534480141, -7.356143977787436, 0
5918, -0.23069869821199343, -7.533573851756467, 0
5919, -0.057058608485047596, -7.214126136942521, 0
5920, -0.15066508242037263, -7.160707721730622, 0
5921, -0.15950045113830236, -7.4220226622144345, 0
5922, -0.19971972089292295, -7.47484941965543, 0
5923, 0.022836012860312727, -7.486430789061217, 0
5924, 0.03767700847709936, -7.339147881242678, 0
5925, -0.1230138019838671, -7.35228907394029, 0
5926, -0.23069869821199365, -7.298676123352321, 0
5927, -0.05166013049359225, -7.094508543347551, 0
5928, -0.050697252990011876, -7.507836973814745, 0
5929, -0.10388988193003451, -7.562936067806985, 0
5930, -0.23069869821199337, -7.592298283857503, 0
5931, 0.16767876811782534, -7.242591281573293, 0
5932, -0.12515214228644436, -7.489897202573933, 0
5933, -0.23069869821199368, -7.239951691251285, 0
5934, -0.16767667862727528, -7.269313907301803, 0
5935, -0.17926148835898015, -7.211863909887849, 0
5936, -0.17840713800345004, -7.32859765203053, 0
5937, -0.2306986982119936, -7.357400555453357, 0
5938, -0.2031075750006668, -7.122502827049212, 0
5939, -0.1670981442756177, -7.069740202841973, 0
5940, 0.004774807175704103, -7.561389664052248, 0
5941, -0.04877528855021857, -7.617130933177981, 0
5942, 0.23069869821200156, -7.581668326472885, 0
5943, -0.13653606558552855, -7.65125867960442, 0
5944, -0.18107420881238698, -7.617716910060621, 0
5945, 0.07172913949734133, -7.537866844665943, 0
5946, 0.08511448507530849, -7.6034392638858925, 0
5947, 0.13577770136228573, -7.467799442366959, 0
5948, 0.11165081910809926, -7.722242287783982, 0
5949, -0.0007249176150725574, -7.747342996410935, 0
5950, 0.07996178347156838, -7.481085225346369, 0
5951, 0.09032430956931053, -7.400730875473114, 0
5952, 0.11787176731564673, -7.515738714213785, 0
5953, 0.16051960749285527, -7.659624828776498, 0
5954, 0.08139961206090572, -7.666634177790228, 0
5955, 0.05187477322858566, -7.718728390762432, 0
5956, 0.07561752431080693, -7.825024558904654, 0
5957, 0.2306986982120019, -7.927144279833901, 0
5958, 0.07894131821444358, -7.7684824190356325, 0
5959, 0.15547910141935578, -7.787934831266111, 0
5960, -0.1003360828034933, -7.6144443556323935, 0
5961, 0.030137028440964383, -7.398889395771266, 0
5962, -0.024863362241846744, -7.682278759267844, 0
5963, -0.1129837743520678, -7.732965501997355, 0
5964, -0.05224537358750857, -7.729447050657993, 0
5965, -0.08419881053511957, -7.679365514261156, 0
5966, -0.23069869821199324, -7.768471580160613, 0
5967, 0.23069869821200178, -7.811985628713563, 0
5968, 0.23069869821200162, -7.639247652033054, 0
5969, 0.012968835842125812, -7.810239288149113, 0
5970, -0.23069869821199313, -7.885920444362686, 0
5971, 0.024360157946483496, -7.9020928518594, 0
5972, -0.08648342228618384, -7.831056470282897, 0
5973, -0.07998069151518786, -7.776674521491259, 0
5974, 0.06001472739702502, -7.091431727496053, 0
5975, 0.07530678759897202, -7.03918408216654, 0
5976, -0.002425394676371654, -6.861990282907191, 0
5977, -0.06810557737248049, -7.362647357025007, 0
5978, 0.20471034860087423, -7.293771698672039, 0
5979, 0.14047053689837344, -7.301265096641032, 0
5980, 0.11154069271091359, -7.349053593846802, 0
5981, 0.15602277015750451, -7.579956511766716, 0
5982, 0.1946610190824536, -7.524089000912716, 0
5983, 0.14318599899651668, -7.891228280537727, 0
5984, -0.18376267278462086, -7.709119850706312, 0
5985, -0.028108510890309975, -7.861966676708474, 0
5986, -0.11889280541793787, -7.962839169612089, 0
5987, -0.08615548605419751, -7.901013697116523, 0
5988, -0.1555965447521898, -7.866359831678964, 0
5989, -0.1494554209363812, -7.79481812957059, 0
5990, -0.03156116626120836, -7.9695021708119675, 0
5991, -0.034190672824483626, -7.915594570452818, 0
5992, -0.20589528640265886, -7.827196012261649, 0
5993, -0.23069869821199301, -8.003369308564759, 0
5994, -0.1825188656665544, -7.758338104756302, 0
5995, -0.08580453437949499, -8.10481009478065, 0
5996, 0.09481646569969215, -8.017442117221519, 0
5997, -0.23069869821199307, -7.944644876463722, 0
5998, -0.17809350835990542, -7.97400709251424, 0
5999, -0.16361526485018718, -8.061750933425516, 0
6000, -0.15721362077620785, -7.922196308346836, 0
6001, -0.07999111603886366, -8.0286138976675, 0
6002, 0.0398365976851876, -7.971831998740741, 0
6003, 0.010013513627443307, -8.06372396837919, 0
6004, 0.10516040978539787, -7.949030914140387, 0
6005, 0.043207130846844854, -8.023711340601961, 0
6006, 0.23069869821200192, -7.98472360539407, 0
6007, 0.08347069157880638, -7.893353360071142, 0
6008, -0.13343411095626156, -8.015830791134817, 0
6009, -0.11421876907031156, -8.06432235269347, 0
6010, -0.026096763527814926, -8.023374203706227, 0
6011, 0.17500135975776807, -7.938281618913304, 0
6012, 0.23069869821200198, -8.04230293095424, 0
6013, 0.16575064739610001, -8.013513268174155, 0
6014, 0.1357231275283623, -8.113687502142607, 0
6015, 0.07484507412817903, -8.083732169404666, 0
6016, 0.17868919384946155, -8.071979170821528, 0
6017, 0.23069869821200287, -9.078730791037287, 0
6018, 0.07572362328360988, -8.158785427196444, 0
6019, 0.020730405569429348, -8.126557441180678, 0
6020, -0.029920487209436686, -8.102865795190926, 0
6021, 0.037749369314797276, -8.443834566430313, 0
6022, -0.027783546343179272, -8.16428683585808, 0
6023, 0.23069869821200228, -8.387778884315257, 0
6024, 0.17646963371350685, -8.150200933709238, 0
6025, 0.19538889747604193, -8.215040907634748, 0
6026, 0.23069869821200248, -8.618096186555933, 0
6027, 0.23069869821200217, -8.272620233194917, 0
6028, 0.12985414895716083, -8.198590737970603, 0
6029, 0.12638153760613177, -8.351923165085077, 0
6030, 0.0755881216502641, -8.704465174896185, 0
6031, 0.07664674960017911, -8.214238303510001, 0
6032, 0.1264428231716159, -8.28527700555632, 0
6033, 0.1769914092085466, -8.26593924651323, 0
6034, 0.23069869821200223, -8.330199558755087, 0
6035, 0.11017385669243966, -8.416568547095341, 0
6036, 0.18247343327715063, -8.31593131078602, 0
6037, 0.2306986982120024, -8.502937535435596, 0
6038, -0.05204530823297228, -8.352265503783972, 0
6039, -0.23069869821199207, -9.060409086383416, 0
6040, 0.1601208353507294, -8.47414787265551, 0
6041, 0.003495942369715843, -8.31848705568467, 0
6042, 0.23069869821200234, -8.445358209875426, 0
6043, -0.2306986982119925, -8.590613629575124, 0
6044, -0.04376634668347375, -8.41158808081695, 0
6045, 0.005534956236687948, -8.368764670240969, 0
6046, 0.16605053679801562, -8.560516860995765, 0
6047, 0.06597630682542314, -8.305609762775623, 0
6048, 0.15581519641198976, -8.704465174896185, 0
6049, 0.0967370362062615, -8.501551560265517, 0
6050, 0.23069869821200267, -8.84841348879661, 0
6051, 0.16920374993619675, -8.397013871191938, 0
6052, 0.23069869821200256, -8.73325483767627, 0
6053, 0.2306986982120025, -8.6756755121161, 0
6054, 0.11570165903112693, -8.81678444886943, 0
6055, -0.060837871173046336, -8.546468771082715, 0
6056, 0.08044458801115265, -8.627573967757113, 0
6057, 0.10984811004642257, -8.556361076418963, 0
6058, -0.0243290254756953, -8.473931111760674, 0
6059, -0.06307723278221931, -8.627645079779631, 0
6060, 0.05350053473596056, -8.555394600941371, 0
6061, 0.02768551196967367, -8.502147453894416, 0
6062, -0.1118142653047578, -8.348343626590228, 0
6063, -0.09609922588788697, -8.399665349986831, 0
6064, 0.18244706118991344, -7.408930349792378, 0
6065, 0.17185292065761562, -7.35104526352682, 0
6066, 0.17342494971200695, -7.720074754776564, 0
6067, 0.23069869821200173, -7.754406303153393, 0
6068, 0.1298445094031291, -7.83726225604967, 0
6069, -0.23069869821199296, -8.062093740665794, 0
6070, 0.05585361427003475, -8.368595092104066, 0
6071, -0.07646037528872736, -8.266951363693238, 0
6072, -0.09401267554362258, -8.453298623837417, 0
6073, -0.23069869821199268, -8.355715901170978, 0
6074, 0.007972260179471058, -8.239643341673096, 0
6075, 0.053752550771253065, -8.257873479660585, 0
6076, 0.23069869821200245, -8.560516860995765, 0
6077, 0.15997285078502946, -8.63242275671785, 0
6078, 0.1721968859120491, -8.773638388297782, 0
6079, 0.11284400642449643, -8.754482345309265, 0
6080, 0.01255645665377117, -8.790298890718216, 0
6081, 0.06818471252283374, -8.787747351985129, 0
6082, 0.044536307068146506, -8.879843563535557, 0
6083, 0.17301546743205024, -8.833270542802595, 0
6084, 0.23069869821200278, -8.963572139916948, 0
6085, -0.23069869821199257, -8.47316476537305, 0
6086, 0.23069869821200262, -8.79083416323644, 0
6087, 0.1123043836452148, -8.913912673184658, 0
6088, -0.006607982817271908, -8.588583820436028, 0
6089, 0.005802290082020045, -8.666873100925908, 0
6090, -0.010141115342097086, -8.537160926780603, 0
6091, 0.11570165903112693, -8.668399783823745, 0
6092, 0.025232682201546945, -8.185292352327311, 0
6093, 0.09461220047706918, -8.86467032399668, 0
6094, -0.013357027670986142, -9.079435752165052, 0
6095, -0.12253085032407605, -8.52014340188241, 0
6096, -0.10866047427237549, -8.585768560230761, 0
6097, -0.08789407395499134, -8.87906243517481, 0
6098, -0.04374387677964189, -8.75420581312845, 0
6099, -0.11038081352645188, -8.74855280900534, 0
6100, -0.2306986982119924, -8.708062493777197, 0
6101, -0.07217706471853225, -8.693792209374493, 0
6102, -0.048069636665899286, -8.822910417635757, 0
6103, 0.0302970842794967, -8.622861964080972, 0
6104, 0.017831907436273976, -8.72811250761134, 0
6105, 0.0341125281164924, -8.985012372017513, 0
6106, -0.2306986982119923, -8.82551135797927, 0
6107, -0.1162469660913807, -8.816755583743047, 0
6108, -0.021704567793460208, -8.88380745431132, 0
6109, -0.057596639937523994, -8.920455475967328, 0
6110, -0.23069869821199218, -8.942960222181343, 0
6111, 0.009035051222657159, -8.842039474545368, 0
6112, -0.06126458153920672, -8.971620547437038, 0
6113, 0.01429550036891098, -8.929947233190854, 0
6114, -0.23069869821199235, -8.766786925878232, 0
6115, -0.1535246199192385, -8.67774679125462, 0
6116, -0.11575531980217281, -8.639238702410209, 0
6117, -0.1690135937848721, -8.60496619776955, 0
6118, -0.17538418062603855, -8.796149141928751, 0
6119, -0.23069869821199243, -8.649338061676161, 0
6120, -0.16909129973392753, -8.878406986717762, 0
6121, -0.16948511447985365, -8.736019191090312, 0
6122, -0.23069869821199224, -8.884235790080307, 0
6123, 0.20320329731603226, -7.8695649542737325, 0
6124, -0.16866506846227125, -8.393818589942516, 0
6125, -0.16229132980765298, -8.463674493823907, 0
6126, -0.23069869821199263, -8.414440333272015, 0
6127, -0.026501907170580756, -8.277235013222407, 0
6128, -0.045399427996459116, -8.218806486763507, 0
6129, -0.14004492570102145, -8.222796955460726, 0
6130, -0.08826641205077258, -8.165250519066559, 0
6131, -0.019066722474633833, -9.017421414302595, 0
6132, -0.10783183826007013, -9.056864084534844, 0
6133, -0.14668746089705742, -8.961463057667327, 0
6134, -0.1287618443779952, -8.912078057452964, 0
6135, -0.18308100869453328, -8.9267303012828, 0
6136, -0.19958913435527822, -9.001684654282379, 0
6137, -0.16936152740355273, -9.055300321569808, 0
6138, -0.23069869821199165, -9.530204543191708, 0
6139, -0.14088647525897888, -9.146179116329376, 0
6140, -0.23069869821199185, -9.295306814787562, 0
6141, -0.10811702948266867, -9.00136702585255, 0
6142, -0.23069869821199196, -9.177857950585489, 0
6143, -0.14761807707827015, -8.124677094205524, 0
6144, -0.23069869821199274, -8.29699146906994, 0
6145, -0.17261609536366634, -8.330104794772689, 0
6146, -0.07309990049239837, -9.120492159751192, 0
6147, -0.15354091521904084, -9.390181290464357, 0
6148, 0.025438288641793233, -9.217031048825664, 0
6149, -0.09365019558096316, -9.168547117533517, 0
6150, -0.2009191166968994, -9.119133518484452, 0
6151, -0.1183826134912217, -8.297116206312857, 0
6152, -0.2306986982119928, -8.238267036968905, 0
6153, -0.1769413707469627, -8.270194856644546, 0
6154, -0.19169833977713613, -8.177431514495273, 0
6155, -0.16142472885641204, -9.231103508839707, 0
6156, -0.1787565689541965, -9.181966249732774, 0
6157, -0.2306986982119919, -9.236582382686525, 0
6158, -0.17518112094300337, -9.442117895040152, 0
6159, -0.16956714786371355, -9.291792221362211, 0
6160, -0.23069869821199174, -9.412755678989635, 0
6161, -0.06062173533559265, -9.613000749950979, 0
6162, -0.1966556893470422, -9.354031246888598, 0
6163, 0.04292217795923797, -9.780942312596752, 0
6164, 0.1873099940881805, -8.896255478737563, 0
6165, -0.1097651852408679, -9.35483451036325, 0
6166, -0.02380814031095963, -9.128223270433, 0
6167, 0.23069869821200328, -9.539365395518644, 0
6168, 0.09623405096348552, -9.177772793046357, 0
6169, 0.1918299729816122, -9.251468767717796, 0
6170, 0.04842612396626034, -9.403249141979742, 0
6171, -0.13436944114254584, -9.548409545062908, 0
6172, -0.23069869821199135, -9.882551135797927, 0
6173, 0.17023465324858306, -9.024206405857536, 0
6174, 0.23069869821200306, -9.309048093277966, 0
6175, 0.06636598978518538, -8.940670718053736, 0
6176, 0.10149676129337276, -8.98057257125499, 0
6177, 0.09220884728304438, -9.04746114550339, 0
6178, -0.14377912611299543, -9.491041642833476, 0
6179, 0.04278396841593682, -9.116975266080178, 0
6180, -0.2306986982119917, -9.47148011109067, 0
6181, -0.14244432284725844, -9.64611084569978, 0
6182, -0.23069869821199157, -9.647653407393781, 0
6183, -0.07044644001318329, -9.706377839494817, 0
6184, -0.1465301042552244, -9.706377839494817, 0
6185, 0.10958365689095582, -9.112142445190402, 0
6186, -0.23069869821199146, -9.765102271595854, 0
6187, 0.16404980281630743, -8.95650827244085, 0
6188, -0.11562894519604076, -9.268138367108646, 0
6189, -0.05725517570896374, -9.275970197286673, 0
6190, 0.03349052416274231, -9.043852455511981, 0
6191, 0.016471607376162805, -9.163945168430315, 0
6192, -0.1424443228472562, -9.766644833289853, 0
6193, -0.11237713128298751, -9.442117895040152, 0
6194, -0.2069354363940728, -9.706377839494817, 0
6195, 0.1142845226994049, -9.293787173236492, 0
6196, -0.03729314336652727, -9.400684001983487, 0
6197, 0.23069869821200284, -9.021151465477118, 0
6198, -0.10569869821199124, -10.0, 0
6199, -0.09039789926657735, -9.755682439310279, 0
6200, -0.09039789926658001, -9.657073239679354, 0
6201, -0.1875097648512836, -9.59320190784739, 0
6202, -0.11377797755009575, -9.599295741362944, 0
6203, 0.16795713190646322, -9.087519596785569, 0
6204, 0.08395590719138857, -9.2390945382116, 0
6205, 0.02623162031312548, -9.306859646307378, 0
6206, 0.16318498758568606, -9.188178789485324, 0
6207, -0.08708977182344169, -9.399193843150963, 0
6208, -0.026312622957627624, -9.509330506022511, 0
6209, -0.08419859140760907, -9.494744107632954, 0
6210, -0.06810078690780391, -9.553013267338914, 0
6211, -0.04370792580045757, -9.456210454831371, 0
6212, -0.04872978287071003, -9.338560090683037, 0
6213, 6.2172489379008735e-15, -10.0, 0
6214, -0.18750976485128135, -9.819553771142244, 0
6215, 0.006759696505590891, -9.36209320761127, 0
6216, 0.20677803117441845, -9.136310116597457, 0
6217, 0.23069869821200295, -9.193889442157626, 0
6218, 0.23069869821200317, -9.424206744398305, 0
6219, 0.180851169780806, -9.366627418838135, 0
6220, 0.1388038092783695, -9.237341024169929, 0
6221, 0.17177047683903945, -9.306918623708018, 0
6222, 0.13458116098750128, -9.457050898785408, 0
6223, 0.1759990950917716, -9.421194597452622, 0
6224, 0.11557450750008792, -9.388322375304428, 0
6225, 0.19447626993036368, -9.484387010809343, 0
6226, 0.07121162537974188, -9.347252601164783, 0
6227, 0.23069869821200348, -9.769682697759322, 0
6228, 0.16874764456906885, -9.540760017241842, 0
6229, 0.2306986982120034, -9.654524046638983, 0
6230, 0.20100368057792056, -9.596944721078813, 0
6231, 0.07195287718791551, -9.633682139237719, 0
6232, 0.13190860556157458, -9.599261131360391, 0
6233, 0.05948293069625081, -9.54253453804245, 0
6234, -0.0020531898105679014, -9.575238633337142, 0
6235, 0.14508476833262177, -9.691638845037277, 0
6236, 0.1142065103712322, -9.547264245572528, 0
6237, 0.0021272805682023, -9.646023067511377, 0
6238, 0.045700566217045595, -9.590846920095476, 0
6239, 0.17622540319000893, -9.646170337366044, 0
6240, -0.041407803231484054, -9.210724225751408, 0
6241, -0.09281246107104739, -9.220952861939697, 0
6242, -0.021213569982834524, -9.754989323087832, 0
6243, -0.09760848528237476, -9.850480795631416, 0
6244, -0.2306986982119913, -9.941275567898963, 0
6245, -0.1532143229314475, -9.911913351848444, 0
6246, 0.048656910643645815, -9.70558122531252, 0
6247, -0.13648687099361606, -9.817365943820025, 0
6248, -0.05529790446348593, -9.806025632724465, 0
6249, -0.00476012470029899, -9.896487705772145, 0
6250, -0.0440523580673637, -9.859090987219757, 0
6251, -0.07402128886241136, -9.929919215091651, 0
6252, 0.014559129774560736, -9.836848950759222, 0
6253, -0.01490043696698546, -9.699358649599978, 0
6254, 0.11534934910600494, -10.0, 0
6255, 0.06436558311094301, -9.88593164694125, 0
6256, 0.06914064730817407, -9.831274381753705, 0
6257, 0.12269115961917249, -9.819334511272872, 0
6258, 0.05767467455300558, -10.0, 0
6259, 0.08651201182950527, -9.944461101113657, 0
6260, 0.2306986982120036, -9.884841348879661, 0
6261, -0.18160185187884734, -9.869907185704953, 0
6262, 0.10396708817716402, -9.747688890090831, 0
6263, 0.165385468421768, -9.769907146798607, 0
6264, 0.09427219955955342, -9.68063740236248, 0
6265, -0.05284934910599251, -10.0, 0
6266, -0.022040735448061323, -9.949147970182826, 0
6267, -0.12048443754879326, -9.951116967936022, 0
6268, -0.16819869821199124, -10.0, 0
6269, 0.17302402365900432, -9.999999999999998, 0
6270, 0.201861360935504, -9.94242067443983, 0
6271, 0.19823956911969276, -9.827262023319491, 0
6272, 0.1442956549073407, -9.94960109366609, 0
6273, 0.1632789654208449, -9.884909062651952, 0
6274, -0.1822164561445431, -9.952297629933815, 0
6275, 0.11366563931758815, -9.870269239444054, 0
6276, -0.004708073384121471, -9.262215091857541, 0
6277, 0.0653787248378311, -9.47198495998314, 0
6278, 0.013102536614887993, -9.44841959960083, 0
6279, 0.02502167442425194, -9.5041334841479, 0
6280, 0.20480826697241106, -9.712103372199152, 0
6281, -5.14072130835997, -0.11537280973921757, 0
6282, -5.141969452532181, 0.0021429615380736174, 0
6283, -5.301136076724889, -0.0034415605823937406, 0
6284, -5.030656623822827, -0.11243271442794403, 0
6285, -5.163336652945773, -0.2306986982119998, 0
6286, -5.220646691509911, -0.0006175090296533514, 0
6287, -5.244941646252086, 0.06122935599437912, 0
6288, -5.363382940474809, -0.11056133995743406, 0
6289, -5.125463765417371, -0.05644624422868815, 0
6290, -5.329389206836121, -0.0586693708337011, 0
6291, -5.564425717302039, 0.23069869821199476, 0
6292, -5.41967003053659, -0.03660801722217895, 0
6293, -5.303170715127766, -0.11292515769634665, 0
6294, -5.3906456068369675, -0.16757433837036834, 0
6295, -5.854288559667806, -0.23069869821200048, 0
6296, -5.623971257427128, -0.23069869821200023, 0
6297, -5.508812606306789, -0.23069869821200012, 0
6298, -5.45123328074662, -0.1963207471791266, 0
6299, -5.453721652904642, -0.1128537714803598, 0
6300, -5.26270582800354, -0.0579421825833957, 0
6301, -5.06918156996564, -0.06940447137399638, 0
6302, -5.01275467259763, -0.05764376356015265, 0
6303, -4.969512826286161, -0.10209192112504331, 0
6304, -5.044911625685603, -0.17075171120971075, 0
6305, -5.222358091628667, -0.15780423133686242, 0
6306, -5.336074629626282, -0.20180891908131623, 0
6307, -5.190663463190952, -0.11903467363322973, 0
6308, -5.248933441449163, -0.11045962789343988, 0
6309, -5.284299987496347, -0.17044315696281842, 0
6310, -5.409178764110514, -0.08702011811943804, 0
6311, -5.535855549144932, -0.0304458198026491, 0
6312, -5.0852592960542315, -0.12998778385634333, 0
6313, -5.790162593379248, 0.23069869821199454, 0
6314, -4.9905986762652645, -0.1963332277598152, 0
6315, -5.377040899282831, 0.03943738547076797, 0
6316, -5.314975463367179, 0.07448486275046538, 0
6317, -5.344014978775532, 0.14998341448235658, 0
6318, -5.64209114269566, 0.01699937040933075, 0
6319, -5.366857478403323, -0.01624229122806918, 0
6320, -5.478947347062499, -0.055861223267529216, 0
6321, -5.473670346228153, 0.04363430355413443, 0
6322, -5.451557279263435, 0.23069869821199487, 0
6323, -5.426415029343313, 0.017144166943829774, 0
6324, -5.395123060244132, 0.19388923866439428, 0
6325, -5.471645968326332, 0.13823420092054894, 0
6326, -5.406441072378302, 0.12901582759576558, 0
6327, -5.445162132215432, 0.09034585471184058, 0
6328, -5.366147870331788, 0.09262641800427328, 0
6329, -4.928637062136089, -0.17069882380982754, 0
6330, -5.220915978505943, -0.23069869821199984, 0
6331, -5.048178001825434, -0.23069869821199968, 0
6332, -5.105757327385604, -0.1974988483688199, 0
6333, -5.561685749940179, 0.05437704579584347, 0
6334, -5.5079914982827365, 0.19454503963653358, 0
6335, -5.581288281577187, 0.14225454556250572, 0
6336, -5.5263735810938, 0.14279548910110154, 0
6337, -5.585641220658256, 0.0007378119946593528, 0
6338, -5.647506235768982, -0.10790855785129276, 0
6339, -5.59330651382787, -0.06683410430884765, 0
6340, -5.531165776350427, -0.11305272158793492, 0
6341, -5.652422836183802, -0.045124066540506075, 0
6342, -5.506420007120904, -0.16929751478737567, 0
6343, -5.581508350418862, -0.16876775706882197, 0
6344, -5.814608760748975, 0.013769776020862993, 0
6345, -5.596544317468853, -0.11885846628612429, 0
6346, -5.7280502334973535, -0.0006256955798279659, 0
6347, -5.566391931866958, -0.23069869821200018, 0
6348, -5.739129908547467, -0.23069869821200034, 0
6349, -5.677294155340643, 0.23069869821199465, 0
6350, -5.6446339257403535, -0.17100855195995157, 0
6351, -5.72829888676731, -0.14320160793579437, 0
6352, -5.681550582987297, -0.23069869821200029, 0
6353, -5.694542025341468, -0.18140283649561223, 0
6354, -5.695667058196606, 0.05986632276606983, 0
6355, -5.629140939143918, 0.08809834075142868, 0
6356, -5.771608358030425, 0.07931631296350411, 0
6357, -5.692957627130392, 0.14597910951244458, 0
6358, -5.637147124838422, 0.1433921515118039, 0
6359, -5.7190997476741705, -0.0719294782866734, 0
6360, -5.779625906908897, -0.04331343991161549, 0
6361, -6.084605861908483, -0.2306986982120007, 0
6362, -5.858295806099223, -0.052264420942504164, 0
6363, -5.796709234107636, -0.17915219723929518, 0
6364, -5.767478306145641, 0.029728865396232186, 0
6365, -5.747777787361514, 0.14884872822127718, 0
6366, -5.733728374359946, 0.1973248259496253, 0
6367, -5.798085945054356, 0.1528993240057421, 0
6368, -5.72485478737285, 0.10388369593866112, 0
6369, -5.788791614231653, -0.11115433771091665, 0
6370, -5.861737871838445, -0.13712042069662914, 0
6371, -6.015899469456457, 0.23069869821199435, 0
6372, -5.835390441215706, -0.09569135643086228, 0
6373, -5.977605908518912, 0.06665500444518745, 0
6374, -5.903031031417853, 0.23069869821199446, 0
6375, -5.932327266593152, -0.0072283472674275345, 0
6376, -5.84659681239855, 0.1971429925631928, 0
6377, -5.919291609193145, 0.13911796172955854, 0
6378, -5.857592818478002, 0.13636979927117227, 0
6379, -5.891775289451765, 0.06291324803409257, 0
6380, -5.906876629791331, -0.04875738325799716, 0
6381, -5.87386661504328, 0.005505331124156944, 0
6382, -6.356261683905206, -0.09718241176451696, 0
6383, -5.933552152102636, 0.0908984933929068, 0
6384, -5.935704892713708, 0.04151765748615627, 0
6385, -5.831802769015033, 0.07192755257414822, 0
6386, -6.3348427674263315, 0.058718638390903785, 0
6387, -5.995396540271018, 0.004936253515488369, 0
6388, -6.114133205565862, 0.07258596486042546, 0
6389, -6.046586562814145, 0.05311542423565465, 0
6390, -6.0280885587892366, 0.14136195849593802, 0
6391, -6.0970407023990525, 0.004982077025448742, 0
6392, -6.068560831589208, 0.10378363042249349, 0
6393, -6.128767907495062, 0.23069869821199424, 0
6394, -6.133993630849856, 0.15048136144829177, 0
6395, -8.120818172766834, 0.23069869821199224, 0
6396, -7.23619237311187, -0.23069869821200184, 0
6397, -6.183453937689519, -0.016866052500208027, 0
6398, -6.1487935716276905, 0.02785995618010869, 0
6399, -6.0774969999724515, 0.18707979522858456, 0
6400, -6.185202126514364, 0.19409619863847444, 0
6401, -8.15746158207458, -0.23069869821200273, 0
6402, -6.202214704385288, 0.12225205688102936, 0
6403, -6.243069043700111, 0.16878945755694286, 0
6404, -6.476534073937811, 0.2306986982119939, 0
6405, -7.1812272591502495, 0.23069869821199318, 0
6406, -6.7114318023419575, 0.23069869821199365, 0
6407, -6.283165047827378, 0.09238856155922755, 0
6408, -6.221576125950734, 0.048469699569784704, 0
6409, -6.359085209735738, 0.230698698211994, 0
6410, -6.300360777634702, 0.20108649580624005, 0
6411, -6.370908531642154, 0.1342168981145742, 0
6412, -6.347654383892102, 0.1803325703602184, 0
6413, -6.4191490424672155, 0.18746337927414164, 0
6414, -6.3963096343015025, 0.06382497814251092, 0
6415, -6.397086649814271, -0.01100572852632288, 0
6416, -6.426560372338043, 0.1322729968275592, 0
6417, -6.775557768630515, -0.23069869821200137, 0
6418, -6.270718568414826, -0.023993663312266083, 0
6419, -6.278311757438932, 0.03405094010116698, 0
6420, -6.502844597926081, -0.09385977768099557, 0
6421, -6.290737708100709, -0.08048580511656571, 0
6422, -6.3354790220555905, -0.03283764472609083, 0
6423, -6.306645109323972, -0.15497805930640163, 0
6424, -6.49297703352246, 0.06201132500747941, 0
6425, -6.578595625714711, 0.01709660491645342, 0
6426, -6.545240466389838, -0.23069869821200115, 0
6427, -6.459503939840674, -0.04025769665471135, 0
6428, -6.443967577546261, 0.026900453857949314, 0
6429, -6.199764513028821, -0.2306986982120008, 0
6430, -6.527664545245613, -0.029468421017186282, 0
6431, -6.429848668196057, -0.10855871753851198, 0
6432, -6.52686305313688, 0.022543987641447383, 0
6433, -6.65206655835474, -0.11439891470658367, 0
6434, -6.579872294191789, -0.08657130047176936, 0
6435, -6.4450239381334065, 0.08320429091830117, 0
6436, -6.212964338200089, -0.13603846516802567, 0
6437, -6.257343838588991, -0.19868066593920736, 0
6438, -6.398963440506773, -0.0646532933898657, 0
6439, -6.693107717514531, 0.09398865843013252, 0
6440, -6.828721861104749, -0.05053363839250752, 0
6441, -6.641608288141354, -0.033969208995665044, 0
6442, -6.660399117510176, -0.23069869821200126, 0
6443, -6.263919098172522, -0.125157363234247, 0
6444, -6.2230121079766185, -0.07031035431859152, 0
6445, -6.430081815269499, -0.23069869821200104, 0
6446, -6.588883748576156, -0.034618510796248975, 0
6447, -6.37250248970933, -0.18609110460762116, 0
6448, -6.4313269355853935, -0.16962610860403582, 0
6449, -6.487661140829669, -0.20132361216279948, 0
6450, -6.481873371676448, -0.14570131914756618, 0
6451, -6.647677824607817, 0.037930440877079134, 0
6452, -6.5939829381398845, 0.2306986982119938, 0
6453, -6.744258762335737, 0.006098137366000123, 0
6454, -6.633071660680997, 0.09620478615486396, 0
6455, -6.665752670838402, 0.16723828766504878, 0
6456, -6.702007819120347, 0.04033853795787144, 0
6457, -6.590927558000831, -0.16545220243024467, 0
6458, -6.539434599343511, -0.13882383562136671, 0
6459, -6.387721143313527, -0.13737345082827765, 0
6460, -6.713087718670819, -0.06556953957824332, 0
6461, -6.649161707983353, -0.17305543344363197, 0
6462, -6.717978443070345, -0.189556768723057, 0
6463, -7.005875070871193, -0.23069869821200162, 0
6464, -6.767922201848521, -0.18052196155708836, 0
6465, -6.732432310436232, -0.12689655747823486, 0
6466, -6.773777020091216, -0.08014057935209527, 0
6467, -6.602819791950006, -0.2306986982120012, 0
6468, -6.693053685139891, -0.014243379282701862, 0
6469, -6.593252829030982, 0.15755925876013427, 0
6470, -6.559814425826248, 0.09225948012864107, 0
6471, -6.535258506038848, 0.19471154670720375, 0
6472, -6.478684631032259, 0.1673653997449855, 0
6473, -6.5274506157200225, 0.1386712959682206, 0
6474, -6.652707370240921, 0.23069869821199374, 0
6475, -5.521173236475058, 0.02036955827636487, 0
6476, -5.513132582166002, 0.0862467262468257, 0
6477, -5.620859936321341, 0.20376552591316016, 0
6478, -5.959465250437154, 0.19348491324501915, 0
6479, -5.969447210788145, -0.2306986982120006, 0
6480, -6.046270676414604, -0.11050765409510568, 0
6481, -6.142185187468652, -0.23069869821200076, 0
6482, -6.140724865435756, -0.08985521879784264, 0
6483, -6.1917270231360835, -0.1813274800841655, 0
6484, -6.113395524688568, -0.16056789074280708, 0
6485, -6.132620140157681, -0.03610883974958067, 0
6486, -6.071796898945635, -0.05282486515311226, 0
6487, -6.050012899516775, -0.17552313014004794, 0
6488, -6.027026536348314, -0.23069869821200065, 0
6489, -6.09637780034769, -0.1133532895255307, 0
6490, -6.160693483853693, -0.13821029438163152, 0
6491, -6.959567334178706, 0.16527599271060778, 0
6492, -6.979982171310607, -0.07898035717947344, 0
6493, -6.890716419750854, -0.2306986982120015, 0
6494, -6.832725590225287, -0.1237508450077263, 0
6495, -6.900863454341143, -0.0833067979951549, 0
6496, -6.834997127593787, -0.19171538335944238, 0
6497, -6.900550825869721, -0.15733050630130657, 0
6498, -6.9482957453110235, -0.2010735291058282, 0
6499, -6.961049390538974, -0.13922511811813426, 0
6500, -7.121033721991532, -0.23069869821200173, 0
6501, -7.017179068888951, -0.12376734561377806, 0
6502, -7.074561158071524, -0.038269802928885994, 0
6503, -6.82548529935429, 0.028291917478695618, 0
6504, -6.884015878977538, -0.02460529264939501, 0
6505, -6.912976604543827, 0.04332637892792786, 0
6506, -6.949540707710754, -0.0208335929253506, 0
6507, -6.764433118381366, 0.07825765362676099, 0
6508, -6.989186925837117, 0.10545919218742544, 0
6509, -7.012713238111753, -0.024802862203027375, 0
6510, -6.857103936547809, 0.09161385763226579, 0
6511, -6.984912607087952, 0.03743167572645249, 0
6512, -7.034521300879369, -0.07340176381890245, 0
6513, -7.1190465901282955, -0.12935247197417327, 0
6514, -6.9463295307461035, 0.2306986982119934, 0
6515, -6.921927847370662, 0.11015214244896195, 0
6516, -7.069805885800366, 0.06624568463642994, 0
6517, -6.870672667176997, 0.16677321237561082, 0
6518, -7.152817844906927, 0.1061485212978727, 0
6519, -6.736790994242723, 0.12248897159829389, 0
6520, -7.1447796674009805, 0.01709237393907042, 0
6521, -6.8288806665440305, 0.2306986982119935, 0
6522, -7.053363331840055, 0.013131655051679944, 0
6523, -7.0637783949481765, 0.2306986982119933, 0
6524, -7.032817829953306, 0.16430577793326798, 0
6525, -7.00505396284714, 0.23069869821199335, 0
6526, -7.109228713199301, 0.1690888798902701, 0
6527, -7.042121981090277, 0.11180932956748689, 0
6528, -6.792991568405815, -0.012521492922856488, 0
6529, -6.720765809704874, 0.17580978872310835, 0
6530, -6.770156234442994, 0.23069869821199357, 0
6531, -6.805342037759422, 0.13976305744956596, 0
6532, -6.7721839902021905, 0.17920824294744367, 0
6533, -6.887605098645067, 0.23069869821199346, 0
6534, -7.122502827049213, 0.23069869821199324, 0
6535, -7.173402589124712, 0.16696834793803067, 0
6536, -7.6510227159585416, 0.2306986982119927, 0
6537, -7.251183825113858, 0.10674952533312208, 0
6538, -7.4161249875543955, 0.23069869821199296, 0
6539, -7.097756332167524, 0.11457978944491001, 0
6540, -5.911867885227975, -0.1881966681232988, 0
6541, -5.932667963959226, -0.11764315149530033, 0
6542, -5.975657579830029, -0.06230257442945274, 0
6543, -5.991491877573895, -0.14627610197160468, 0
6544, -6.021933733604891, -0.03937088228440744, 0
6545, -7.065122410447076, -0.18110237705876261, 0
6546, -7.178613047551702, -0.17887712536916953, 0
6547, -7.217755022462447, -0.07121406286579539, 0
6548, -7.178844317553607, -0.11801444789385715, 0
6549, -7.149060672561509, -0.05367604304461151, 0
6550, -7.4665096753525475, -0.23069869821200206, 0
6551, -7.104793014835027, -0.07990918353330023, 0
6552, -7.2274886198961585, -0.18247031194685456, 0
6553, -7.435724484068018, -0.17085751085563622, 0
6554, -7.696826977593226, -0.23069869821200228, 0
6555, -7.265995566677228, 0.009503242217618668, 0
6556, -7.1219611691291504, 0.06404279907577771, 0
6557, -7.204039005376077, -0.008242623885187941, 0
6558, -7.220222796943057, 0.052282658198762176, 0
6559, -7.3250556912446685, -0.08056801655454197, 0
6560, -7.400520651514231, 0.07974412141135984, 0
6561, -7.273674599258659, -0.04986020442933144, 0
6562, -7.321226441313002, 0.06766668964384298, 0
6563, -7.271035680845392, 0.06002205224384846, 0
6564, -7.2986761233523225, 0.23069869821199307, 0
6565, -7.239951691251286, 0.19114312074668505, 0
6566, -7.372886522487693, -0.005165621715302909, 0
6567, -7.317215366534417, -0.01404954551038426, 0
6568, -7.354445639803224, 0.11590773692799428, 0
6569, -7.421465694600813, 0.15386281676058655, 0
6570, -7.302519823705613, 0.16162321979402433, 0
6571, -7.357400555453359, 0.19932173485590257, 0
6572, -7.36536225528836, 0.04423484987492338, 0
6573, -7.5335738517564685, 0.23069869821199285, 0
6574, -7.557655033621189, 0.07535860859307618, 0
6575, -7.474849419655432, 0.19617696335763601, 0
6576, -7.540215754630935, 0.15219173622763166, 0
6577, -7.479641920647858, 0.09740416680002885, 0
6578, -7.592298283857505, 0.19613250262960413, 0
6579, -7.686148844540373, 0.10385649645043962, 0
6580, -7.651588707448215, 0.16257063579602027, 0
6581, -7.885920444362688, 0.23069869821199246, 0
6582, -7.618770890651616, 0.10372510210471618, 0
6583, -7.768471580160615, 0.23069869821199257, 0
6584, -7.65275884583078, -0.049522812554080115, 0
6585, -7.727039059229786, 0.16745358029555005, 0
6586, -7.618927597883942, 0.023366905444779394, 0
6587, -7.489499292672856, 0.14738511641422436, 0
6588, -7.4888601938840385, -0.01903108064225316, 0
6589, -7.709747148059578, 0.23069869821199263, 0
6590, -7.827196012261651, 0.14703373240953832, 0
6591, -7.705598270966645, 0.019298359960473854, 0
6592, -7.451680271545656, 0.03660788748376349, 0
6593, -7.51178171482783, 0.03652784096057827, 0
6594, -7.559739651182991, -0.015765538838587646, 0
6595, -7.581668326472887, -0.23069869821200217, 0
6596, -7.526645373971087, -0.06830695982403015, 0
6597, -7.591742949332202, -0.07261672436603481, 0
6598, -7.429237381957758, -0.1038753250682507, 0
6599, -7.4723607452971486, -0.07080794855879907, 0
6600, -7.41815082329321, -0.0447648714652702, 0
6601, -7.5002894999688134, -0.151882410635222, 0
6602, -7.765052970204448, 0.09806838085528398, 0
6603, -7.781181749077905, 0.17717814489993836, 0
6604, -7.827196012261651, 0.23069869821199251, 0
6605, -7.661200089739484, -0.0013087423678439514, 0
6606, -7.66380588229066, 0.05420146273996586, 0
6607, -7.927144279833903, -0.2306986982120025, 0
6608, -7.6540744986708225, -0.14515017744791464, 0
6609, -7.723172377643267, 0.06785649738802918, 0
6610, -7.793066494383338, 0.015101227780799323, 0
6611, -7.725904320554377, -0.05098726767042004, 0
6612, -7.74819655883707, -0.006470771878630856, 0
6613, -7.718926508637054, -0.12014266519395769, 0
6614, -7.802203856257524, -0.0613554756779823, 0
6615, -7.7025868918398315, -0.174363270096534, 0
6616, -7.804191448411156, -0.1658606990718359, 0
6617, -7.754406303153395, -0.20812362242967233, 0
6618, -7.773062413720034, -0.10845252388497248, 0
6619, -7.672781944108409, -0.09707006525104098, 0
6620, -7.351351024232208, -0.23069869821200195, 0
6621, -7.524089000912717, -0.20872960522962206, 0
6622, -7.577378889787586, -0.15301388042750147, 0
6623, -7.8335937328261505, 0.07499798936623178, 0
6624, -7.952075438298737, 0.12182269406459885, 0
6625, -7.89660941929396, -0.011298684550892002, 0
6626, -7.885904447674759, 0.11594584058043589, 0
6627, -7.849584842159442, 0.02051899974051662, 0
6628, -7.878702326862727, 0.17332327449559426, 0
6629, -7.92465188733589, 0.055133066539611975, 0
6630, -8.118016107083593, 0.014602704449753215, 0
6631, -8.025095363722544, 0.052812795518451236, 0
6632, -7.975319650478985, 0.07328114808700241, 0
6633, -7.973519884711606, -0.004629892782196321, 0
6634, -7.539336097482753, -0.11825247738588102, 0
6635, -7.6125203979115605, -0.11781064839598093, 0
6636, -8.049185844476913, -0.02069219609367136, 0
6637, -7.944472346990307, -0.11646223328586215, 0
6638, -8.137467128605952, -0.1080916899277466, 0
6639, -7.939177589824819, -0.05539836264850518, 0
6640, -8.00749245424419, -0.08023636819260538, 0
6641, -7.872151784535856, -0.0919715558451503, 0
6642, -8.074863579187626, -0.0830411261861155, 0
6643, -8.325545068754632, -0.08451204233796407, 0
6644, -8.125563051343192, -0.04708986584365341, 0
6645, -8.618096186555935, -0.23069869821200317, 0
6646, -9.078730791037291, -0.23069869821200364, 0
6647, -8.042302930954241, -0.23069869821200262, 0
6648, -8.272620233194917, -0.23069869821200284, 0
6649, -8.09988225651441, -0.23069869821200267, 0
6650, -8.143290188780917, -0.17007590702592126, 0
6651, -8.387778884315257, -0.23069869821200295, 0
6652, -8.492313418000574, 0.09499067690082735, 0
6653, -8.01070340063376, -0.15875147855803148, 0
6654, -8.219062088830244, -0.06050659631985126, 0
6655, -8.21504090763475, -0.18527098342432075, 0
6656, -8.272254407383352, -0.17195781700398474, 0
6657, -8.230783700020629, -0.12333138148724723, 0
6658, -8.33771356876295, -0.18619087840465284, 0
6659, -8.443514426007997, -0.06531608223396745, 0
6660, -8.396273760230383, -0.12761508260564572, 0
6661, -7.852379199018599, -0.041933238868794576, 0
6662, -7.87323697220182, -0.1718046722607131, 0
6663, -7.811985628713565, -0.2306986982120024, 0
6664, -8.076671128536429, -0.16822660323876165, 0
6665, -7.9847236053940716, -0.23069869821200256, 0
6666, -7.9529573923314025, -0.17618174014390067, 0
6667, -8.37609400025069, -0.02572653637743999, 0
6668, -8.590613629575124, 0.23069869821199177, 0
6669, -8.355715901170978, 0.23069869821199201, 0
6670, -8.502937535435596, -0.23069869821200306, 0
6671, -8.269816159896557, -0.08354297294874555, 0
6672, -9.060409086383416, 0.2306986982119913, 0
6673, -8.314032953819313, -0.13745732010766473, 0
6674, -8.347112791873304, 0.10099266910339572, 0
6675, -8.298799437575546, -0.019686605311091565, 0
6676, -8.377811190061134, -0.07832908104864453, 0
6677, -8.483158734629207, -0.1444384835463864, 0
6678, -8.443857901584645, -0.11463708211837871, 0
6679, -8.448684334827368, 0.020690977338762476, 0
6680, -8.341807992358774, 0.03310577535400497, 0
6681, -8.235816823039892, 0.07553881897795667, 0
6682, -8.39941131354722, 0.06275526200705264, 0
6683, -8.295441073225646, 0.07087967674930769, 0
6684, -8.238267036968907, 0.23069869821199213, 0
6685, -8.424205284667508, -0.020996492123330532, 0
6686, -8.619698050884576, -0.029769529728474603, 0
6687, -8.52750306374544, -0.0272057510112568, 0
6688, -8.510830367035084, 0.03415801320292271, 0
6689, -8.623728284240432, 0.10175771895442137, 0
6690, -8.558863330968816, 0.08201337503055442, 0
6691, -8.47316476537305, 0.2306986982119919, 0
6692, -8.608182491556601, 0.036408699056633104, 0
6693, -8.415561090365733, 0.19452107548657593, 0
6694, -8.574293213111583, -0.0035793314631029916, 0
6695, -8.690948374254633, 0.016719631711318052, 0
6696, -8.82551135797927, 0.23069869821199152, 0
6697, -8.406347422981295, 0.12712588208422565, 0
6698, -8.353957325437408, 0.16567701358352632, 0
6699, -9.19388944215763, -0.23069869821200378, 0
6700, -8.606776224130297, 0.16612683321219063, 0
6701, -8.708062493777197, 0.23069869821199163, 0
6702, -8.686549958688278, 0.15271902928839115, 0
6703, -8.649338061676161, 0.23069869821199168, 0
6704, -8.53755235258588, 0.14985543435112436, 0
6705, -8.474049744144791, 0.16534117243680568, 0
6706, -8.848413488796613, -0.2306986982120034, 0
6707, -8.766786925878232, 0.23069869821199157, 0
6708, -8.68960827942499, 0.08474711544490143, 0
6709, -8.814050578885272, 0.05317160215744465, 0
6710, -8.747490809874469, 0.05186042030243191, 0
6711, -8.744626810832706, 0.11420130021421851, 0
6712, -8.931414741581316, -0.017367371597662738, 0
6713, -8.74134980963776, -0.0013180651189633429, 0
6714, -8.873459057939941, -0.03790327426294022, 0
6715, -8.796149141928751, 0.16475707687758895, 0
6716, -8.739137324139891, 0.17887904184614506, 0
6717, -8.92456478251631, 0.10848955999694257, 0
6718, -8.800979059427378, 0.10830324756865634, 0
6719, -8.942960222181343, 0.2306986982119914, 0
6720, -9.168165627403168, -0.09363210314439224, 0
6721, -8.617848356591686, -0.13022575294104805, 0
6722, -8.640059437082918, -0.0803895834472142, 0
6723, -8.862793859703043, 0.09384389118979586, 0
6724, -8.872881824319876, 0.17009781573375934, 0
6725, -8.90163570611713, -0.0971274941728619, 0
6726, -8.87672806369508, 0.027600506756270658, 0
6727, -8.942949766029106, 0.043027394529923144, 0
6728, -8.817077017792721, -0.059331588958827695, 0
6729, -9.048031532082822, 0.10785228795220991, 0
6730, -8.820572414919829, 0.0008837688894203985, 0
6731, -8.98620689175814, 0.09048889972719877, 0
6732, -9.059706740679582, -0.028655051332365122, 0
6733, -8.974085363245743, 0.16352456044876207, 0
6734, -8.992147234280344, -0.0077679499911558255, 0
6735, -8.924425474999, 0.18131263496853456, 0
6736, -9.001684654282379, 0.23069869821199135, 0
6737, -9.032617534092667, 0.043986767877024865, 0
6738, -9.530204543191708, 0.23069869821199082, 0
6739, -9.295306814787562, 0.23069869821199107, 0
6740, -8.79071725686798, -0.11358350252746857, 0
6741, -9.093206940848047, 0.06315631349199521, 0
6742, -9.032612671174533, -0.08826164061133562, 0
6743, -9.167105326252482, -0.1647782350669742, 0
6744, -8.59396930927908, -0.18052143209497007, 0
6745, -9.111710139281383, 0.004387380879836887, 0
6746, -8.571534255826329, -0.07971677143730557, 0
6747, -9.119133518484452, 0.20369931749897446, 0
6748, -8.551288354181775, -0.1447695046770846, 0
6749, -9.111554551632324, -0.05281139909037382, 0
6750, -8.691316055141327, -0.061688380501401505, 0
6751, -9.195105829657148, 0.06294153102129872, 0
6752, -9.065137350590483, 0.1681755319850132, 0
6753, -9.539365395518645, -0.23069869821200412, 0
6754, -8.509186321836903, -0.08728046536265513, 0
6755, -9.30904809327797, -0.2306986982120039, 0
6756, -8.884235790080307, 0.23069869821199146, 0
6757, -8.965974478679302, -0.07570968025548352, 0
6758, -8.754016893800943, -0.06273496413481951, 0
6759, -8.963572139916952, -0.2306986982120035, 0
6760, -8.955992124963489, -0.15306808036755046, 0
6761, -9.021151465477121, -0.1858911599990627, 0
6762, -9.006122111122433, -0.1346392876238121, 0
6763, -9.098504183312388, -0.14588962703492908, 0
6764, -8.905992814356782, -0.19713549015835438, 0
6765, -8.845425616062194, -0.15940117723335656, 0
6766, -9.249426382375088, -0.023271618929604013, 0
6767, -9.181107468350586, 0.14626754581535895, 0
6768, -9.177857950585489, 0.23069869821199118, 0
6769, -9.269201689920145, -0.13071882514997452, 0
6770, -9.13631011659746, -0.23069869821200373, 0
6771, -9.2514687677178, -0.23069869821200384, 0
6772, -9.214080246849502, -0.12471662654957374, 0
6773, -9.222679104937715, -0.18126913419733462, 0
6774, -9.083678739842675, -0.09635697138720067, 0
6775, -8.847495809532864, -0.10476449951784896, 0
6776, -9.236582382686525, 0.19068072795932248, 0
6777, -9.348176584924204, 0.0900182582644497, 0
6778, -9.30462626241485, 0.15392624612668482, 0
6779, -9.144228438901582, 0.09723321458848883, 0
6780, -9.117647849422704, 0.1471585441245978, 0
6781, -9.412755678989635, 0.23069869821199096, 0
6782, -9.270350562528327, 0.08377619625200734, 0
6783, -9.237817593989345, 0.13228541489280524, 0
6784, -9.381819607362718, 0.15973716787283493, 0
6785, -9.314665561908399, 0.01954524446681649, 0
6786, -9.243792924482143, 0.03339841681719332, 0
6787, -9.3540312468886, 0.23069869821199102, 0
6788, -9.47148011109067, 0.1628733163097884, 0
6789, -9.323591444872827, -0.06516517479655626, 0
6790, -9.429004367485485, 0.09399133754927581, 0
6791, -9.425899965407575, 0.18274423291598604, 0
6792, -9.269001419055435, -0.07521229083992206, 0
6793, -9.779969394608171, 0.15819713082835937, 0
6794, -9.416938101363991, -0.012503830076648785, 0
6795, -9.320649367115836, -0.11806450766795991, 0
6796, -9.358862608395754, -0.018623207808971073, 0
6797, -9.382201744395905, 0.038518714180707264, 0
6798, -9.63059377863711, 0.017219410546508537, 0
6799, -9.537129482139445, 0.07485372311578861, 0
6800, -9.486859877344028, 0.10585223510464901, 0
6801, -9.765102271595854, 0.23069869821199057, 0
6802, -9.476205534211127, 0.03231450931412282, 0
6803, -9.550131028512055, -0.008663608017198121, 0
6804, -9.550961546606434, 0.15354468967064677, 0
6805, -9.579306048965115, 0.03864888067905126, 0
6806, -9.647653407393781, 0.23069869821199068, 0
6807, -9.706377839494817, 0.23069869821199063, 0
6808, -9.5845080638906, 0.10708681957259261, 0
6809, -9.619055094680302, 0.16737335052126281, 0
6810, -9.588928975292745, 0.23069869821199074, 0
6811, -9.706377839494817, 0.16605789642368882, 0
6812, -9.608945924122851, -0.05349284006672326, 0
6813, -9.769682697759322, -0.23069869821200434, 0
6814, -9.520161225677919, -0.12089465700534531, 0
6815, -9.646360132350756, 0.11168446779091631, 0
6816, -9.55068799158469, -0.06892937986822582, 0
6817, -9.475740747712232, -0.059851005563106914, 0
6818, -9.685374729033684, -0.012052716350146694, 0
6819, -9.69763900452305, 0.0767947270255161, 0
6820, -9.424206744398308, -0.230698698212004, 0
6821, -9.392344971348173, -0.08063319404925745, 0
6822, -9.498917135722682, -0.01388395364634417, 0
6823, -10.0, -7.105427357601002e-15, 0
6824, -9.654524046638983, -0.23069869821200423, 0
6825, -9.882551135797927, 0.23069869821199046, 0
6826, -9.767042665894982, 0.08893554447031127, 0
6827, -9.845103662198254, 0.17486103082930185, 0
6828, -9.726006288058485, 0.11907692851879051, 0
6829, -9.923555544157077, 0.054465180099945575, 0
6830, -9.7424027806032, 0.02534546262407529, 0
6831, -9.823826703696891, 0.23069869821199052, 0
6832, -9.89751933558921, 0.18018440226089907, 0
6833, -9.757963909632089, -0.06056332184255688, 0
6834, -9.871138326413233, 0.012031784941135408, 0
6835, -9.878695141317953, 0.10482093446646144, 0
6836, -9.808588647111053, 0.03626853504896173, 0
6837, -9.820314794120348, 0.11483012146157198, 0
6838, -9.818635819909922, -0.030633742468476693, 0
6839, -10.0, -0.11534934910600583, 0
6840, -9.88207169046521, -0.05505889458794119, 0
6841, -9.933870085236096, -0.012181410083188496, 0
6842, -9.884841348879661, -0.23069869821200445, 0
6843, -10.0, 0.11534934910599162, 0
6844, -9.809276525959172, -0.08812148543962373, 0
6845, -9.76433210646353, -0.13305829503635636, 0
6846, -9.944714555375127, -0.07800855379488689, 0
6847, -10.0, -0.05767467455300647, 0
6848, -9.839579581451003, -0.16337409279288773, 0
6849, -9.92950290144488, -0.1601276065998143, 0
6850, -9.681234265295153, -0.10383069438417647, 0
6851, -9.448099432889363, -0.1266490007967474, 0
6852, -9.488855971331752, -0.18295116374938192, 0
6853, -9.863183610940705, -0.11014152851169404, 0
6854, -9.827262023319491, -0.2306986982120044, 0
6855, -9.788876752841741, -0.18068007922875273, 0
6856, -10.0, -0.1730240236590052, 0
6857, -9.94242067443983, -0.2306986982120045, 0
6858, -9.885255801605197, -0.18154320914416217, 0
6859, -9.660242950223404, -0.056901308739243796, 0
6860, -9.712103372199152, -0.23069869821200428, 0
6861, -9.683313709419068, -0.17051421773079717, 0
6862, -9.596944721078815, -0.16617712185501607, 0
6863, -9.592403274927015, -0.10871222228835933, 0
6864, -9.735424227566236, -0.18256489817765942, 0
6865, -9.543141070095459, -0.17611532196861898, 0
6866, -9.911963582669712, -0.11441021771645303, 0
6867, -9.596944721078813, -0.23069869821200417, 0
6868, -7.639247652033056, -0.20601676323252477, 0
6869, -8.00336930856476, 0.23069869821199235, 0
6870, -8.445358209875426, -0.19850352228190293, 0
6871, -8.235035249957413, 0.006580647905481605, 0
6872, -8.175133384987863, -0.009717953269527423, 0
6873, -8.170229995661558, 0.05799693675242222, 0
6874, -8.098760428799638, 0.09088216472708296, 0
6875, -8.076023396656954, 0.0445723774473053, 0
6876, -8.046925433858164, 0.10087757419056517, 0
6877, -8.122962195966023, 0.15871224842489803, 0
6878, -8.186847997132617, 0.12724565073372163, 0
6879, -8.296991469069942, 0.19975233500248338, 0
6880, -8.292473352396765, 0.13536103486618556, 0
6881, -8.17954260486787, 0.19642257601499574, 0
6882, -8.531889197474086, 0.23069869821199185, 0
6883, -8.733254837676274, -0.23069869821200328, 0
6884, -8.780576793392983, -0.18126262589372344, 0
6885, -8.700418433661545, -0.15189937125178438, 0
6886, -8.651862496176246, -0.1835736172272737, 0
6887, -9.181259086098853, -0.0060024479753481505, 0
6888, -9.205273515707974, -0.0543836666032147, 0
6889, -9.47148011109067, 0.2306986982119909, 0
6890, -9.93905682176938, 0.1134350528765553, 0
6891, -9.967686717026305, 0.17302402365899097, 0
6892, -9.941275567898963, 0.2306986982119904, 0
6893, -7.944644876463724, 0.19416911901753908, 0
6894, -8.062093740665796, 0.19292451366697788, 0
6895, -8.074429405868452, 0.14361848046827985, 0
6896, -8.00305210221351, 0.163613210757797, 0
6897, -10.0, 0.05767467455299226, 0
6898, 5.140721306687613, 0.11537280534620178, 0
6899, 5.1419694476006175, -0.002142970598694933, 0
6900, 5.30113603870174, 0.003441539770308033, 0
6901, 5.030656631789693, 0.1124327084462332, 0
6902, 5.163336652945773, 0.2306986982119994, 0
6903, 5.2206466889867995, 0.0006174948186145404, 0
6904, 5.244941631072292, -0.061229368334308795, 0
6905, 5.3633829659952665, 0.11056130934318006, 0
6906, 5.125463762066769, 0.056446237948516796, 0
6907, 5.329389214074848, 0.058669339136789476, 0
6908, 5.564425717302039, -0.23069869821199562, 0
6909, 5.419670063988356, 0.03660795006624254, 0
6910, 5.303170731514639, 0.11292514117027658, 0
6911, 5.3906456691184435, 0.16757431394019376, 0
6912, 5.854288559667806, 0.2306986982119999, 0
6913, 5.623971257427128, 0.23069869821199973, 0
6914, 5.508812606306789, 0.23069869821199965, 0
6915, 5.45123328074662, 0.1963207958323967, 0
6916, 5.453721822499983, 0.11285373846295974, 0
6917, 5.2627058339093, 0.05794219380534761, 0
6918, 5.069181568851975, 0.06940446132354014, 0
6919, 5.0127546737744115, 0.05764376451922912, 0
6920, 4.9695128236191115, 0.10209192960772684, 0
6921, 5.044911621888235, 0.17075170978288742, 0
6922, 5.222358093314831, 0.15780422652235562, 0
6923, 5.336074629626282, 0.20180885198965126, 0
6924, 5.190663463485922, 0.11903466757870573, 0
6925, 5.248933461017055, 0.11045963815540485, 0
6926, 5.284299940658211, 0.17044313645286613, 0
6927, 5.409178859297212, 0.08702011449459175, 0
6928, 5.535855695066593, 0.030445592657505127, 0
6929, 5.085259298615144, 0.12998779051882078, 0
6930, 5.790162593379248, -0.23069869821199543, 0
6931, 4.9905986762652645, 0.19633323822374577, 0
6932, 5.377040859580452, -0.03943741467308038, 0
6933, 5.314975429464246, -0.07448485855568224, 0
6934, 5.3440149829542385, -0.14998340551825515, 0
6935, 5.642091336183612, -0.01699978724757431, 0
6936, 5.366857495708702, 0.01624227070888932, 0
6937, 5.478947467503887, 0.055861097737040906, 0
6938, 5.473670334178688, -0.04363444025349339, 0
6939, 5.451557279263435, -0.2306986982119957, 0
6940, 5.4264150301991005, -0.01714425219786584, 0
6941, 5.395123060244132, -0.19388923643420203, 0
6942, 5.471645928426797, -0.13823426546429557, 0
6943, 5.406441061929793, -0.12901584668523175, 0
6944, 5.4451621327888, -0.09034594735791648, 0
6945, 5.366147830739425, -0.09262645622100563, 0
6946, 4.928637072829079, 0.17069882245538637, 0
6947, 5.220915978505943, 0.23069869821199945, 0
6948, 5.048178001825434, 0.23069869821199931, 0
6949, 5.105757327385604, 0.19749884387790262, 0
6950, 5.56168580827707, -0.054377400222980925, 0
6951, 5.5079914982827365, -0.1945450632601029, 0
6952, 5.581288140969511, -0.14225473087709684, 0
6953, 5.526373490822872, -0.14279553552649926, 0
6954, 5.585641375049712, -0.0007381417850757833, 0
6955, 5.647506622848492, 0.1079083801964293, 0
6956, 5.593306796462603, 0.06683387508998109, 0
6957, 5.531166027710539, 0.1130525868882707, 0
6958, 5.652423232591118, 0.04512375350952829, 0
6959, 5.506420049495759, 0.16929740556938594, 0
6960, 5.581508358408814, 0.16876779453515528, 0
6961, 5.814609335338732, -0.01377068759160106, 0
6962, 5.596544561611361, 0.11885840370015388, 0
6963, 5.728050663449201, 0.0006250667429848408, 0
6964, 5.566391931866958, 0.23069869821199968, 0
6965, 5.739129908547467, 0.23069869821199981, 0
6966, 5.677294155340643, -0.23069869821199554, 0
6967, 5.644634050949965, 0.17100847560971402, 0
6968, 5.728298895661594, 0.14320180492350323, 0
6969, 5.681550582987297, 0.2306986982119998, 0
6970, 5.694542032993707, 0.18140292315742262, 0
6971, 5.695667216172635, -0.05986685955650875, 0
6972, 5.629141039476933, -0.08809873990483018, 0
6973, 5.77160854798063, -0.07931707653875805, 0
6974, 5.692957489756599, -0.14597936281629142, 0
6975, 5.637146979102907, -0.1433925862456099, 0
6976, 5.7191004865851465, 0.07192923456625376, 0
6977, 5.779626568700692, 0.04331273247526271, 0
6978, 6.335461753072594, 0.03284238930833191, 0
6979, 5.858297111337001, 0.05226380495208116, 0
6980, 5.796709234107636, 0.17915228513116824, 0
6981, 5.7674787523594535, -0.029729556550840468, 0
6982, 5.7477777132878005, -0.14884905168714924, 0
6983, 5.733728374359946, -0.1973249133581699, 0
6984, 5.798085613042151, -0.15289976907594754, 0
6985, 5.724854899510796, -0.10388420210881258, 0
6986, 5.788791766310677, 0.11115405392576101, 0
6987, 5.861738964043359, 0.13712040263017572, 0
6988, 6.015899469456457, -0.23069869821199526, 0
6989, 5.83539111250168, 0.09569099193216433, 0
6990, 5.977606866831204, -0.06665527991618028, 0
6991, 5.903031031417853, -0.23069869821199535, 0
6992, 5.9323285259689165, 0.007228028917436791, 0
6993, 5.84659681239855, -0.19714303864588978, 0
6994, 5.91929167439279, -0.13911777238916062, 0
6995, 5.857592589708657, -0.13636950057054528, 0
6996, 5.891775326000984, -0.06291296856236155, 0
6997, 5.906877988288276, 0.048757155197911684, 0
6998, 5.873867630512418, -0.005506448071020666, 0
6999, 6.306640784384812, 0.15497882437759877, 0
7000, 5.933552507786687, -0.09089815035685764, 0
7001, 5.935705506544779, -0.04151818612057474, 0
7002, 5.83180299563854, -0.07192857241798033, 0
7003, 6.502854137705536, 0.09400511169323095, 0
7004, 6.084605861908483, 0.23069869821200006, 0
7005, 5.995397203468649, -0.004936973900453249, 0
7006, 6.114131597989267, -0.07258542062650795, 0
7007, 6.046586147502111, -0.05311540629740198, 0
7008, 6.028089509019349, -0.1413621570437511, 0
7009, 6.0970392585311615, -0.0049827533187904866, 0
7010, 6.068560032119647, -0.1037829978885021, 0
7011, 6.128767907495062, -0.23069869821199515, 0
7012, 6.133993172887576, -0.15048093378633182, 0
7013, 8.120818172766834, -0.23069869821199354, 0
7014, 6.334843817497246, -0.05871725650889717, 0
7015, 6.183447991361823, 0.01686442302062372, 0
7016, 6.148789794675546, -0.02786049880294214, 0
7017, 6.077497419162979, -0.18707994995433103, 0
7018, 6.185202126514364, -0.19409567376517745, 0
7019, 8.15746158207458, 0.2306986982120016, 0
7020, 6.202214393078209, -0.12225111826488679, 0
7021, 6.243067735461845, -0.16878941305449513, 0
7022, 6.476534073937811, -0.2306986982119949, 0
7023, 7.1812272591502495, -0.23069869821199432, 0
7024, 6.7114318023419575, -0.2306986982119947, 0
7025, 6.283165400874238, -0.09238936653645076, 0
7026, 6.221573882593553, -0.04847116914677537, 0
7027, 6.359085209735738, -0.23069869821199498, 0
7028, 6.300360777634702, -0.2010852619139017, 0
7029, 6.370910148514515, -0.13421647800837871, 0
7030, 6.347655075018698, -0.18033206455371942, 0
7031, 6.419149269821001, -0.18746370694256953, 0
7032, 6.396312665392315, -0.06382122328208237, 0
7033, 6.397059185526224, 0.011013410808001223, 0
7034, 6.426561394493127, -0.13227408399288615, 0
7035, 6.775557768630515, 0.23069869821200056, 0
7036, 6.270712467174819, 0.02399490588220677, 0
7037, 6.278310466251857, -0.03405047854065983, 0
7038, 6.35624846458703, 0.09717592502978896, 0
7039, 6.290732248032545, 0.0804871095417383, 0
7040, 7.23619237311187, 0.2306986982120009, 0
7041, 6.492954470918296, -0.062025799131228146, 0
7042, 6.578551545458964, -0.017125877602543027, 0
7043, 6.545240466389838, 0.2306986982120004, 0
7044, 6.459503564756204, 0.040339199058640376, 0
7045, 6.443963864062909, -0.026875531888538723, 0
7046, 6.199764513028821, 0.23069869821200015, 0
7047, 6.527706953722759, 0.029587405536639647, 0
7048, 6.42983371153498, 0.1086480404342221, 0
7049, 6.526773015499258, -0.022456407476215336, 0
7050, 6.652993403249274, 0.11492687309547456, 0
7051, 6.58037040455067, 0.08690839598782993, 0
7052, 6.445010487247233, -0.0832118322497947, 0
7053, 6.212962042522171, 0.1360403842197725, 0
7054, 6.257343838588991, 0.19868392335293866, 0
7055, 6.399001599645372, 0.06467965143046786, 0
7056, 6.692310497408617, -0.09447156878756932, 0
7057, 6.829273402550274, 0.051067841243532974, 0
7058, 6.642581112223249, 0.03378771291421716, 0
7059, 6.660399117510176, 0.23069869821200048, 0
7060, 6.263915632016185, 0.12515867700535077, 0
7061, 6.223004381840684, 0.07031081502297351, 0
7062, 6.430081815269499, 0.2306986982120003, 0
7063, 6.589587451739814, 0.03471421528546998, 0
7064, 6.37250248970933, 0.18608765722847753, 0
7065, 6.431293408416995, 0.16967065423314623, 0
7066, 6.487661140829669, 0.20131577485867713, 0
7067, 6.481787435795119, 0.14575333774479904, 0
7068, 6.6474745314426364, -0.03808529849859893, 0
7069, 6.5939829381398845, -0.2306986982119948, 0
7070, 6.744836216151447, -0.006686386807513045, 0
7071, 6.63255460553335, -0.09596795209776492, 0
7072, 6.664251717863258, -0.16786552540086908, 0
7073, 6.702061365496886, -0.040699130305516175, 0
7074, 6.591631970025793, 0.16584626389418414, 0
7075, 6.539748530552376, 0.13918705838206127, 0
7076, 6.387668442039759, 0.13737358552276271, 0
7077, 6.714393666423439, 0.06580993671104159, 0
7078, 6.649597657914659, 0.17326687041447358, 0
7079, 6.717978443070345, 0.19013784485439955, 0
7080, 7.005875070871193, 0.23069869821200073, 0
7081, 6.767738069570538, 0.1806497566210561, 0
7082, 6.731823544140426, 0.12752301126876991, 0
7083, 6.602819791950006, 0.23069869821200042, 0
7084, 6.694151766156271, 0.01467013052006473, 0
7085, 6.7703213716647905, 0.04665515942794292, 0
7086, 6.591365412453744, -0.1570626770861796, 0
7087, 6.559757963552634, -0.09132143935603541, 0
7088, 6.535258506038848, -0.19592163156175332, 0
7089, 6.478973063531351, -0.1674056677635322, 0
7090, 6.528629338218561, -0.13919972021318094, 0
7091, 6.652707370240921, -0.23069869821199473, 0
7092, 5.521173326717853, -0.02036981157556117, 0
7093, 5.513132535414875, -0.08624681946424385, 0
7094, 5.620859936321341, -0.20376585372369838, 0
7095, 5.959465250437154, -0.19348482944401973, 0
7096, 5.969447210788145, 0.23069869821199998, 0
7097, 6.046270237364802, 0.11050761056228943, 0
7098, 6.142185187468652, 0.2306986982120001, 0
7099, 6.140713157373318, 0.08985434913237297, 0
7100, 6.191726053728412, 0.18132877809730782, 0
7101, 6.113395524688568, 0.16056972545142628, 0
7102, 6.132616221053748, 0.036108317134229836, 0
7103, 6.071792528582322, 0.05282299634104709, 0
7104, 6.050012312176501, 0.17552328025625108, 0
7105, 6.027026536348314, 0.23069869821200004, 0
7106, 6.096373753810982, 0.11336000374765486, 0
7107, 6.160690745941759, 0.13820591503135268, 0
7108, 7.02504328792659, 0.04290457210113575, 0
7109, 6.839679022670234, 0.17999251717040382, 0
7110, 6.890716419750854, 0.23069869821200065, 0
7111, 6.803101091706961, 0.11804102273294786, 0
7112, 6.9482957453110235, 0.12170478194745497, 0
7113, 6.902879137094005, 0.16741805437326424, 0
7114, 6.871149981290631, 0.10603320500298709, 0
7115, 6.964256152083191, 0.18297918173602795, 0
7116, 6.929108247958554, 0.01844143595826654, 0
7117, 7.086418663044585, 0.11844314861633427, 0
7118, 6.884873336395337, 0.05214278223255885, 0
7119, 6.779432373377412, -0.0869935926181314, 0
7120, 7.121033721991532, 0.2306986982120008, 0
7121, 7.016706025052392, 0.09249797753644741, 0
7122, 7.032933696595456, 0.16509044597832886, 0
7123, 7.09155880542437, 0.17832285214281743, 0
7124, 7.187255695746698, 0.13994765177805357, 0
7125, 7.0634543964313625, 0.23069869821200079, 0
7126, 7.148156564133686, 0.1809535640748888, 0
7127, 6.804420272510683, -0.003197731760818487, 0
7128, 7.007660200926601, -0.004284876944763098, 0
7129, 6.880496863452833, -0.07150736928060981, 0
7130, 6.964634939199402, 0.06525447498323968, 0
7131, 6.9463295307461035, -0.2306986982119945, 0
7132, 6.8288806665440305, -0.23069869821199462, 0
7133, 7.149433028324829, 0.07013204863628196, 0
7134, 7.075316811858255, 0.041644172800504906, 0
7135, 7.1204140963132865, -0.09758310863780251, 0
7136, 7.138545857247798, 0.12118321767153724, 0
7137, 7.351351024232208, 0.23069869821200098, 0
7138, 6.826301771241158, -0.055346409970106286, 0
7139, 6.869564420783805, -0.009217900261728487, 0
7140, 6.951377665009816, -0.05170373508623288, 0
7141, 6.9380909687078445, -0.14089768186728235, 0
7142, 7.031735589539544, -0.08997145949656025, 0
7143, 6.924801258978186, -0.0933313983835529, 0
7144, 7.139431985276402, -0.014505600337901325, 0
7145, 7.259141480492328, 0.055850427503577424, 0
7146, 6.741413863856287, -0.15530443199017946, 0
7147, 7.072213185667064, -0.026579892237077254, 0
7148, 7.371016270152389, 0.08945032196043315, 0
7149, 7.207032605830989, 0.08408045843293122, 0
7150, 7.202979022709774, 0.01439004994249056, 0
7151, 7.195058614202274, -0.05251530678660726, 0
7152, 7.424000078408884, 0.09789290107879457, 0
7153, 7.696826977593226, 0.23069869821200126, 0
7154, 7.4665096753525475, 0.23069869821200106, 0
7155, 7.198402504690162, -0.14240339394041931, 0
7156, 6.770156234442994, -0.23069869821199468, 0
7157, 6.8189872289842866, -0.15374296383612404, 0
7158, 6.882568619076254, -0.1846827513193166, 0
7159, 6.870689958500458, -0.12829354512732036, 0
7160, 5.911867885227975, 0.1881972433515966, 0
7161, 5.932669961028159, 0.11764350968341496, 0
7162, 5.9756590910934, 0.062302307171581056, 0
7163, 5.991492793398635, 0.1462759340923994, 0
7164, 6.0219318082772935, 0.039368972916040704, 0
7165, 7.06066837868465, -0.15739522835302172, 0
7166, 7.581668326472887, 0.23069869821200117, 0
7167, 7.721726938644972, 0.05304669694103477, 0
7168, 7.6510227159585416, -0.23069869821199393, 0
7169, 7.671275685268999, -0.015518650831605724, 0
7170, 7.258654826210276, 0.13378875013122488, 0
7171, 7.496237734379056, 0.08419600751683676, 0
7172, 7.475303625231446, 0.15467754345007595, 0
7173, 7.4161249875543955, -0.23069869821199412, 0
7174, 7.472113418090794, 0.014741697377462226, 0
7175, 7.226450016328732, 0.17738232303335683, 0
7176, 7.318488232188728, 0.030758526649260237, 0
7177, 7.637367788525492, 0.09513242015143188, 0
7178, 7.522663609889018, 0.03610038769209846, 0
7179, 7.408930349792378, 0.19277134653271272, 0
7180, 7.3982267611433175, 0.1424352747360128, 0
7181, 7.317671575259221, 0.0951865756408024, 0
7182, 7.574502823171945, 0.018094513400604847, 0
7183, 7.349252363989471, 0.15824019034186848, 0
7184, 7.291776563004516, 0.192993664971462, 0
7185, 7.671143680372736, 0.13535314932595016, 0
7186, 7.63724243362884, 0.04261097489754972, 0
7187, 7.585658847779587, 0.08592897664678711, 0
7188, 7.171826194531076, -0.09838580760143553, 0
7189, 7.539970143453727, 0.1355348566721783, 0
7190, 7.250769791291206, -0.09544905868793208, 0
7191, 7.789172628236886, 0.014924683493889306, 0
7192, 7.387702545371549, 0.03845885896081679, 0
7193, 7.267787511587112, -0.027203622936600586, 0
7194, 7.649523735994802, 0.1923088671863419, 0
7195, 7.605577238783186, 0.15011785896507623, 0
7196, 7.927144279833903, 0.23069869821200142, 0
7197, 7.2986761233523225, -0.23069869821199424, 0
7198, 7.381031988622399, -0.09168682154576444, 0
7199, 7.266714053102928, -0.16591068619528065, 0
7200, 7.359766343038534, -0.0253530722964354, 0
7201, 7.2194286022403285, -0.19231152135905996, 0
7202, 7.34806345229459, -0.1660563150832318, 0
7203, 7.314760418706032, -0.07516130554617909, 0
7204, 7.428305943294051, -0.03995586724250728, 0
7205, 7.7883726749915985, 0.07841892526123206, 0
7206, 7.440738785053373, -0.09878348506764209, 0
7207, 7.422244800127822, -0.16358665552425294, 0
7208, 7.517829084451475, -0.05899066225903221, 0
7209, 7.8378129616014975, -0.18171480002376117, 0
7210, 7.357400555453359, -0.23069869821199418, 0
7211, 7.30745426709431, -0.1293866633529773, 0
7212, 7.505020499285002, -0.15216921017089513, 0
7213, 7.7289069384720674, -0.005080448347090455, 0
7214, 7.5335738517564685, -0.230698698211994, 0
7215, 6.992703036003641, -0.12975860249569793, 0
7216, 7.0637783949481765, -0.2306986982119944, 0
7217, 7.122502827049213, -0.19148951218447713, 0
7218, 7.524089000912717, 0.19921095772102618, 0
7219, 7.872506129487782, 0.14111936862180707, 0
7220, 7.602596647023246, -0.05713482428592082, 0
7221, 7.619702657663939, -0.007886333506341183, 0
7222, 7.559605685768541, -0.030329090472528193, 0
7223, 7.811985628713565, 0.23069869821200134, 0
7224, 7.725493412988874, 0.1120582259838849, 0
7225, -0.1924112996460059, 5.45123328074662, 0
7226, -0.16062232470573015, 5.51378723042748, 0
7227, -0.17972745718740704, 9.913245471995424, 0
7228, -0.1199816021857966, 9.89561854557155, 0
7229, -0.10800130692087417, 9.947380395112194, 0
7230, -0.19198816529913815, 9.712103372199152, 0
7231, 4.688670833145428, 2.5643946557560975, 0
7232, -0.19531955482416663, -7.00505396284714, 0
7233, -0.19191782076544728, -8.531889197474086, 0
7234, -7.408930349792378, -0.230698698212002, 0
7235, -7.365597712226465, -0.14384393549297458, 0
7236, -7.293771698672039, -0.2306986982120019, 0
7237, -7.267633534164324, -0.11793592809527459, 0
7238, -7.284799069996229, -0.17336776413661442, 0
7239, -7.334218979702021, -0.18329273304533417, 0
7240, -7.825432469574987, -0.11719915975040594, 0
7241, -7.869564954273734, -0.23069869821200245, 0
7242, -9.366627418838139, -0.17971478590148887, 0
7243, -9.395000347959837, -0.1342008332420072, 0
7244, -8.236928875535531, 0.1668589319600531, 0
7245, 7.885920444362688, -0.23069869821199374, 0
7246, 7.659488706267564, -0.07534217849066321, 0
7247, 7.768471580160615, -0.23069869821199385, 0
7248, 7.474849419655432, -0.2075951755548577, 0
7249, 7.592298283857505, -0.16489072273606287, 0
7250, 7.634287985254156, -0.12641503811855412, 0
7251, 7.491659940027745, -0.10286300411229614, 0
7252, 7.5558325501293595, -0.1114000239337983, 0
7253, 7.702996103484919, -0.12856368330126566, 0
7254, 7.847880597908882, 0.039122471818371696, 0
7255, 7.766549576211311, -0.07743919826563608, 0
7256, 7.545238163141946, -0.18200180097762614, 0
7257, 7.592298283857505, -0.23069869821199396, 0
7258, 7.713357023529912, -0.05914050676875075, 0
7259, 7.869162753881249, -0.12063335682413004, 0
7260, 7.847090880369516, -0.0422782161965225, 0
7261, 7.809354082613945, -0.1192340478987651, 0
7262, 7.667168070515642, -0.17462323401639113, 0
7263, 7.709747148059578, -0.2306986982119939, 0
7264, 7.7963063370715675, -0.035775121941032315, 0
7265, 8.061215593562405, -0.024247672923056005, 0
7266, 7.951570199916153, -0.0025876587923047284, 0
7267, 7.8915704031918406, -0.002005564304074371, 0
7268, 7.920923363082936, -0.06898024718058673, 0
7269, 8.001929723419101, -0.14480868617725237, 0
7270, 7.996481851200199, -0.0635884775209826, 0
7271, 7.923989764891719, -0.12381375179655885, 0
7272, 7.894966946206472, -0.17369873241841077, 0
7273, 8.081327853824662, -0.13027041623199143, 0
7274, 8.051401825351396, -0.08102831666358165, 0
7275, 8.00336930856476, -0.23069869821199362, 0
7276, 7.944644876463724, -0.23069869821199368, 0
7277, 7.970553584500821, -0.10612043777974135, 0
7278, 8.05067590344553, -0.18694873161375916, 0
7279, 7.952379704400547, -0.17380924880254478, 0
7280, 7.00505396284714, -0.1965552325128308, 0
7281, 7.78955007380038, 0.15620698813779205, 0
7282, 7.8417667653490915, 0.09456972987765577, 0
7283, 7.921553094067438, 0.07530658738024684, 0
7284, 7.8371796697118326, 0.18248626244236835, 0
7285, 7.754406303153395, 0.20741610240604938, 0
7286, 7.708388974114074, 0.1764522968038167, 0
7287, 8.022790403831458, 0.06958833354222868, 0
7288, 7.955620012617929, 0.15187746475437286, 0
7289, 7.97088036110953, 0.04958442666130519, 0
7290, 8.010111147589985, 0.005404532306180959, 0
7291, 7.909745003321699, 0.17985853657667683, 0
7292, 8.042302930954241, 0.2306986982120015, 0
7293, 7.984723605394072, 0.20694604261374505, 0
7294, 8.032796116782537, 0.14631497831298387, 0
7295, 8.161453353799601, 0.09052140685966917, 0
7296, 8.09988225651441, 0.18148432601973538, 0
7297, 8.08911775761821, 0.09995449511341295, 0
7298, 8.07769415522154, 0.0372856098044825, 0
7299, 8.173808076532184, -0.021426731830304746, 0
7300, 8.11852790617896, -0.06339174351261423, 0
7301, 8.117815730078638, -0.005061033287453734, 0
7302, 8.159518876820606, 0.03365210589421643, 0
7303, 8.216784546499426, 0.060171698213040734, 0
7304, 8.21504090763475, 0.2031753130959152, 0
7305, 9.060409086383416, -0.2306986982119928, 0
7306, 8.387778884315257, 0.23069869821200176, 0
7307, 8.355715901170978, -0.23069869821199337, 0
7308, 8.272620233194917, 0.23069869821200167, 0
7309, 9.078730791037291, 0.23069869821200226, 0
7310, 8.590613629575124, -0.23069869821199318, 0
7311, 8.164783108610841, 0.16384251383772863, 0
7312, 8.103160524269162, -0.1809054893406561, 0
7313, 8.618096186555935, 0.23069869821200192, 0
7314, 8.141029927202544, -0.1345526727294006, 0
7315, 8.230341787929133, 0.1318494387686195, 0
7316, 8.381329973060879, 0.06617030483467361, 0
7317, 8.298375927343312, 0.08186036449122733, 0
7318, 8.313834810693184, -0.06354373021969029, 0
7319, 8.354154087092796, 0.14962608372399192, 0
7320, 8.32802660323582, 0.011488910392639433, 0
7321, 8.344851784366567, 0.10044439400950692, 0
7322, 8.330199558755087, 0.2070704389037602, 0
7323, 8.280825661466011, 0.16872317813388546, 0
7324, 8.269001186775066, 0.028051145583703252, 0
7325, 8.445354052312215, -0.04956103861465055, 0
7326, 8.395894265488566, -0.0013476867893930239, 0
7327, 8.380648182360856, -0.06646381761149665, 0
7328, 8.500574250961241, 0.056562637986762886, 0
7329, 8.34375082803233, -0.14487238749159653, 0
7330, 8.4395036526972, 0.04338911148728268, 0
7331, 8.450670853206772, 0.13976362975892861, 0
7332, 8.238267036968907, -0.23069869821199346, 0
7333, 8.551751651895296, -0.11305047501257413, 0
7334, 8.427865061555128, -0.11491339343669912, 0
7335, 8.502937535435596, 0.23069869821200184, 0
7336, 8.295278680668181, -0.11653593426789213, 0
7337, 8.236668250883328, -0.06626751027138283, 0
7338, 8.288178810933797, -0.184307216106383, 0
7339, 8.215654314954959, -0.15632473322042212, 0
7340, 8.47316476537305, -0.2306986982119933, 0
7341, 8.39971637108693, 0.11831006816942302, 0
7342, 8.405591103308298, 0.17580186055706445, 0
7343, 8.445358209875426, 0.23069869821200178, 0
7344, 8.273889768710864, -0.02632596520821008, 0
7345, 8.177131465608374, -0.08399870984053115, 0
7346, 8.165379386299783, -0.18986886367910424, 0
7347, 8.245117040724727, -0.11571925480459809, 0
7348, 8.550328833597261, 0.1429714612942563, 0
7349, 8.499507984131698, 0.17218172346045402, 0
7350, 8.501392990403081, 0.11362007021881464, 0
7351, 8.82551135797927, -0.230698698211993, 0
7352, 8.560516860995765, 0.20513944532150183, 0
7353, 8.629757160864827, 0.03970741312805248, 0
7354, 8.568656505752905, 0.07488944058215703, 0
7355, 7.759715314294782, -0.16425743922917668, 0
7356, 8.48954401789696, -0.09640304526073759, 0
7357, 8.475878143928224, -0.16288296594714802, 0
7358, 8.542428875450634, -0.023335997771785008, 0
7359, 8.407940217613508, -0.18286941192384476, 0
7360, 8.531889197474086, -0.19908617562209727, 0
7361, 8.577656532274371, 0.01987200187762297, 0
7362, 8.630880221774797, -0.059486112729245845, 0
7363, 8.484756734845664, -0.002635331366286131, 0
7364, 8.576978005208607, -0.06508741956815908, 0
7365, 8.64933806167616, -0.1941899861667726, 0
7366, 8.583124216645917, -0.17426081892122544, 0
7367, 8.67666694460213, -0.009364598703618339, 0
7368, 8.817259934980619, 0.07943787485623019, 0
7369, 8.691410323874322, 0.05168657281216005, 0
7370, 8.733254837676274, 0.230698698212002, 0
7371, 8.608065563118824, 0.17565911846715257, 0
7372, 8.599854596990587, 0.11979587713547919, 0
7373, 8.708062493777197, -0.23069869821199307, 0
7374, 8.61400617124716, -0.11978770346948228, 0
7375, 8.788043904467184, -0.003955470291613022, 0
7376, 8.718217731413503, -0.09329601056366568, 0
7377, 8.848413488796613, 0.2306986982120021, 0
7378, 8.864777031881967, 0.049739625241883544, 0
7379, 8.710198120826616, -0.16177991595160301, 0
7380, 8.766786925878232, -0.1980259468071554, 0
7381, 8.670137469756146, -0.12237721933651974, 0
7382, 8.85452692285471, -0.10943690653471662, 0
7383, 8.82305225545008, -0.16600796007115864, 0
7384, 8.942960222181343, -0.2306986982119929, 0
7385, 8.785573293274505, -0.10811426607684844, 0
7386, 8.884235790080306, -0.19607428586016357, 0
7387, 8.821046181608883, -0.05684697199634947, 0
7388, 8.963644330261557, -0.003016117908694327, 0
7389, 8.897968589544258, -0.044827778265100926, 0
7390, 8.761853218501619, -0.05544293505373542, 0
7391, 8.964465997402533, -0.12711227980691917, 0
7392, 8.936086018691817, -0.17524589478041108, 0
7393, 9.001684654282379, -0.1952664456386476, 0
7394, 9.530204543191708, -0.2306986982119924, 0
7395, 9.063901140810183, -0.1585308158062675, 0
7396, 9.295306814787562, -0.2306986982119926, 0
7397, 9.177857950585489, -0.23069869821199268, 0
7398, 9.119133518484452, -0.1973718240642423, 0
7399, 9.246674191751197, -0.028132292255867566, 0
7400, 9.145729491198775, -0.10086097867888777, 0
7401, 9.115144892228692, -0.1443526437281562, 0
7402, 9.069733896986342, -0.07991849556196559, 0
7403, 9.060112665097856, 0.12520851782205283, 0
7404, 8.847536024587658, -0.0035764904790292753, 0
7405, 8.730080125469707, -0.012400457345420682, 0
7406, 8.957028791090456, -0.06511072196951058, 0
7407, 8.912121964605776, -0.10194421485323689, 0
7408, 9.011074209058807, -0.09007470249404625, 0
7409, 9.157534288691538, 0.06524076412241149, 0
7410, 8.854256124494617, 0.15065676206582398, 0
7411, 9.122548444015703, -0.03662306062748776, 0
7412, 9.539365395518645, 0.2306986982120026, 0
7413, 9.05119222011302, 0.018460035708847675, 0
7414, 8.905146657479317, 0.08860032334701344, 0
7415, 9.000416825837366, 0.03626348115790506, 0
7416, 8.746794318663978, 0.09975910946156283, 0
7417, 8.648451323189649, 0.0923138169574931, 0
7418, 8.751796764784515, 0.04168846621145113, 0
7419, 8.675675512116104, 0.19177142233339722, 0
7420, 8.65108554184303, 0.14504755590877946, 0
7421, 8.735859426264119, 0.16479821671167028, 0
7422, 8.793056948092927, 0.14097593515499118, 0
7423, 8.908051892530226, 0.011819829545559324, 0
7424, 8.905992814356782, 0.1946674740458049, 0
7425, 8.946905483380132, 0.05173519048949804, 0
7426, 8.963572139916952, 0.23069869821200217, 0
7427, 8.977526861316624, 0.12850506357363778, 0
7428, 8.956669622832615, 0.17770655905379307, 0
7429, 9.021151465477121, 0.196253059958651, 0
7430, 9.017325424406646, 0.08942027979571315, 0
7431, 9.22382081562116, -0.15043117858724475, 0
7432, 9.171386683840563, -0.17369970514612812, 0
7433, 9.016796360973055, -0.0305079604798635, 0
7434, 9.090524422692075, 0.06892019711094728, 0
7435, 9.127463039024043, 0.12523726661895887, 0
7436, 9.185823003573416, -0.050091196079096754, 0
7437, 9.19388944215763, 0.23069869821200234, 0
7438, 9.093767177821196, 0.17365684174087193, 0
7439, 9.23428838358132, -0.08910250948444676, 0
7440, 9.321367477615713, -0.1355227920834849, 0
7441, 9.30904809327797, 0.23069869821200242, 0
7442, 9.163064935390508, -0.001641762111831098, 0
7443, 9.155911254714109, 0.18096927746706626, 0
7444, 9.2514687677178, 0.1473589495989298, 0
7445, 9.209147294230299, 0.17967971322169923, 0
7446, 9.194952035108242, 0.11722346231751835, 0
7447, 9.234390631002599, 0.04937689351797824, 0
7448, 9.21149378265075, 0.006020294346866254, 0
7449, 9.44459426310193, 0.04296177274794098, 0
7450, 9.338883280293114, 0.026208825775761134, 0
7451, 9.282072333884875, 0.01720549662936704, 0
7452, 9.299652633323412, 0.0900139349144558, 0
7453, 9.381906803939982, 0.09662494973767899, 0
7454, 9.323621528006669, 0.1590693153839347, 0
7455, 9.424206744398308, 0.2306986982120025, 0
7456, 9.366627418838139, 0.20511634461717207, 0
7457, 9.42220198893404, 0.15762155543732004, 0
7458, 9.37273765294123, 0.14649029095030383, 0
7459, 9.481786069958478, 0.1925530307434215, 0
7460, 9.489428360027457, 0.11123398695600135, 0
7461, 9.390391010874069, 0.04308966100041852, 0
7462, 9.396252975573292, -0.06181871163490083, 0
7463, 9.320494055111823, -0.049280527653851124, 0
7464, 9.436599711076434, 0.09706905933936558, 0
7465, 9.765102271595854, -0.23069869821199224, 0
7466, 9.288265765870253, -0.09273247616517065, 0
7467, 9.35232708648141, -0.09208369219108625, 0
7468, 9.367221023551147, -0.18295764532375594, 0
7469, 9.420936612848003, -0.1446529661935145, 0
7470, 9.52940712406391, -0.10555846896744936, 0
7471, 9.412755678989635, -0.23069869821199251, 0
7472, 9.555285041590738, 0.0191288654604881, 0
7473, 9.47148011109067, -0.1928702427215148, 0
7474, 9.528960624352415, -0.16813396943604114, 0
7475, 9.478649683056007, -0.1347551658238064, 0
7476, 9.470180221706958, -0.06131293166153389, 0
7477, 9.43345101313096, -0.0958289769207116, 0
7478, 9.531519375056885, -0.04096780006677436, 0
7479, 9.43289927462572, -0.015184209579086727, 0
7480, 9.490461360375852, 0.0034873483713207046, 0
7481, 9.647653407393781, -0.23069869821199232, 0
7482, 9.51171067664715, 0.05756934327773713, 0
7483, 9.656259086309902, -0.14578346589125574, 0
7484, 9.553970742663546, 0.10657460630791542, 0
7485, 9.607430931103613, -0.07578013990711004, 0
7486, 9.769682697759322, 0.23069869821200276, 0
7487, 9.588928975292744, -0.19823640232106068, 0
7488, 9.539606113842288, 0.16780569103117285, 0
7489, 9.654524046638983, 0.23069869821200267, 0
7490, 9.596944721078815, 0.19947211455688119, 0
7491, 9.687501045609805, 0.10119261667041529, 0
7492, 9.65464436151449, 0.16177771721315343, 0
7493, 9.600265672287506, 0.14154731639124626, 0
7494, 9.731367409534812, 0.1641843634276631, 0
7495, 9.585365686268474, -0.13507215942973058, 0
7496, 9.706377839494817, -0.19375640291443946, 0
7497, 9.820032175974543, -0.04864882887569028, 0
7498, 9.74660611719498, -0.10156198144944387, 0
7499, 9.709556015402327, -0.14026932401478634, 0
7500, 9.679635479789246, -0.07454424636268098, 0
7501, 9.64215972337537, 0.0050806833780164505, 0
7502, 9.616538197609005, 0.07187896960063632, 0
7503, 9.712103372199152, 0.23069869821200273, 0
7504, 9.884841348879661, 0.23069869821200284, 0
7505, 9.59324022418529, -0.02179717494439254, 0
7506, 9.748138661434131, 0.006328533649449936, 0
7507, 9.729536124074192, -0.04736336645224517, 0
7508, 9.752444705407923, 0.10273673651859085, 0
7509, 10.0, 5.440092820663267e-15, 0
7510, 9.721069601168944, 0.05583783077731653, 0
7511, 9.820009788409383, 0.15877698106835023, 0
7512, 9.77695359092954, 0.18221748886536654, 0
7513, 9.827262023319491, 0.23069869821200278, 0
7514, 9.84900622310157, 0.05506720448700478, 0
7515, 9.811363628472389, 0.10045110762562644, 0
7516, 9.791383351731682, 0.045576117090352676, 0
7517, 9.236582382686525, -0.23069869821199265, 0
7518, 9.277434714149447, -0.17464917230813182, 0
7519, 9.847963613931052, -0.16597327473033527, 0
7520, 10.0, 0.11534934910600418, 0
7521, 9.86519559559417, 0.12227490424735066, 0
7522, 9.886188017379428, 0.17446294539363663, 0
7523, 9.94242067443983, 0.20394354039561807, 0
7524, 9.93293335888133, 0.12534374922249147, 0
7525, 10.0, 0.17302402365900355, 0
7526, 9.957127195899112, 0.057674674553004804, 0
7527, 9.902585281042347, 0.07633378162102036, 0
7528, 9.90951941436893, -0.022487057354239833, 0
7529, 9.950063679049647, 0.0076517571348401715, 0
7530, 9.805611652812159, -0.10604007438899501, 0
7531, 9.774584752549867, -0.16486882184663665, 0
7532, 9.855121870365968, -0.002546361612849976, 0
7533, 9.881151077380917, -0.09158015855789661, 0
7534, 9.823826703696891, -0.23069869821199218, 0
7535, 9.882551135797927, -0.23069869821199213, 0
7536, 8.790834163236443, 0.20428546655457386, 0
7537, 10.0, -0.1153493491059933, 0
7538, 9.895714173240892, -0.18206069427261387, 0
7539, 9.94572391029825, -0.07772225252165917, 0
7540, 9.9234247783571, -0.131188341291827, 0
7541, 9.958605100184217, -0.18333464114684606, 0
7542, 10.0, -0.05767467455299393, 0
7543, -0.16410199351981933, 6.808016938142857, 0
7544, -0.23069869821200156, 6.833137094190684, 0
7545, -0.16580263832048842, 6.943313100113353, 0
*ELEMENT, TYPE=CPS3
1, 1042, 1411, 1041
2, 2187, 1923, 1887
3, 1042, 1325, 1411
4, 1658, 1938, 1939
5, 1659, 1939, 349
6, 1411, 397, 1324
7, 1909, 1928, 1908
8, 1043, 1325, 1042
9, 1038, 1039, 1326
10, 1988, 1962, 1835
11, 5051, 326, 325
12, 395, 1412, 396
13, 1040, 1324, 1412
14, 889, 1300, 888
15, 1412, 395, 1326
16, 1413, 1326, 394
17, 1325, 1043, 2116
18, 942, 943, 1918
19, 2116, 401, 400
20, 1144, 1923, 1143
21, 1294, 2109, 1048
22, 1977, 1832, 1911
23, 404, 2109, 1294
24, 1046, 2110, 1327
25, 1862, 1916, 1917
26, 2110, 402, 1327
27, 1315, 565, 1408
28, 1325, 398, 1411
29, 246, 1301, 1406
30, 401, 2116, 1327
31, 401, 1327, 402
32, 162, 1308, 163
33, 399, 1325, 2116
34, 1215, 1315, 1214
35, 802, 803, 1308
36, 1327, 2116, 1045
37, 1909, 1907, 1927
38, 5078, 156, 5075
39, 1749, 1886, 1750
40, 1328, 1035, 1293
41, 392, 1293, 393
42, 1813, 1898, 1811
43, 1037, 1038, 1413
44, 1293, 1035, 1036
45, 1808, 1892, 1788
46, 1328, 1414, 1034
47, 1920, 1874, 1539
48, 1329, 1586, 1033
49, 1589, 388, 387
50, 1589, 1031, 1376
51, 1668, 1856, 1671
52, 1941, 1940, 288
53, 1588, 1377, 1587
54, 224, 1868, 225
55, 1293, 392, 1328
56, 1880, 1741, 2226
57, 1576, 633, 632
58, 957, 1574, 1833
59, 712, 1323, 711
60, 726, 1321, 725
61, 1047, 2109, 2110
62, 390, 389, 1329
63, 1413, 393, 1293
64, 390, 1329, 1414
65, 1590, 1589, 387
66, 1055, 1331, 1054
67, 1337, 249, 248
68, 2122, 243, 242
69, 1587, 1028, 1029
70, 386, 385, 1377
71, 1303, 1343, 871
72, 1588, 1590, 1377
73, 171, 1435, 172
74, 1329, 389, 1376
75, 1326, 1413, 1038
76, 1646, 1377, 385
77, 970, 971, 2117
78, 2825, 2283, 1952
79, 1405, 1050, 1295
80, 1897, 1898, 1809
81, 1330, 1295, 1052
82, 1923, 1886, 1143
83, 1740, 1880, 1540
84, 1051, 1295, 1050
85, 1787, 1892, 26
86, 1331, 1415, 1054
87, 1283, 1577, 1836
88, 405, 404, 1294
89, 398, 1325, 399
90, 407, 406, 1295
91, 1295, 1330, 407
92, 5074, 8, 7
93, 1405, 405, 1294
94, 1033, 1034, 1414
95, 409, 408, 1330
96, 1294, 1048, 1049
97, 1055, 1056, 1592
98, 1533, 225, 1868
99, 412, 411, 1378
100, 1670, 1856, 1521
101, 1851, 1850, 1657
102, 1591, 1592, 1378
103, 1916, 1699, 1917
104, 1642, 1643, 1514
105, 1116, 1117, 1335
106, 409, 1331, 410
107, 1059, 1639, 1058
108, 1331, 1591, 410
109, 1577, 1837, 1836
110, 2177, 1060, 2131
111, 1643, 1058, 1639
112, 1638, 1498, 973
113, 543, 1844, 544
114, 1053, 1415, 1330
115, 1735, 1874, 1727
116, 238, 1341, 239
117, 1574, 318, 317
118, 1643, 412, 1378
119, 414, 1642, 1640
120, 1643, 1642, 413
121, 662, 1810, 1812
122, 2309, 2011, 3003
123, 2021, 2310, 2131
124, 489, 1439, 490
125, 546, 1393, 1614
126, 415, 1644, 416
127, 1462, 82, 81
128, 2011, 2002, 2307
129, 417, 2307, 2002
130, 556, 1359, 557
131, 416, 1644, 2310
132, 1577, 636, 635
133, 3003, 2022, 2309
134, 252, 251, 1596
135, 2313, 2315, 2022
136, 1560, 1797, 1798
137, 1796, 1797, 1795
138, 1785, 1786, 1554
139, 2320, 2319, 2023
140, 1065, 1066, 2317
141, 1561, 1806, 1804
142, 2024, 2313, 2314
143, 1622, 1218, 1219
144, 2023, 2319, 5257
145, 2319, 421, 5257
146, 2025, 3005, 2323
147, 1429, 1431, 1345
148, 1037, 1413, 1293
149, 423, 2322, 2323
150, 873, 1407, 1303
151, 3005, 3007, 2323
152, 2022, 2312, 2313
153, 97, 1903, 98
154, 308, 1508, 1509
155, 1831, 1122, 1950
156, 955, 956, 1304
157, 4064, 1951, 4057
158, 1350, 1437, 1436
159, 1617, 1844, 1618
160, 1028, 1645, 1027
161, 1648, 2178, 1027
162, 1648, 1027, 1645
163, 1357, 553, 552
164, 2132, 1025, 1026
165, 384, 1647, 1516
166, 794, 1838, 1579
167, 1825, 96, 1847
168, 2325, 2026, 2333
169, 2334, 2027, 2339
170, 1024, 2325, 2333
171, 2328, 2327, 2333
172, 63, 2673, 2677
173, 1517, 1649, 2326
174, 1560, 1806, 1794
175, 560, 559, 1449
176, 1909, 1927, 1928
177, 2336, 2335, 2339
178, 2331, 2027, 2330
179, 377, 2028, 2338
180, 1588, 1029, 1030
181, 95, 94, 1401
182, 1022, 2334, 2339
183, 151, 1452, 152
184, 2342, 1020, 1021
185, 130, 2719, 1924
186, 2343, 2344, 2342
187, 2029, 2349, 3057
188, 879, 1425, 1341
189, 1443, 1442, 628
190, 375, 2346, 376
191, 377, 3009, 2343
192, 2029, 2346, 2349
193, 1335, 471, 1419
194, 1814, 1813, 665
195, 1480, 493, 492
196, 1792, 1796, 1799
197, 2168, 1787, 25
198, 3058, 3057, 1019
199, 3028, 1016, 3029
200, 3013, 3507, 3012
201, 3027, 1015, 3024
202, 1790, 1781, 145
203, 374, 373, 2350
204, 1770, 1775, 1773
205, 1760, 1763, 542
206, 1756, 1888, 1769
207, 1843, 1751, 495
208, 3037, 3038, 3041
209, 3038, 3043, 1012
210, 2188, 1757, 1546
211, 1014, 3027, 3026
212, 504, 503, 1883
213, 3029, 3507, 3013
214, 1559, 1800, 1801
215, 3017, 3013, 3014
216, 3028, 3029, 3020
217, 3042, 3046, 3051
218, 650, 1492, 1493
219, 1107, 1108, 1680
220, 3019, 3023, 3031
221, 1433, 1474, 1434
222, 3055, 1010, 3052
223, 1735, 1727, 828
224, 3069, 3067, 1009
225, 1608, 1715, 946
226, 2416, 2414, 3063
227, 1005, 2411, 2404
228, 1722, 1721, 816
229, 3064, 3068, 3070
230, 825, 826, 1733
231, 3033, 3032, 3025
232, 1540, 1738, 1879
233, 1463, 1467, 1380
234, 2181, 936, 937
235, 560, 1449, 1361
236, 1659, 1850, 1658
237, 3044, 1012, 3043
238, 28, 1809, 1816
239, 3515, 3071, 3514
240, 1595, 464, 1686
241, 1625, 146, 1781
242, 1010, 3055, 3056
243, 315, 1585, 1304
244, 3062, 3070, 2415
245, 1940, 1917, 289
246, 2393, 5258, 359
247, 2403, 2379, 2382
248, 358, 2385, 2387
249, 1860, 1676, 1859
250, 1527, 1679, 1109
251, 2402, 2370, 2377
252, 1687, 1689, 1528
253, 362, 2413, 2416
254, 3036, 3040, 3035
255, 2394, 2405, 2393
256, 1661, 1524, 1665
257, 1005, 2404, 2396
258, 1695, 1694, 1531
259, 1580, 1684, 336
260, 2396, 2404, 2405
261, 1868, 1532, 1709
262, 2388, 2387, 2381
263, 2384, 357, 2380
264, 1655, 1518, 1650
265, 1624, 1221, 1780
266, 1403, 704, 1635
267, 2401, 2365, 2369
268, 355, 2374, 2372
269, 1664, 1661, 1665
270, 2378, 356, 2373
271, 1675, 454, 1858
272, 2409, 2410, 361
273, 1404, 1635, 705
274, 2368, 2371, 2366
275, 2326, 1649, 382
276, 2366, 2360, 2362
277, 2356, 2358, 2031
278, 2355, 2400, 353
279, 1465, 1594, 334
280, 2356, 1965, 2289
281, 353, 2353, 2355
282, 1641, 1639, 1059
283, 568, 1619, 569
284, 1964, 2005, 1937
285, 1938, 1851, 1935
286, 1913, 1936, 1963
287, 1031, 1589, 1030
288, 895, 896, 1841
289, 1659, 349, 348
290, 1474, 1609, 174
291, 2884, 2723, 2290
292, 733, 1846, 732
293, 1938, 1658, 1851
294, 222, 2051, 2480
295, 1399, 1626, 1495
296, 1473, 1512, 1387
297, 348, 347, 1650
298, 1518, 1651, 1657
299, 783, 784, 1553
300, 348, 1650, 1659
301, 990, 1651, 1653
302, 991, 1651, 990
303, 661, 2171, 660
304, 1827, 702, 703
305, 1664, 1663, 1519
306, 1653, 1651, 1654
307, 1661, 1852, 1681
308, 2328, 2326, 381
309, 1656, 989, 1653
310, 186, 185, 1726
311, 1336, 476, 1573
312, 1913, 2270, 1938
313, 546, 1614, 547
314, 1215, 1578, 1315
315, 1864, 1704, 1530
316, 1518, 1659, 1650
317, 1710, 1868, 224
318, 1507, 1470, 1382
319, 1457, 1455, 1367
320, 1939, 1938, 2270
321, 5082, 1070, 5091
322, 1767, 1768, 1549
323, 1761, 1762, 1548
324, 1775, 1774, 1773
325, 1071, 1072, 5504
326, 5505, 5092, 1071
327, 1750, 2187, 1751
328, 2032, 5081, 5080
329, 1483, 1392, 1486
330, 5084, 2032, 5080
331, 5080, 5082, 5091
332, 5086, 426, 5087
333, 1150, 2159, 1149
334, 1513, 1509, 1508
335, 5090, 5507, 428
336, 153, 1503, 154
337, 5512, 5510, 1072
338, 712, 1461, 1323
339, 5175, 5176, 5034
340, 1541, 1743, 1744
341, 1882, 1743, 1152
342, 825, 1734, 824
343, 1077, 5181, 5158
344, 5172, 1075, 5170
345, 1725, 1726, 1537
346, 5175, 5177, 5169
347, 5151, 434, 5152
348, 1723, 1720, 1536
349, 1717, 945, 1716
350, 1708, 935, 936
351, 5137, 5144, 5140
352, 5632, 1080, 5141
353, 1529, 1696, 1698
354, 5150, 5148, 5037
355, 2044, 2045, 2458
356, 5156, 5152, 5154
357, 1526, 1677, 1678
358, 5131, 5124, 5136
359, 1336, 1573, 1572
360, 5171, 5172, 5174
361, 5155, 5157, 5161
362, 5152, 433, 5154
363, 1587, 1645, 1028
364, 1193, 1393, 1615
365, 5149, 5148, 435
366, 228, 1605, 229
367, 1682, 1685, 979
368, 5037, 5168, 5150
369, 5632, 5141, 5144
370, 5145, 5128, 5140
371, 1704, 1703, 1530
372, 1603, 1711, 865
373, 5129, 5130, 5131
374, 1695, 1531, 1697
375, 5173, 5175, 5169
376, 1662, 347, 346
377, 1084, 5112, 5119
378, 450, 1668, 1671
379, 5109, 5107, 5038
380, 1647, 1517, 2178
381, 1418, 1638, 1332
382, 5115, 5110, 5112
383, 1851, 1912, 1935
384, 5113, 5103, 5102
385, 988, 1663, 1664
386, 5039, 5110, 5111
387, 2310, 1644, 1515
388, 5106, 5107, 5109
389, 5097, 5099, 2432
390, 1653, 1654, 1652
391, 5107, 5108, 5115
392, 1683, 1684, 1525
393, 5093, 5095, 1088
394, 5125, 5127, 5123
395, 5127, 5130, 5120
396, 1623, 1624, 1396
397, 1546, 1756, 1774
398, 1553, 1552, 1782
399, 2427, 5093, 1089
400, 1762, 1845, 1548
401, 2431, 2136, 2140
402, 1840, 1383, 893
403, 386, 1590, 387
404, 2424, 2033, 2420
405, 1608, 1607, 1534
406, 2431, 2138, 2430
407, 1605, 1604, 1344
408, 2421, 2423, 3073
409, 1814, 1899, 1900
410, 2422, 2420, 2033
411, 1520, 1666, 2134
412, 1584, 1375, 1583
413, 2420, 2421, 2424
414, 501, 2552, 502
415, 2136, 2135, 2137
416, 2034, 2421, 3073
417, 449, 1666, 450
418, 1567, 66, 1822
419, 2634, 2170, 24
420, 635, 634, 1837
421, 1263, 2189, 2188
422, 1753, 1271, 1272
423, 1093, 1094, 2135
424, 2135, 1667, 1520
425, 461, 2147, 462
426, 1853, 1666, 1520
427, 1854, 1669, 1673
428, 1454, 1487, 787
429, 1734, 825, 1732
430, 450, 1666, 1668
431, 1521, 1674, 1673
432, 1521, 1673, 1669
433, 1382, 1527, 1471
434, 1401, 1628, 1627
435, 1624, 1780, 1551
436, 1364, 154, 1503
437, 1493, 1400, 1496
438, 1521, 1672, 1670
439, 1711, 1603, 1533
440, 455, 454, 1675
441, 2144, 2145, 2142
442, 1345, 1513, 950
443, 1676, 1522, 1675
444, 1398, 1553, 1491
445, 1593, 1594, 1380
446, 2433, 2035, 2439
447, 2036, 2148, 2435
448, 2436, 2037, 460
449, 1857, 1667, 1095
450, 70, 1634, 1404
451, 2438, 2038, 2441
452, 1298, 1573, 475
453, 456, 2442, 457
454, 1391, 1484, 1485
455, 2141, 1522, 1861
456, 383, 382, 1649
457, 2443, 2035, 2039
458, 1478, 1390, 1481
459, 1471, 1111, 1507
460, 2039, 2142, 2143
461, 1469, 1507, 1112
462, 2434, 2038, 2439
463, 2037, 2441, 2440
464, 1365, 1452, 1453
465, 1278, 1441, 1354
466, 1204, 1359, 1447
467, 461, 2435, 2147
468, 2147, 2148, 1523
469, 720, 1459, 719
470, 2437, 2036, 2037
471, 1465, 1380, 1594
472, 1861, 1100, 2141
473, 1861, 1676, 1860
474, 1678, 1108, 1679
475, 1333, 1418, 1497
476, 1613, 1614, 1393
477, 1815, 1818, 30
478, 1698, 932, 933
479, 988, 1664, 1665
480, 1503, 1502, 1364
481, 2141, 1100, 1101
482, 1542, 1843, 1610
483, 342, 341, 2444
484, 1681, 2150, 1524
485, 1563, 1816, 1898
486, 344, 343, 1681
487, 1497, 1418, 1417
488, 986, 2179, 2151
489, 983, 984, 2445
490, 985, 986, 2151
491, 2041, 2450, 2448
492, 556, 1447, 1359
493, 2451, 2447, 340
494, 333, 1464, 1465
495, 1585, 1584, 1304
496, 1660, 345, 1852
497, 2449, 2042, 2454
498, 869, 1604, 868
499, 1683, 1525, 1682
500, 1530, 1707, 1706
501, 2060, 1723, 1722
502, 2452, 2042, 339
503, 1853, 1674, 1668
504, 1682, 979, 980
505, 1594, 335, 334
506, 1594, 1593, 1580
507, 1463, 975, 976
508, 1753, 1759, 1547
509, 1549, 1771, 1764
510, 1465, 1464, 1379
511, 1747, 1744, 1884
512, 1417, 1416, 331
513, 2185, 829, 830
514, 2450, 2041, 2451
515, 1640, 1644, 415
516, 1453, 1452, 151
517, 1382, 1595, 1527
518, 2042, 2452, 2454
519, 1487, 1397, 1488
520, 1685, 978, 979
521, 1593, 1380, 1467
522, 1139, 1477, 1478
523, 1525, 1685, 1682
524, 1527, 1526, 1679
525, 1434, 1435, 1349
526, 1379, 1466, 1463
527, 250, 1423, 1338
528, 1332, 1638, 974
529, 1638, 1418, 1498
530, 1346, 311, 1429
531, 1466, 974, 975
532, 1500, 1441, 1279
533, 334, 333, 1465
534, 1416, 1417, 1332
535, 2118, 1497, 328
536, 330, 1497, 1417
537, 970, 2117, 1296
538, 1498, 971, 972
539, 1810, 1811, 1897
540, 970, 1296, 5054
541, 1795, 771, 1796
542, 1050, 1405, 1294
543, 1113, 1114, 1422
544, 970, 5054, 969
545, 954, 955, 1584
546, 5053, 968, 5054
547, 967, 5058, 966
548, 1369, 90, 89
549, 5058, 5053, 1297
550, 1613, 1393, 1194
551, 2118, 1296, 2117
552, 1411, 1324, 1041
553, 329, 328, 1497
554, 1459, 1372, 84
555, 18, 1784, 1783
556, 948, 949, 1473
557, 2229, 2226, 2225
558, 462, 2147, 1677
559, 1471, 1527, 1110
560, 463, 462, 1677
561, 891, 1423, 890
562, 1527, 1595, 1526
563, 1678, 1677, 1523
564, 1759, 1753, 1544
565, 1777, 574, 1891
566, 1506, 465, 1595
567, 467, 1468, 468
568, 1506, 1470, 1505
569, 1816, 1815, 29
570, 773, 774, 1801
571, 1469, 1422, 1381
572, 1782, 1789, 782
573, 464, 1595, 465
574, 608, 607, 2713
575, 1469, 1112, 1113
576, 405, 1405, 406
577, 1193, 1194, 1393
578, 650, 651, 1492
579, 1114, 1115, 1334
580, 468, 1468, 1421
581, 397, 1411, 398
582, 1334, 1421, 1422
583, 1115, 2121, 1334
584, 1420, 1419, 470
585, 1838, 1934, 1579
586, 1458, 1369, 727
587, 1118, 1298, 2119
588, 1117, 2119, 1335
589, 1468, 467, 1505
590, 2120, 474, 473
591, 329, 1497, 330
592, 1111, 1112, 1507
593, 1430, 1345, 951
594, 1826, 1821, 701
595, 324, 5050, 5051
596, 1304, 1834, 316
597, 323, 1297, 5052
598, 1675, 1858, 1676
599, 2217, 302, 301
600, 5050, 5054, 5051
601, 1566, 1630, 1846
602, 321, 5055, 5056
603, 2205, 1556, 652
604, 5055, 964, 965
605, 964, 5055, 5057
606, 2208, 1894, 1793
607, 959, 1909, 1908
608, 320, 1299, 5057
609, 5058, 5056, 5055
610, 964, 1299, 963
611, 1878, 1882, 1153
612, 1296, 327, 326
613, 1660, 1852, 1661
614, 471, 470, 1419
615, 1375, 1582, 1583
616, 947, 948, 1472
617, 1949, 1829, 1831
618, 473, 472, 1335
619, 1119, 1572, 1298
620, 1830, 1336, 1121
621, 1876, 1736, 2220
622, 1865, 1864, 1691
623, 2120, 1335, 2119
624, 1755, 1888, 1756
625, 1298, 475, 474
626, 1572, 1573, 1298
627, 1672, 1914, 1855
628, 1564, 2249, 1901
629, 1121, 1336, 1120
630, 943, 1871, 1918
631, 1948, 2267, 942
632, 1383, 1840, 1598
633, 703, 1403, 1827
634, 2291, 2885, 1347
635, 1432, 1435, 171
636, 1876, 1920, 1539
637, 1717, 1714, 1718
638, 1975, 1976, 959
639, 1336, 477, 476
640, 2032, 3007, 3008
641, 1937, 2269, 2270
642, 1971, 1969, 2291
643, 1563, 1814, 1817
644, 6408, 6397, 6398
645, 507, 1742, 508
646, 1735, 1539, 1874
647, 2810, 2819, 2813
648, 2819, 2821, 2813
649, 188, 1728, 1729
650, 505, 1747, 1885
651, 5183, 5182, 5191
652, 1258, 1767, 1257
653, 5185, 5186, 5188
654, 1754, 1759, 1544
655, 909, 2824, 3383
656, 5192, 5191, 5182
657, 1758, 1753, 1547
658, 5182, 5184, 907
659, 2813, 2809, 2812
660, 611, 1771, 1769
661, 2788, 2795, 2785
662, 945, 1717, 944
663, 1709, 1711, 1533
664, 1698, 933, 1866
665, 2775, 2784, 2778
666, 2774, 2781, 2772
667, 179, 178, 1723
668, 2786, 2777, 2791
669, 3380, 3379, 3381
670, 2807, 912, 2803
671, 3380, 3384, 3376
672, 2823, 2824, 909
673, 1511, 1490, 148
674, 307, 1508, 308
675, 2802, 913, 2799
676, 1397, 1454, 1453
677, 2768, 918, 2765
678, 932, 1695, 931
679, 1685, 1525, 1580
680, 1448, 1359, 1205
681, 2456, 3075, 3076
682, 1820, 1821, 1565
683, 2206, 1801, 774
684, 1794, 1795, 1560
685, 2463, 901, 2461
686, 3078, 2044, 3075
687, 1815, 1816, 1563
688, 2457, 3075, 2044
689, 896, 897, 1687
690, 1574, 1834, 1833
691, 628, 1442, 629
692, 1688, 256, 1690
693, 1688, 257, 256
694, 1197, 1198, 2127
695, 257, 1688, 2045
696, 255, 254, 1842
697, 2461, 2047, 2463
698, 1403, 68, 1828
699, 2474, 2472, 2473
700, 2709, 1789, 1558
701, 265, 264, 2466
702, 3079, 3081, 5183
703, 1439, 1436, 1351
704, 3080, 2465, 2466
705, 1785, 653, 1786
706, 263, 2464, 264
707, 153, 1450, 1503
708, 3077, 2459, 2456
709, 260, 2463, 2462
710, 2476, 2047, 2469
711, 887, 1406, 1301
712, 649, 650, 1493
713, 263, 262, 2470
714, 1586, 1376, 1032
715, 1424, 1339, 884
716, 903, 2468, 902
717, 2705, 1550, 2164
718, 813, 814, 1476
719, 1440, 1442, 1354
720, 1687, 1841, 896
721, 1941, 1945, 1947
722, 1506, 1595, 1382
723, 929, 1702, 1915
724, 1576, 1575, 1312
725, 1564, 1814, 1900
726, 2276, 2278, 1947
727, 314, 1375, 1585
728, 931, 1697, 930
729, 925, 2273, 2281
730, 1511, 1625, 1398
731, 287, 1943, 1941
732, 1943, 1942, 1945
733, 410, 1591, 411
734, 926, 2272, 2277
735, 1393, 546, 1616
736, 1944, 1946, 2279
737, 1697, 931, 1695
738, 1604, 1605, 1386
739, 1865, 1691, 1529
740, 1272, 1273, 1545
741, 934, 935, 1703
742, 1485, 1484, 626
743, 1705, 294, 293
744, 1704, 934, 1703
745, 620, 2161, 621
746, 292, 1692, 1691
747, 1698, 1696, 932
748, 928, 929, 1915
749, 1453, 1489, 1397
750, 1693, 290, 1701
751, 1694, 1692, 1693
752, 1513, 1508, 1473
753, 1697, 1531, 1700
754, 1259, 1768, 1258
755, 1307, 1569, 1568
756, 1529, 1692, 1694
757, 653, 654, 1786
758, 867, 1386, 1601
759, 2782, 2786, 915
760, 2145, 1675, 1522
761, 2740, 2743, 2747
762, 1654, 1655, 1652
763, 1648, 1645, 1516
764, 2754, 2753, 2766
765, 2179, 1665, 1524
766, 2740, 2749, 2750
767, 1707, 935, 1708
768, 2809, 2804, 2812
769, 3374, 2801, 2806
770, 2794, 2800, 2792
771, 1581, 1370, 707
772, 771, 1795, 770
773, 2793, 2795, 2788
774, 1551, 1778, 1891
775, 2731, 2732, 923
776, 2762, 2765, 2764
777, 1639, 1641, 1514
778, 2747, 2743, 2745
779, 1480, 1611, 493
780, 2732, 2731, 2728
781, 2725, 2728, 2280
782, 1632, 1631, 1368
783, 2738, 2735, 2739
784, 1657, 1651, 991
785, 93, 1631, 1402
786, 2784, 2776, 2778
787, 2814, 918, 2768
788, 2771, 2769, 2767
789, 450, 1671, 451
790, 1698, 1704, 1865
791, 919, 2766, 2764
792, 1691, 1864, 1705
793, 2177, 1059, 1060
794, 920, 2748, 2752
795, 2731, 2729, 2728
796, 1610, 1611, 1389
797, 1519, 1660, 1661
798, 1403, 1635, 1634
799, 303, 1713, 304
800, 624, 1510, 625
801, 890, 1423, 1337
802, 1698, 1865, 1529
803, 893, 1383, 892
804, 1853, 1667, 1857
805, 1401, 1847, 95
806, 1596, 1597, 1383
807, 1669, 1854, 1860
808, 1840, 893, 894
809, 887, 888, 1300
810, 1752, 1883, 503
811, 887, 1300, 1406
812, 889, 1337, 1300
813, 890, 1337, 889
814, 1561, 1807, 1895
815, 1736, 2185, 2219
816, 1755, 1889, 613
817, 1841, 1599, 895
818, 2217, 1718, 1870
819, 394, 1326, 395
820, 1338, 1596, 251
821, 469, 1420, 470
822, 254, 253, 1384
823, 1600, 1842, 1384
824, 1052, 1053, 1330
825, 1598, 252, 1383
826, 1597, 891, 892
827, 807, 808, 2123
828, 248, 247, 1300
829, 2296, 2948, 3457
830, 1200, 1313, 1199
831, 249, 1337, 250
832, 710, 1322, 709
833, 1337, 248, 1300
834, 1300, 247, 1406
835, 876, 877, 1342
836, 251, 250, 1338
837, 1687, 1528, 1841
838, 887, 1301, 886
839, 1928, 1927, 318
840, 1424, 885, 1301
841, 5760, 5766, 5756
842, 404, 403, 2109
843, 243, 1339, 244
844, 245, 1424, 1301
845, 886, 1301, 885
846, 884, 1339, 883
847, 189, 1920, 1737
848, 1339, 2122, 883
849, 880, 881, 1340
850, 2122, 1340, 881
851, 1340, 2122, 241
852, 1577, 1931, 636
853, 2122, 1339, 243
854, 1924, 1896, 2242
855, 1118, 1119, 1298
856, 1676, 1914, 1859
857, 880, 1340, 1425
858, 234, 233, 1407
859, 1050, 1294, 1049
860, 1133, 1134, 2125
861, 237, 1426, 238
862, 237, 1342, 1426
863, 1133, 1310, 5062
864, 239, 1425, 240
865, 1950, 1954, 1925
866, 879, 1341, 878
867, 878, 1426, 877
868, 1341, 1426, 878
869, 959, 1908, 958
870, 1916, 1702, 1699
871, 876, 1427, 875
872, 1729, 1920, 1875
873, 1342, 236, 1427
874, 1340, 241, 240
875, 875, 1302, 874
876, 1911, 1832, 1930
877, 953, 1583, 952
878, 2258, 2257, 2251
879, 1709, 863, 864
880, 488, 487, 1350
881, 1280, 1281, 1575
882, 1202, 1203, 1358
883, 2050, 2507, 2477
884, 221, 2478, 222
885, 809, 810, 1499
886, 1710, 2480, 1532
887, 1601, 866, 867
888, 239, 1341, 1425
889, 1532, 1868, 1710
890, 2051, 2481, 2479
891, 1819, 1822, 65
892, 1385, 226, 1712
893, 228, 1386, 1605
894, 2152, 862, 863
895, 2478, 2508, 2050
896, 1448, 1360, 558
897, 2482, 2491, 859
898, 1581, 707, 708
899, 2503, 2505, 2501
900, 543, 1618, 1844
901, 1039, 1412, 1326
902, 2488, 2489, 2497
903, 1470, 1507, 1469
904, 2500, 2494, 2495
905, 1794, 1802, 769
906, 2492, 860, 2507
907, 1561, 1895, 1802
908, 2485, 2483, 2484
909, 858, 2483, 2485
910, 1810, 663, 1811
911, 2482, 2052, 2483
912, 28, 1816, 29
913, 2503, 2501, 2502
914, 2493, 2498, 2482
915, 476, 475, 1573
916, 771, 772, 1796
917, 1427, 876, 1342
918, 7020, 7026, 7016
919, 1120, 1336, 1572
920, 4, 1318, 5
921, 1303, 232, 1343
922, 2112, 167, 166
923, 724, 1320, 723
924, 235, 234, 1302
925, 1895, 1807, 1924
926, 1302, 873, 874
927, 232, 1303, 233
928, 1303, 871, 872
929, 1745, 1883, 1746
930, 1302, 1407, 873
931, 1302, 234, 1407
932, 2191, 1889, 1757
933, 230, 1343, 231
934, 1427, 235, 1302
935, 869, 870, 1428
936, 1040, 1041, 1324
937, 864, 865, 1711
938, 1532, 2152, 1709
939, 1934, 1933, 159
940, 1344, 229, 1605
941, 1034, 1035, 1328
942, 1603, 865, 866
943, 870, 1343, 1428
944, 869, 1344, 1604
945, 1864, 1865, 1704
946, 300, 2218, 301
947, 867, 868, 1386
948, 1385, 1601, 1602
949, 1847, 1630, 1566
950, 1666, 1853, 1668
951, 1601, 1385, 1603
952, 1676, 1858, 1914
953, 1599, 1841, 1600
954, 1344, 1428, 230
955, 330, 1417, 331
956, 2223, 2219, 2221
957, 1567, 1828, 67
958, 1332, 1417, 1418
959, 1345, 1430, 1429
960, 2252, 2263, 2254
961, 949, 950, 1513
962, 2943, 2295, 1980
963, 305, 1606, 306
964, 564, 1408, 565
965, 1396, 571, 1621
966, 93, 92, 1631
967, 950, 951, 1345
968, 1513, 1345, 1509
969, 390, 1414, 1328
970, 1387, 1472, 1473
971, 943, 1718, 1871
972, 1354, 1444, 1277
973, 238, 1426, 1341
974, 1499, 1432, 1348
975, 1607, 1608, 1606
976, 1713, 1714, 1716
977, 469, 468, 1421
978, 1718, 1869, 1717
979, 1608, 947, 1472
980, 1451, 1450, 1365
981, 1583, 954, 1584
982, 720, 721, 1372
983, 1362, 567, 1578
984, 11, 10, 1366
985, 1585, 315, 314
986, 955, 1304, 1584
987, 1378, 411, 1591
988, 314, 313, 1375
989, 1431, 1509, 1345
990, 1430, 951, 952
991, 309, 1431, 310
992, 1431, 1429, 310
993, 1808, 27, 1892
994, 1560, 1805, 1806
995, 311, 310, 1429
996, 1790, 1782, 1552
997, 956, 1833, 1304
998, 1438, 491, 490
999, 1496, 1456, 1367
1000, 1512, 1473, 1508
1001, 2153, 2181, 937
1002, 1640, 1641, 2177
1003, 2510, 2512, 2056
1004, 1476, 1475, 813
1005, 1505, 467, 466
1006, 2153, 1535, 2181
1007, 1456, 1494, 14
1008, 2055, 2510, 2509
1009, 1349, 1499, 810
1010, 1705, 1706, 1867
1011, 189, 188, 1875
1012, 2153, 2155, 1535
1013, 2509, 297, 2156
1014, 988, 989, 1663
1015, 295, 1719, 296
1016, 1801, 1793, 1559
1017, 298, 297, 2509
1018, 1480, 1479, 1390
1019, 1713, 303, 2182
1020, 1715, 1534, 1716
1021, 1607, 304, 1713
1022, 1608, 946, 947
1023, 1753, 1758, 1271
1024, 1543, 2159, 2160
1025, 1606, 1512, 306
1026, 1732, 1537, 1734
1027, 570, 1621, 571
1028, 2264, 2265, 2267
1029, 2218, 1919, 1948
1030, 942, 1918, 1948
1031, 1681, 343, 2699
1032, 1665, 987, 988
1033, 943, 1869, 1718
1034, 1933, 1934, 1835
1035, 1702, 1700, 1699
1036, 2265, 2266, 2267
1037, 718, 1462, 717
1038, 2061, 818, 2059
1039, 1259, 1260, 1770
1040, 343, 342, 2699
1041, 1285, 1910, 1284
1042, 1598, 1384, 253
1043, 1834, 1304, 1833
1044, 1960, 1966, 1967
1045, 2231, 2225, 2227
1046, 1717, 1869, 944
1047, 958, 1574, 957
1048, 315, 1304, 316
1049, 1827, 1826, 702
1050, 312, 1346, 1582
1051, 1845, 1618, 1548
1052, 313, 1582, 1375
1053, 1853, 1857, 1674
1054, 957, 1833, 956
1055, 1585, 1375, 1584
1056, 1899, 1814, 665
1057, 1791, 1893, 1792
1058, 1574, 958, 1908
1059, 1569, 164, 163
1060, 1874, 1920, 1729
1061, 1570, 161, 1305
1062, 1900, 1899, 666
1063, 1831, 1829, 1905
1064, 162, 1570, 1308
1065, 1887, 2238, 2187
1066, 801, 1305, 800
1067, 166, 2113, 2112
1068, 1998, 1962, 1996
1069, 1308, 1568, 1569
1070, 801, 802, 1570
1071, 1221, 1624, 1220
1072, 2111, 2112, 2113
1073, 1935, 1936, 1913
1074, 167, 1306, 168
1075, 2300, 1996, 2001
1076, 1697, 1863, 930
1077, 1963, 1964, 1937
1078, 1308, 1570, 802
1079, 1349, 811, 1433
1080, 609, 1890, 1766
1081, 171, 170, 1432
1082, 1557, 2171, 2172
1083, 1559, 1799, 1800
1084, 1435, 1434, 172
1085, 2188, 1776, 1262
1086, 170, 1348, 1432
1087, 176, 175, 1636
1088, 1728, 187, 1873
1089, 1474, 174, 173
1090, 1434, 173, 172
1091, 877, 1426, 1342
1092, 1609, 175, 174
1093, 2186, 1155, 1156
1094, 1475, 1476, 1388
1095, 170, 169, 1348
1096, 2157, 1752, 502
1097, 1849, 1056, 1057
1098, 807, 1306, 806
1099, 722, 1460, 721
1100, 805, 1307, 804
1101, 1568, 804, 1307
1102, 9, 2129, 10
1103, 806, 1306, 2111
1104, 895, 1599, 894
1105, 1213, 1408, 1314
1106, 810, 811, 1349
1107, 1138, 1139, 1478
1108, 809, 1348, 808
1109, 2123, 2124, 1306
1110, 729, 730, 1402
1111, 1349, 1432, 1499
1112, 1033, 1414, 1329
1113, 1419, 1420, 1334
1114, 2123, 1306, 807
1115, 804, 1568, 803
1116, 1435, 1432, 1349
1117, 1479, 1438, 1390
1118, 1565, 1819, 1820
1119, 646, 1504, 1366
1120, 1717, 1716, 1714
1121, 205, 204, 5513
1122, 1651, 1518, 1654
1123, 5569, 203, 202
1124, 1693, 1701, 1531
1125, 2449, 2454, 981
1126, 5513, 5515, 5040
1127, 1661, 1681, 1524
1128, 5561, 5570, 5562
1129, 5219, 5220, 5041
1130, 1154, 1155, 1740
1131, 5526, 5531, 206
1132, 1592, 1331, 1055
1133, 1386, 228, 1602
1134, 5524, 5528, 5523
1135, 161, 1570, 162
1136, 5516, 5517, 5518
1137, 200, 5553, 5555
1138, 1622, 1621, 1395
1139, 5538, 5043, 5552
1140, 1518, 1655, 1654
1141, 1218, 1622, 1395
1142, 413, 412, 1643
1143, 5227, 195, 2531
1144, 5231, 5044, 5233
1145, 1859, 1672, 1669
1146, 5540, 197, 5233
1147, 1529, 1694, 1696
1148, 5043, 5548, 5550
1149, 5543, 5544, 5546
1150, 5543, 5043, 5542
1151, 449, 2698, 2134
1152, 1914, 1858, 453
1153, 5230, 5236, 5226
1154, 1677, 1686, 463
1155, 5227, 5229, 195
1156, 199, 5552, 5553
1157, 1668, 1674, 1856
1158, 840, 5554, 5550
1159, 2057, 2504, 5194
1160, 1460, 1372, 721
1161, 5207, 5206, 211
1162, 1438, 1481, 1390
1163, 1280, 1500, 1279
1164, 5200, 5045, 5201
1165, 1332, 974, 1466
1166, 5208, 851, 5204
1167, 17, 1784, 18
1168, 2500, 2495, 855
1169, 1770, 1772, 1768
1170, 5199, 852, 853
1171, 5215, 5197, 853
1172, 1550, 1777, 1891
1173, 2057, 5195, 2506
1174, 609, 1766, 1764
1175, 5201, 5204, 851
1176, 2057, 2503, 2504
1177, 1727, 1730, 827
1178, 5535, 5536, 5537
1179, 1870, 1718, 1714
1180, 5514, 5574, 5575
1181, 5564, 5566, 5570
1182, 184, 183, 2710
1183, 5581, 5515, 5514
1184, 225, 1712, 226
1185, 1759, 1754, 622
1186, 5219, 209, 5220
1187, 1540, 1880, 1742
1188, 5529, 5211, 5041
1189, 5523, 848, 5524
1190, 1541, 1748, 1743
1191, 5210, 850, 5208
1192, 2224, 2220, 2219
1193, 2080, 540, 2079
1194, 5521, 5522, 5519
1195, 5559, 5555, 5557
1196, 1691, 1705, 293
1197, 1662, 1656, 1652
1198, 449, 448, 2698
1199, 2521, 820, 2063
1200, 1612, 623, 1754
1201, 1536, 1722, 1723
1202, 728, 1632, 1368
1203, 1655, 1662, 1652
1204, 2515, 2059, 2516
1205, 1378, 1592, 1056
1206, 178, 177, 1720
1207, 184, 1872, 185
1208, 1483, 1510, 1392
1209, 1691, 293, 292
1210, 1224, 2163, 1223
1211, 183, 182, 2517
1212, 2517, 2183, 2710
1213, 1570, 1305, 801
1214, 1537, 1726, 1724
1215, 2519, 2063, 182
1216, 1488, 1397, 1490
1217, 1433, 1475, 1388
1218, 2061, 2060, 1722
1219, 2179, 987, 1665
1220, 816, 1721, 815
1221, 176, 1848, 177
1222, 1443, 1484, 1391
1223, 1722, 1536, 1721
1224, 1421, 1468, 1381
1225, 1495, 1400, 1493
1226, 2712, 2183, 2711
1227, 1724, 1872, 2183
1228, 820, 821, 2518
1229, 1494, 1456, 1400
1230, 1450, 1451, 1503
1231, 2521, 2520, 2058
1232, 1462, 1371, 82
1233, 1391, 1444, 1443
1234, 2514, 818, 819
1235, 1636, 1476, 1637
1236, 2184, 1537, 1724
1237, 194, 193, 2522
1238, 312, 1582, 313
1239, 1740, 1155, 2186
1240, 1805, 133, 1804
1241, 191, 190, 1921
1242, 2224, 2714, 2716
1243, 1385, 1602, 227
1244, 2523, 2064, 2522
1245, 1609, 1636, 175
1246, 194, 2530, 2531
1247, 2715, 2716, 2714
1248, 834, 2525, 833
1249, 1607, 1606, 305
1250, 1394, 1616, 545
1251, 2224, 1877, 2220
1252, 1495, 1626, 16
1253, 1921, 190, 1737
1254, 194, 2522, 2530
1255, 1727, 827, 828
1256, 1501, 1500, 1352
1257, 1732, 1733, 1731
1258, 1873, 1726, 1725
1259, 413, 1642, 414
1260, 945, 946, 1715
1261, 1730, 1538, 1731
1262, 1730, 826, 827
1263, 1876, 1735, 1736
1264, 829, 1735, 828
1265, 1033, 1586, 1032
1266, 1597, 1596, 1338
1267, 30, 1818, 31
1268, 1538, 1729, 1728
1269, 654, 655, 2706
1270, 317, 316, 1834
1271, 1730, 1727, 1538
1272, 1875, 1920, 189
1273, 2009, 1988, 1991
1274, 1667, 1094, 1095
1275, 1351, 1137, 1481
1276, 384, 1646, 385
1277, 1367, 1504, 647
1278, 1693, 1692, 291
1279, 1711, 1709, 864
1280, 1782, 1790, 1558
1281, 2305, 3500, 800
1282, 1708, 1706, 1707
1283, 1481, 1438, 1351
1284, 1911, 1931, 1910
1285, 5756, 5766, 5755
1286, 4108, 1979, 4101
1287, 1722, 816, 817
1288, 1556, 1555, 1626
1289, 1738, 507, 506
1290, 97, 96, 1825
1291, 566, 1578, 567
1292, 1740, 1739, 1878
1293, 1880, 1740, 1741
1294, 1742, 507, 1738
1295, 1151, 1152, 1743
1296, 1647, 384, 383
1297, 1488, 1491, 785
1298, 1153, 1154, 1878
1299, 1541, 1747, 1745
1300, 147, 1511, 148
1301, 1742, 1738, 1540
1302, 1752, 1746, 1883
1303, 1589, 1588, 1030
1304, 1470, 1506, 1382
1305, 1881, 2226, 2229
1306, 252, 1598, 253
1307, 2235, 510, 2230
1308, 1844, 1394, 544
1309, 1402, 1628, 93
1310, 2532, 2534, 1159
1311, 1387, 1608, 1472
1312, 2532, 2533, 2066
1313, 1779, 573, 572
1314, 508, 1742, 1922
1315, 1331, 1592, 1591
1316, 2235, 2230, 2234
1317, 2547, 2546, 2066
1318, 1906, 1905, 477
1319, 1881, 2229, 2230
1320, 290, 289, 2180
1321, 2537, 2541, 2536
1322, 508, 1922, 509
1323, 974, 1638, 973
1324, 1510, 1612, 1392
1325, 2556, 499, 2069
1326, 1450, 1452, 1365
1327, 2159, 2158, 1149
1328, 1367, 648, 1496
1329, 1958, 1959, 1122
1330, 2157, 2552, 2551
1331, 1379, 1463, 1465
1332, 2554, 2069, 2558
1333, 1141, 1142, 1749
1334, 1392, 1612, 1545
1335, 1389, 1611, 1480
1336, 1382, 1471, 1507
1337, 2070, 498, 2238
1338, 1923, 1750, 1886
1339, 91, 1458, 1368
1340, 1542, 1749, 1750
1341, 1748, 1150, 1151
1342, 1201, 1446, 1357
1343, 1878, 1744, 1882
1344, 500, 2550, 501
1345, 1352, 631, 1501
1346, 503, 502, 1752
1347, 1883, 1745, 504
1348, 451, 1670, 452
1349, 1752, 2157, 1543
1350, 1794, 769, 770
1351, 453, 452, 1855
1352, 1751, 496, 495
1353, 1583, 1582, 1346
1354, 2187, 497, 496
1355, 2238, 498, 497
1356, 1386, 1602, 1601
1357, 2069, 2559, 2558
1358, 1640, 1642, 1514
1359, 1701, 290, 2180
1360, 2550, 2556, 2068
1361, 1748, 1151, 1743
1362, 1843, 1611, 1610
1363, 1623, 1219, 1220
1364, 464, 463, 1686
1365, 3885, 3888, 1173
1366, 1885, 1879, 1738
1367, 610, 1771, 611
1368, 1144, 1887, 1923
1369, 3871, 3874, 3870
1370, 3876, 1175, 3871
1371, 1747, 505, 1745
1372, 3879, 3884, 3875
1373, 5289, 519, 5287
1374, 1703, 935, 1707
1375, 1848, 1720, 177
1376, 1870, 302, 2217
1377, 5324, 1171, 4146
1378, 5303, 5300, 5296
1379, 1725, 1537, 1732
1380, 5293, 5304, 5294
1381, 4146, 4143, 4142
1382, 933, 934, 1866
1383, 3859, 1178, 3856
1384, 1769, 1772, 1770
1385, 1778, 1780, 1222
1386, 1776, 1261, 1262
1387, 532, 2560, 533
1388, 3516, 3087, 3088
1389, 1762, 1190, 1845
1390, 3860, 1179, 3861
1391, 2173, 1790, 144
1392, 3864, 3851, 3855
1393, 3088, 3517, 3520
1394, 3860, 3856, 1178
1395, 1556, 1492, 651
1396, 454, 453, 1858
1397, 3861, 3516, 3088
1398, 224, 223, 1710
1399, 76, 1461, 77
1400, 3859, 3858, 1177
1401, 1689, 1688, 1528
1402, 3865, 3857, 3866
1403, 514, 5260, 5273
1404, 1516, 1647, 1648
1405, 516, 5271, 5272
1406, 1096, 1673, 1674
1407, 1679, 1108, 1109
1408, 5263, 5267, 5262
1409, 1851, 1658, 1850
1410, 5280, 5275, 5276
1411, 347, 1662, 1655
1412, 2542, 2543, 2541
1413, 1683, 337, 1684
1414, 5265, 5273, 5267
1415, 5271, 516, 5268
1416, 346, 1660, 1662
1417, 2542, 5274, 514
1418, 1691, 1692, 1529
1419, 5269, 5280, 5281
1420, 2537, 2539, 2541
1421, 1664, 1519, 1661
1422, 1171, 1172, 4146
1423, 3889, 1173, 3888
1424, 4142, 4143, 4144
1425, 1684, 1580, 1525
1426, 1622, 1623, 1621
1427, 5321, 5320, 5322
1428, 1849, 1058, 1643
1429, 1709, 1533, 1868
1430, 5284, 518, 5282
1431, 5292, 5289, 5283
1432, 5285, 5277, 5279
1433, 1693, 1531, 1694
1434, 2480, 1710, 223
1435, 5300, 5303, 5305
1436, 945, 1715, 1716
1437, 338, 337, 1683
1438, 3877, 1175, 3876
1439, 3873, 3868, 3869
1440, 729, 1402, 1632
1441, 954, 1583, 953
1442, 1786, 654, 2706
1443, 1797, 1792, 1798
1444, 1482, 1391, 1483
1445, 1135, 1350, 1134
1446, 1464, 1416, 1379
1447, 1381, 1422, 1421
1448, 869, 1428, 1344
1449, 1137, 1138, 1481
1450, 1136, 1137, 1351
1451, 75, 1410, 1323
1452, 1437, 1351, 1436
1453, 5061, 1131, 5062
1454, 92, 91, 1368
1455, 977, 978, 1593
1456, 623, 1612, 624
1457, 5063, 485, 484
1458, 1133, 5062, 1132
1459, 70, 69, 1634
1460, 1309, 5067, 5061
1461, 1133, 2125, 1310
1462, 1474, 1433, 1388
1463, 1139, 1140, 1477
1464, 1440, 1441, 1501
1465, 1478, 1389, 1480
1466, 1611, 494, 493
1467, 1541, 1745, 1746
1468, 1758, 1547, 2702
1469, 1477, 1610, 1389
1470, 492, 491, 1479
1471, 1820, 1819, 2676
1472, 2126, 487, 486
1473, 1436, 488, 1350
1474, 1436, 489, 488
1475, 1789, 1782, 1558
1476, 1802, 1794, 1561
1477, 1438, 490, 1439
1478, 1808, 1562, 1897
1479, 1769, 1773, 1756
1480, 1478, 1477, 1389
1481, 716, 717, 1374
1482, 2126, 1310, 2125
1483, 1128, 5064, 1127
1484, 146, 1625, 147
1485, 1309, 5060, 482
1486, 5060, 483, 482
1487, 1914, 453, 1855
1488, 5064, 5066, 1127
1489, 228, 227, 1602
1490, 5064, 5065, 480
1491, 349, 1939, 350
1492, 1126, 1127, 1311
1493, 5064, 5067, 5065
1494, 1311, 5066, 479
1495, 1152, 1153, 1882
1496, 1791, 1894, 136
1497, 5067, 1129, 1130
1498, 1831, 1906, 1830
1499, 2182, 1870, 1714
1500, 130, 1924, 131
1501, 1574, 317, 1834
1502, 5059, 5063, 483
1503, 1575, 1576, 1352
1504, 1681, 1852, 344
1505, 1594, 1580, 335
1506, 631, 1352, 632
1507, 1565, 1826, 1567
1508, 1705, 1864, 1530
1509, 992, 993, 1912
1510, 667, 2249, 666
1511, 1836, 1837, 1312
1512, 1735, 1876, 1539
1513, 1312, 634, 633
1514, 1961, 1977, 1978
1515, 1769, 1888, 611
1516, 1283, 1284, 1577
1517, 630, 629, 1440
1518, 1823, 1846, 733
1519, 486, 485, 1310
1520, 2264, 1919, 300
1521, 2184, 1734, 1537
1522, 1954, 1952, 2283
1523, 2702, 1547, 2161
1524, 1723, 178, 1720
1525, 1905, 1906, 1831
1526, 1685, 1593, 978
1527, 2561, 2072, 619
1528, 2703, 2072, 2162
1529, 290, 1693, 291
1530, 2570, 2073, 2565
1531, 1612, 1510, 624
1532, 1549, 1772, 1771
1533, 1759, 621, 2161
1534, 1740, 1540, 1879
1535, 621, 1759, 622
1536, 1544, 1545, 1612
1537, 1746, 1752, 1543
1538, 2072, 2564, 2563
1539, 2570, 2569, 2073
1540, 1538, 1727, 1729
1541, 616, 615, 2566
1542, 1696, 1695, 932
1543, 1398, 1625, 1553
1544, 1488, 1511, 1398
1545, 613, 612, 1755
1546, 1889, 1755, 1757
1547, 1221, 1222, 1780
1548, 2189, 2191, 1757
1549, 1381, 1468, 1505
1550, 2567, 2075, 2074
1551, 614, 2192, 615
1552, 2190, 2193, 2074
1553, 465, 1506, 466
1554, 1456, 1496, 1400
1555, 1889, 614, 613
1556, 1610, 1477, 1140
1557, 1261, 1776, 1774
1558, 2075, 2570, 2568
1559, 1673, 1097, 1854
1560, 1416, 1464, 332
1561, 1278, 1354, 1277
1562, 1817, 1815, 1563
1563, 1501, 1441, 1500
1564, 1443, 627, 1484
1565, 1482, 1444, 1391
1566, 1483, 1274, 1275
1567, 772, 1800, 1799
1568, 1500, 1280, 1575
1569, 80, 1374, 81
1570, 1577, 1284, 1910
1571, 1632, 728, 729
1572, 1282, 1312, 1281
1573, 1575, 1281, 1312
1574, 1580, 1593, 1685
1575, 1312, 1282, 1836
1576, 976, 977, 1467
1577, 1488, 785, 786
1578, 629, 1442, 1440
1579, 1545, 1273, 1486
1580, 1545, 1753, 1272
1581, 553, 1446, 554
1582, 1271, 1758, 1270
1583, 2702, 2162, 2701
1584, 1441, 1440, 1354
1585, 2701, 1269, 1270
1586, 1453, 151, 150
1587, 710, 1410, 1322
1588, 1444, 1354, 1443
1589, 1275, 1276, 1482
1590, 1466, 1416, 1332
1591, 230, 1428, 1343
1592, 1275, 1482, 1483
1593, 1274, 1486, 1273
1594, 1334, 1422, 1114
1595, 1483, 1485, 1510
1596, 1349, 1433, 1434
1597, 1633, 1404, 706
1598, 627, 626, 1484
1599, 1808, 1788, 1562
1600, 728, 1458, 727
1601, 1604, 1386, 868
1602, 1546, 1774, 1776
1603, 707, 1633, 706
1604, 1645, 1587, 1516
1605, 3089, 2586, 3086
1606, 1726, 185, 1872
1607, 1617, 1191, 1192
1608, 1058, 1849, 1057
1609, 1616, 546, 545
1610, 1676, 1861, 1522
1611, 1719, 1867, 1706
1612, 1394, 1617, 1615
1613, 1672, 1859, 1914
1614, 1355, 1613, 1195
1615, 1760, 542, 541
1616, 1312, 1837, 634
1617, 471, 1335, 472
1618, 1618, 1845, 1617
1619, 547, 1614, 1355
1620, 1415, 409, 1330
1621, 1445, 1195, 1196
1622, 1615, 1616, 1394
1623, 1445, 1356, 548
1624, 1611, 1843, 494
1625, 1356, 549, 548
1626, 1740, 1879, 1739
1627, 1198, 1199, 1313
1628, 1891, 1778, 1550
1629, 1810, 1897, 1562
1630, 1313, 2127, 1198
1631, 1884, 1885, 1747
1632, 1313, 1200, 1357
1633, 74, 1410, 75
1634, 549, 1356, 550
1635, 479, 478, 1311
1636, 552, 551, 1313
1637, 1313, 1357, 552
1638, 1321, 88, 1409
1639, 550, 1356, 2127
1640, 389, 388, 1376
1641, 1200, 1201, 1357
1642, 1355, 1445, 548
1643, 1728, 1873, 1725
1644, 885, 1424, 884
1645, 2588, 2077, 2583
1646, 133, 1798, 134
1647, 133, 1805, 1798
1648, 1806, 1805, 1804
1649, 537, 2571, 538
1650, 1185, 2572, 1184
1651, 1812, 1788, 2172
1652, 1184, 2574, 1183
1653, 1354, 1442, 1443
1654, 534, 3085, 2585
1655, 2575, 2583, 2077
1656, 2585, 2584, 535
1657, 1140, 1141, 1610
1658, 393, 1413, 394
1659, 2574, 2573, 2077
1660, 240, 1425, 1340
1661, 2577, 2576, 2580
1662, 3089, 3086, 1181
1663, 3084, 539, 2579
1664, 1818, 1564, 2253
1665, 870, 871, 1343
1666, 1763, 543, 542
1667, 1763, 1618, 543
1668, 811, 812, 1433
1669, 1192, 1193, 1615
1670, 1548, 1763, 1760
1671, 1210, 2114, 2115
1672, 538, 2571, 2580
1673, 1478, 1481, 1138
1674, 1760, 541, 2080
1675, 1762, 1761, 1189
1676, 1202, 1358, 1446
1677, 2579, 539, 2581
1678, 790, 1451, 789
1679, 384, 1516, 1646
1680, 2590, 3083, 1187
1681, 1824, 1823, 1902
1682, 732, 1629, 731
1683, 232, 231, 1343
1684, 1122, 1830, 1121
1685, 1201, 1202, 1446
1686, 553, 1357, 1446
1687, 1204, 1447, 1203
1688, 1940, 289, 288
1689, 509, 1922, 1881
1690, 554, 1446, 1358
1691, 1285, 1978, 1911
1692, 1447, 1358, 1203
1693, 805, 806, 2111
1694, 1358, 1447, 555
1695, 1839, 1835, 1962
1696, 557, 1359, 1448
1697, 559, 558, 1360
1698, 563, 562, 2114
1699, 555, 1447, 556
1700, 320, 319, 1299
1701, 1205, 1359, 1204
1702, 1213, 1314, 1212
1703, 1206, 1207, 1360
1704, 1963, 1936, 994
1705, 1449, 559, 1360
1706, 2885, 2291, 1969
1707, 1880, 1922, 1742
1708, 1207, 1208, 1449
1709, 993, 994, 1936
1710, 1208, 1209, 1361
1711, 2292, 2890, 3421
1712, 1361, 561, 560
1713, 1211, 1314, 2114
1714, 1361, 2115, 561
1715, 1285, 1911, 1910
1716, 563, 2114, 1314
1717, 1209, 2115, 1361
1718, 1307, 2113, 164
1719, 1862, 1915, 1916
1720, 1206, 1360, 1448
1721, 1574, 1928, 318
1722, 1052, 1295, 1051
1723, 1045, 1046, 1327
1724, 327, 2118, 328
1725, 2116, 1043, 1044
1726, 644, 645, 2128
1727, 2284, 2830, 3385
1728, 1315, 1578, 566
1729, 563, 1314, 564
1730, 568, 567, 1362
1731, 1396, 1551, 1779
1732, 1928, 1574, 1908
1733, 879, 880, 1425
1734, 1429, 1430, 1346
1735, 570, 569, 1395
1736, 1395, 1621, 570
1737, 891, 1338, 1423
1738, 572, 571, 1396
1739, 1619, 568, 1362
1740, 873, 1303, 872
1741, 1408, 564, 1314
1742, 1315, 1408, 1213
1743, 1578, 1215, 1216
1744, 1891, 573, 1779
1745, 505, 1885, 506
1746, 1315, 1213, 1214
1747, 1808, 1897, 1809
1748, 1362, 1578, 1216
1749, 452, 1672, 1855
1750, 1624, 1623, 1220
1751, 1619, 1620, 1395
1752, 1623, 1622, 1219
1753, 1726, 1873, 186
1754, 1705, 1867, 294
1755, 1217, 1218, 1620
1756, 1100, 1861, 1099
1757, 1885, 1884, 1879
1758, 565, 1315, 566
1759, 1211, 1212, 1314
1760, 1551, 1396, 1624
1761, 1825, 1903, 97
1762, 1295, 406, 1405
1763, 2697, 1903, 1824
1764, 1931, 1577, 1910
1765, 3181, 3182, 3180
1766, 2453, 1683, 1682
1767, 3184, 3172, 3171
1768, 1702, 929, 1863
1769, 1521, 1856, 1674
1770, 3171, 3182, 3184
1771, 1916, 1915, 1702
1772, 3183, 3523, 3177
1773, 5243, 5242, 603
1774, 1396, 1621, 1623
1775, 1378, 1849, 1643
1776, 1656, 1653, 1652
1777, 3529, 599, 3524
1778, 3905, 3906, 3903
1779, 1656, 1663, 989
1780, 3900, 3894, 3896
1781, 3156, 3163, 3154
1782, 1195, 1613, 1194
1783, 3135, 3153, 3140
1784, 1370, 1404, 1633
1785, 3128, 3130, 3134
1786, 1603, 1385, 1712
1787, 1120, 1572, 1119
1788, 592, 3153, 3141
1789, 1614, 1613, 1355
1790, 3128, 3137, 3144
1791, 2132, 2178, 1517
1792, 3898, 3900, 3896
1793, 600, 3905, 3903
1794, 3526, 1246, 3522
1795, 1686, 1677, 1526
1796, 1671, 1856, 1670
1797, 1245, 3521, 3178
1798, 1518, 1657, 1850
1799, 3127, 589, 3122
1800, 3145, 3150, 3157
1801, 989, 990, 1653
1802, 3901, 3904, 3902
1803, 610, 609, 1764
1804, 630, 1501, 631
1805, 1096, 1097, 1673
1806, 504, 1745, 505
1807, 1890, 2195, 1765
1808, 1766, 1549, 1764
1809, 1444, 1482, 1276
1810, 1258, 1768, 1767
1811, 1756, 1546, 1755
1812, 1773, 1774, 1756
1813, 1770, 1768, 1259
1814, 610, 1764, 1771
1815, 612, 611, 1888
1816, 1483, 1486, 1274
1817, 1769, 1770, 1773
1818, 1636, 1637, 1848
1819, 2593, 2592, 2601
1820, 1807, 132, 131
1821, 605, 604, 2594
1822, 952, 1583, 1346
1823, 2598, 5239, 1252
1824, 2082, 2594, 2597
1825, 1402, 730, 1627
1826, 1617, 1394, 1844
1827, 1251, 5237, 5240
1828, 2592, 2595, 2602
1829, 734, 1823, 733
1830, 1767, 2196, 1257
1831, 2204, 2196, 2199
1832, 2198, 2199, 2196
1833, 892, 1383, 1597
1834, 1587, 1377, 1646
1835, 2600, 2601, 2599
1836, 1352, 1576, 632
1837, 1534, 1715, 1608
1838, 2202, 2593, 2081
1839, 1601, 1603, 866
1840, 652, 1556, 651
1841, 1536, 1720, 1848
1842, 662, 663, 1810
1843, 580, 579, 2604
1844, 233, 1303, 1407
1845, 2083, 2604, 2605
1846, 1384, 1598, 1840
1847, 2086, 2084, 2621
1848, 2620, 2605, 2619
1849, 1395, 569, 1619
1850, 2608, 2083, 2606
1851, 3096, 2622, 2624
1852, 1351, 1437, 1136
1853, 580, 2608, 2612
1854, 2609, 2608, 2606
1855, 1783, 2205, 1785
1856, 2611, 2085, 2614
1857, 1509, 309, 308
1858, 3097, 2611, 2613
1859, 1793, 1791, 1559
1860, 2121, 1419, 1334
1861, 575, 574, 1777
1862, 1205, 1206, 1448
1863, 2163, 1778, 1223
1864, 573, 1891, 574
1865, 495, 494, 1843
1866, 1577, 635, 1837
1867, 1222, 1223, 1778
1868, 1550, 2163, 2164
1869, 577, 576, 2625
1870, 2620, 2619, 1227
1871, 2086, 2626, 2084
1872, 2704, 2086, 2164
1873, 1811, 664, 1813
1874, 1798, 1805, 1560
1875, 1777, 1550, 2705
1876, 1795, 1797, 1560
1877, 1925, 1949, 1950
1878, 720, 1372, 1459
1879, 548, 547, 1355
1880, 1846, 1823, 1566
1881, 3132, 3134, 3130
1882, 306, 1512, 307
1883, 3170, 3115, 3168
1884, 173, 1434, 1474
1885, 3167, 3168, 585
1886, 3111, 3105, 3107
1887, 791, 1502, 790
1888, 3138, 3140, 3133
1889, 1535, 1719, 1706
1890, 3164, 3166, 596
1891, 2155, 1719, 1535
1892, 3150, 3155, 3157
1893, 3139, 3149, 3151
1894, 1607, 1713, 1534
1895, 3161, 3163, 3156
1896, 1697, 1702, 1863
1897, 1728, 1725, 1538
1898, 587, 3113, 3118
1899, 3109, 3111, 3107
1900, 3167, 3169, 3102
1901, 2196, 1767, 2197
1902, 2622, 3099, 3102
1903, 2624, 583, 2623
1904, 1760, 2080, 2591
1905, 3095, 2622, 3102
1906, 1775, 1261, 1774
1907, 1921, 1876, 2220
1908, 3125, 3129, 3148
1909, 3112, 3117, 3123
1910, 1748, 1541, 1746
1911, 1757, 1755, 1546
1912, 1891, 1779, 1551
1913, 7016, 7026, 7015
1914, 1610, 1749, 1542
1915, 3110, 3116, 3119
1916, 1730, 1731, 1733
1917, 1818, 1817, 1564
1918, 3102, 3099, 3100
1919, 1593, 1467, 977
1920, 1841, 1528, 1600
1921, 1056, 1849, 1378
1922, 1207, 1449, 1360
1923, 1142, 1143, 1886
1924, 1109, 1110, 1527
1925, 1938, 1935, 1913
1926, 1504, 1455, 1366
1927, 2005, 2289, 1965
1928, 1545, 1544, 1753
1929, 1838, 794, 795
1930, 1798, 1893, 134
1931, 943, 944, 1869
1932, 1741, 2186, 2225
1933, 1096, 1857, 1095
1934, 158, 1317, 1579
1935, 1935, 1912, 993
1936, 157, 1317, 158
1937, 227, 226, 1385
1938, 1840, 894, 1599
1939, 792, 5077, 5076
1940, 1617, 1845, 1191
1941, 1931, 1930, 636
1942, 5079, 155, 154
1943, 5079, 5076, 5075
1944, 1450, 153, 152
1945, 1336, 1906, 477
1946, 1579, 159, 158
1947, 665, 666, 1899
1948, 2, 1316, 5068
1949, 4, 5068, 5069
1950, 638, 639, 5068
1951, 1490, 149, 148
1952, 4, 3, 5068
1953, 1316, 637, 638
1954, 1887, 1144, 2557
1955, 929, 930, 1863
1956, 1318, 5071, 5
1957, 5, 5071, 6
1958, 5070, 5074, 6
1959, 1903, 1566, 1824
1960, 796, 1838, 795
1961, 9, 8, 1319
1962, 992, 1851, 1657
1963, 5068, 1316, 638
1964, 188, 1729, 1875
1965, 2943, 1353, 2295
1966, 1820, 699, 700
1967, 1217, 1362, 1216
1968, 1317, 5077, 794
1969, 333, 332, 1464
1970, 792, 793, 5077
1971, 791, 5076, 1502
1972, 12, 1457, 13
1973, 794, 5077, 793
1974, 1277, 1444, 1276
1975, 68, 67, 1828
1976, 788, 789, 1365
1977, 1054, 1415, 1053
1978, 786, 787, 1487
1979, 1488, 786, 1487
1980, 87, 1409, 88
1981, 1454, 1365, 1453
1982, 788, 1454, 787
1983, 1502, 1503, 1451
1984, 1334, 1420, 1421
1985, 1454, 1397, 1487
1986, 1802, 1895, 1803
1987, 1488, 1490, 1511
1988, 1625, 1781, 1552
1989, 1549, 1768, 1772
1990, 1489, 150, 149
1991, 775, 2206, 774
1992, 1511, 147, 1625
1993, 235, 1427, 236
1994, 1553, 784, 1491
1995, 146, 145, 1781
1996, 1747, 1541, 1744
1997, 1733, 826, 1730
1998, 1553, 1625, 1552
1999, 785, 1491, 784
2000, 783, 1553, 1782
2001, 1264, 2189, 1263
2002, 1453, 150, 1489
2003, 152, 1452, 1450
2004, 77, 1373, 78
2005, 1813, 1563, 1898
2006, 1475, 1433, 812
2007, 641, 1318, 640
2008, 713, 714, 1373
2009, 647, 648, 1367
2010, 1416, 332, 331
2011, 1319, 5073, 644
2012, 643, 644, 5073
2013, 225, 1533, 1712
2014, 641, 5072, 1318
2015, 772, 1799, 1796
2016, 646, 647, 1504
2017, 1455, 11, 1366
2018, 1485, 626, 625
2019, 646, 1366, 645
2020, 2129, 1319, 2128
2021, 644, 2128, 1319
2022, 1788, 1787, 1557
2023, 1635, 704, 705
2024, 5069, 640, 1318
2025, 1504, 1367, 1455
2026, 724, 1409, 1320
2027, 409, 1415, 1331
2028, 1421, 1420, 469
2029, 1496, 648, 649
2030, 1496, 649, 1493
2031, 875, 1427, 1302
2032, 12, 11, 1455
2033, 1495, 16, 15
2034, 1609, 1474, 1388
2035, 1438, 1439, 1351
2036, 1982, 1980, 2295
2037, 1783, 19, 18
2038, 1783, 1785, 1554
2039, 336, 335, 1580
2040, 1492, 1556, 1399
2041, 1483, 1391, 1485
2042, 1399, 1493, 1492
2043, 1476, 1636, 1609
2044, 1554, 1786, 2165
2045, 1618, 1763, 1548
2046, 13, 1457, 1456
2047, 1493, 1399, 1495
2048, 15, 14, 1494
2049, 17, 16, 1626
2050, 506, 1885, 1738
2051, 2087, 2707, 2627
2052, 1750, 1751, 1542
2053, 1534, 1713, 1716
2054, 653, 1785, 2205
2055, 1554, 2166, 1783
2056, 19, 2166, 20
2057, 1401, 1629, 1630
2058, 1688, 1690, 1528
2059, 20, 2166, 2165
2060, 1535, 1706, 1708
2061, 22, 21, 2628
2062, 1729, 1727, 1874
2063, 2631, 2088, 2634
2064, 2630, 2088, 2629
2065, 2634, 24, 23
2066, 1502, 1451, 790
2067, 1196, 1356, 1445
2068, 2630, 2632, 2088
2069, 1456, 1457, 1367
2070, 2171, 2167, 660
2071, 609, 608, 1890
2072, 2634, 2088, 2632
2073, 1509, 1431, 309
2074, 26, 25, 1787
2075, 1788, 1892, 1787
2076, 291, 1692, 292
2077, 2169, 2168, 2089
2078, 1308, 1569, 163
2079, 662, 1812, 661
2080, 1589, 1590, 1588
2081, 1470, 1469, 1381
2082, 1637, 1721, 1536
2083, 1465, 1463, 1380
2084, 1261, 1775, 1260
2085, 1495, 1494, 1400
2086, 1519, 1656, 1662
2087, 789, 1451, 1365
2088, 781, 782, 1789
2089, 1467, 1463, 976
2090, 2639, 2090, 779
2091, 778, 2636, 2637
2092, 1455, 1457, 12
2093, 2709, 2173, 2174
2094, 1422, 1469, 1113
2095, 814, 815, 1637
2096, 2210, 2092, 2211
2097, 1894, 137, 136
2098, 2206, 2207, 2208
2099, 337, 336, 1684
2100, 1640, 415, 414
2101, 139, 138, 2210
2102, 1506, 1505, 466
2103, 779, 780, 2639
2104, 15, 1494, 1495
2105, 2174, 2175, 2093
2106, 1395, 1620, 1218
2107, 143, 2173, 144
2108, 1835, 1838, 796
2109, 2091, 2637, 2635
2110, 2640, 2090, 2093
2111, 1377, 1590, 386
2112, 2174, 2173, 143
2113, 2210, 138, 2209
2114, 1657, 991, 992
2115, 1480, 1390, 1478
2116, 973, 1498, 972
2117, 136, 135, 1791
2118, 1894, 1791, 1793
2119, 187, 186, 1873
2120, 2206, 2208, 1793
2121, 345, 344, 1852
2122, 2091, 2214, 2212
2123, 1790, 145, 144
2124, 1801, 1800, 773
2125, 1510, 1485, 625
2126, 1799, 1559, 1792
2127, 1804, 132, 1807
2128, 1796, 1792, 1797
2129, 1387, 1606, 1608
2130, 770, 1795, 1794
2131, 1791, 1792, 1559
2132, 623, 622, 1754
2133, 1816, 1809, 1898
2134, 4731, 4757, 4752
2135, 769, 1802, 768
2136, 2216, 1802, 1803
2137, 700, 701, 1821
2138, 17, 1555, 1784
2139, 1392, 1545, 1486
2140, 1575, 1352, 1500
2141, 132, 1804, 133
2142, 294, 1867, 295
2143, 1895, 1924, 2242
2144, 1488, 1398, 1491
2145, 1513, 1473, 949
2146, 255, 1690, 256
2147, 3530, 2246, 128
2148, 2719, 2239, 2243
2149, 1190, 1191, 1845
2150, 1803, 2242, 2240
2151, 1329, 1376, 1586
2152, 2243, 2248, 2240
2153, 2244, 2248, 2243
2154, 3189, 3186, 3188
2155, 1393, 1616, 1615
2156, 1512, 1606, 1387
2157, 764, 3186, 3187
2158, 252, 1596, 1383
2159, 2641, 3530, 3185
2160, 2216, 1803, 2240
2161, 803, 1568, 1308
2162, 1626, 1399, 1556
2163, 1678, 1680, 1108
2164, 1195, 1445, 1355
2165, 3192, 3195, 3191
2166, 1600, 1528, 1690
2167, 1749, 1610, 1141
2168, 1566, 1825, 1847
2169, 3222, 3207, 3210
2170, 3204, 3210, 3208
2171, 1641, 1640, 1514
2172, 3192, 3200, 3195
2173, 1587, 1646, 1516
2174, 3199, 3200, 3196
2175, 3223, 3219, 3222
2176, 3202, 3204, 3198
2177, 3216, 3209, 3212
2178, 1853, 1520, 1667
2179, 758, 3219, 3218
2180, 1656, 1519, 1663
2181, 1655, 1650, 347
2182, 126, 2642, 127
2183, 3234, 756, 3236
2184, 1671, 1670, 451
2185, 755, 3238, 3293
2186, 1700, 1702, 1697
2187, 2458, 897, 898
2188, 3229, 3295, 3238
2189, 1690, 255, 1842
2190, 3245, 3247, 3253
2191, 3262, 3264, 3257
2192, 1627, 1629, 1401
2193, 3270, 3275, 3296
2194, 794, 1579, 1317
2195, 1782, 782, 783
2196, 3271, 3263, 3269
2197, 1476, 1609, 1388
2198, 3251, 3255, 752
2199, 1643, 1639, 1514
2200, 3220, 757, 3217
2201, 1659, 1658, 1939
2202, 3274, 3277, 3279
2203, 1595, 1686, 1526
2204, 3236, 3224, 3221
2205, 1706, 1705, 1530
2206, 755, 3235, 3238
2207, 3244, 3253, 3247
2208, 1695, 1696, 1694
2209, 3232, 3235, 3234
2210, 1603, 1712, 1533
2211, 824, 2184, 823
2212, 3260, 3255, 3246
2213, 189, 1737, 190
2214, 3270, 114, 113
2215, 749, 3272, 3276
2216, 1731, 1538, 1725
2217, 3257, 3264, 3254
2218, 1871, 1948, 1918
2219, 3243, 3250, 3241
2220, 1922, 1880, 2226
2221, 3284, 3287, 3291
2222, 1688, 2458, 2045
2223, 3289, 3302, 3304
2224, 1397, 1489, 1490
2225, 1473, 1472, 948
2226, 3286, 3292, 3281
2227, 1512, 1508, 307
2228, 3313, 107, 2644
2229, 1612, 1754, 1544
2230, 3282, 3278, 3280
2231, 3290, 746, 3287
2232, 2591, 1189, 1761
2233, 1771, 1772, 1769
2234, 3310, 3311, 2096
2235, 3310, 3308, 3309
2236, 1766, 1765, 2197
2237, 745, 3290, 3305
2238, 1748, 1746, 2160
2239, 106, 2644, 107
2240, 3288, 3298, 3278
2241, 3283, 3280, 111
2242, 1861, 1860, 1099
2243, 1189, 1190, 1762
2244, 814, 1637, 1476
2245, 1365, 1454, 788
2246, 1780, 1778, 1551
2247, 1490, 1489, 149
2248, 1436, 1439, 489
2249, 26, 1892, 27
2250, 1505, 1470, 1381
2251, 1811, 1898, 1897
2252, 2153, 937, 938
2253, 1555, 17, 1626
2254, 1808, 28, 27
2255, 1061, 2131, 1060
2256, 664, 665, 1813
2257, 809, 1499, 1348
2258, 28, 1808, 1809
2259, 1735, 829, 2185
2260, 1817, 1818, 1815
2261, 1901, 2252, 2253
2262, 345, 1660, 346
2263, 1815, 30, 29
2264, 135, 134, 1893
2265, 1563, 1813, 1814
2266, 492, 1479, 1480
2267, 1900, 2249, 1564
2268, 633, 1576, 1312
2269, 2263, 2255, 2256
2270, 891, 1597, 1338
2271, 304, 1607, 305
2272, 668, 2721, 2250
2273, 1588, 1587, 1029
2274, 32, 2254, 2263
2275, 1384, 1599, 1600
2276, 33, 2262, 2260
2277, 36, 35, 3316
2278, 5247, 5249, 672
2279, 1628, 1401, 94
2280, 2648, 2649, 35
2281, 2259, 670, 2651
2282, 72, 1370, 1581
2283, 1615, 1617, 1192
2284, 668, 2250, 667
2285, 701, 702, 1826
2286, 1751, 1843, 1542
2287, 1644, 1640, 1515
2288, 36, 3316, 5253
2289, 1672, 1521, 1669
2290, 39, 38, 5584
2291, 5628, 5048, 5597
2292, 1518, 1850, 1659
2293, 5586, 5047, 5620
2294, 2148, 1680, 1523
2295, 1701, 1700, 1531
2296, 42, 5605, 5609
2297, 3908, 5316, 5318
2298, 44, 5618, 5617
2299, 1647, 1649, 1517
2300, 1670, 1672, 452
2301, 5600, 41, 5599
2302, 1526, 1678, 1679
2303, 5597, 5048, 5594
2304, 1362, 1620, 1619
2305, 5586, 5587, 5588
2306, 1649, 1647, 383
2307, 5048, 5591, 5594
2308, 1857, 1096, 1674
2309, 1523, 1680, 1678
2310, 5047, 5592, 5585
2311, 1851, 992, 1912
2312, 683, 3913, 682
2313, 1840, 1599, 1384
2314, 3911, 3909, 3910
2315, 686, 3349, 3350
2316, 3361, 3362, 684
2317, 188, 187, 1728
2318, 1569, 1307, 164
2319, 3341, 3342, 3346
2320, 1589, 1376, 388
2321, 5595, 5610, 5593
2322, 5624, 5625, 674
2323, 5250, 5256, 5252
2324, 1620, 1362, 1217
2325, 1721, 1637, 815
2326, 1519, 1662, 1660
2327, 5607, 7231, 5606
2328, 303, 302, 2182
2329, 1731, 1725, 1732
2330, 1719, 295, 1867
2331, 3910, 3909, 3913
2332, 3908, 5318, 5635
2333, 1703, 1707, 1530
2334, 5317, 5615, 5616
2335, 1438, 1479, 491
2336, 3325, 3329, 3337
2337, 3334, 3335, 3326
2338, 3352, 3357, 3348
2339, 1876, 1737, 1920
2340, 3344, 3349, 686
2341, 3361, 684, 3358
2342, 1416, 1466, 1379
2343, 1699, 1700, 1701
2344, 5598, 5603, 5600
2345, 3331, 3339, 3338
2346, 1749, 1142, 1886
2347, 1548, 1760, 1761
2348, 1755, 612, 1888
2349, 2197, 1549, 1766
2350, 689, 3330, 3333
2351, 1882, 1744, 1743
2352, 3333, 3332, 688
2353, 557, 1448, 558
2354, 3319, 3335, 3532
2355, 1260, 1775, 1770
2356, 1396, 1779, 572
2357, 3532, 3318, 3319
2358, 3334, 690, 3335
2359, 3323, 3319, 3320
2360, 55, 2652, 56
2361, 2205, 1783, 1784
2362, 3344, 3347, 3343
2363, 1689, 1687, 897
2364, 85, 1372, 1460
2365, 1346, 1430, 952
2366, 2653, 2655, 2100
2367, 1792, 1893, 1798
2368, 1791, 135, 1893
2369, 57, 2653, 58
2370, 3363, 2100, 2655
2371, 693, 3364, 3363
2372, 2661, 2662, 2660
2373, 396, 1412, 1324
2374, 2657, 59, 2661
2375, 59, 2657, 60
2376, 2101, 2664, 2670
2377, 71, 70, 1404
2378, 1110, 1111, 1471
2379, 61, 2672, 62
2380, 545, 544, 1394
2381, 695, 2660, 694
2382, 1418, 1333, 1498
2383, 2668, 2102, 2667
2384, 1806, 1561, 1794
2385, 62, 2673, 63
2386, 131, 1924, 1807
2387, 1814, 1564, 1817
2388, 2674, 2103, 2102
2389, 663, 664, 1811
2390, 2678, 2675, 2103
2391, 554, 1358, 555
2392, 2677, 2673, 2103
2393, 1819, 65, 64
2394, 1565, 1822, 1819
2395, 1283, 1836, 1282
2396, 1822, 66, 65
2397, 1820, 700, 1821
2398, 1208, 1361, 1449
2399, 1122, 1831, 1830
2400, 2664, 2101, 2665
2401, 1823, 734, 1902
2402, 630, 1440, 1501
2403, 1690, 1842, 1600
2404, 1443, 628, 627
2405, 1986, 1987, 1285
2406, 1498, 1333, 2117
2407, 742, 3308, 3371
2408, 244, 1339, 1424
2409, 2682, 2105, 2683
2410, 1456, 14, 13
2411, 1031, 1032, 1376
2412, 104, 2685, 2686
2413, 246, 1406, 247
2414, 2681, 2680, 2104
2415, 1781, 1790, 1552
2416, 3370, 2684, 3367
2417, 1807, 1561, 1804
2418, 2687, 2105, 2689
2419, 2687, 2689, 738
2420, 773, 1800, 772
2421, 740, 3368, 2680
2422, 1812, 1562, 1788
2423, 2689, 2688, 101
2424, 2644, 2646, 2096
2425, 2694, 2692, 2107
2426, 1279, 1441, 1278
2427, 311, 1346, 312
2428, 168, 2124, 169
2429, 2108, 1824, 1902
2430, 2108, 2697, 1824
2431, 1196, 1197, 1356
2432, 2693, 2108, 2696
2433, 1567, 1822, 1565
2434, 2108, 1902, 2695
2435, 1423, 250, 1337
2436, 236, 1342, 237
2437, 1401, 1630, 1847
2438, 1847, 96, 95
2439, 1903, 1825, 1566
2440, 1627, 1628, 1402
2441, 154, 1364, 5079
2442, 2107, 2692, 2690
2443, 812, 813, 1475
2444, 1784, 1555, 2205
2445, 1911, 1930, 1931
2446, 1823, 1824, 1566
2447, 1039, 1040, 1412
2448, 1330, 408, 407
2449, 92, 1368, 1631
2450, 1846, 1630, 732
2451, 93, 1628, 94
2452, 90, 1369, 91
2453, 1636, 1848, 176
2454, 1629, 732, 1630
2455, 730, 731, 1627
2456, 731, 1629, 1627
2457, 934, 1704, 1866
2458, 1669, 1860, 1859
2459, 1402, 1631, 1632
2460, 1097, 1098, 1854
2461, 728, 1368, 1458
2462, 1384, 1842, 254
2463, 1321, 1369, 89
2464, 2, 1, 1316
2465, 5056, 323, 322
2466, 161, 160, 1305
2467, 87, 86, 1320
2468, 1320, 1409, 87
2469, 73, 72, 1581
2470, 89, 88, 1321
2471, 1740, 1878, 1154
2472, 727, 1369, 726
2473, 724, 725, 1321
2474, 1321, 726, 1369
2475, 130, 129, 2720
2476, 1890, 608, 2713
2477, 1321, 1409, 724
2478, 1744, 1739, 1884
2479, 722, 723, 1320
2480, 1369, 1458, 91
2481, 1116, 1335, 2121
2482, 1872, 184, 2710
2483, 1350, 1135, 1437
2484, 1403, 1828, 1827
2485, 881, 882, 2122
2486, 67, 66, 1567
2487, 1463, 1466, 975
2488, 69, 68, 1403
2489, 1403, 1634, 69
2490, 1906, 1336, 1830
2491, 1567, 1827, 1828
2492, 390, 1328, 391
2493, 86, 85, 1460
2494, 72, 71, 1370
2495, 551, 550, 2127
2496, 5073, 5072, 642
2497, 74, 73, 1322
2498, 1322, 1410, 74
2499, 73, 1581, 1322
2500, 396, 1324, 397
2501, 71, 1404, 1370
2502, 3504, 3494, 2014
2503, 704, 1403, 703
2504, 1536, 1848, 1637
2505, 705, 706, 1404
2506, 1098, 1099, 1860
2507, 1698, 1866, 1704
2508, 1634, 1635, 1404
2509, 1860, 1854, 1098
2510, 1633, 707, 1370
2511, 709, 1322, 708
2512, 1322, 1581, 708
2513, 710, 711, 1323
2514, 1410, 710, 1323
2515, 1879, 1884, 1739
2516, 1766, 1890, 1765
2517, 1744, 1878, 1739
2518, 2241, 2240, 766
2519, 1726, 1872, 1724
2520, 1827, 1567, 1826
2521, 1821, 1826, 1565
2522, 75, 1323, 76
2523, 1459, 83, 1371
2524, 392, 391, 1328
2525, 246, 245, 1301
2526, 5061, 5067, 1130
2527, 1462, 81, 1374
2528, 719, 1371, 718
2529, 4713, 4719, 4703
2530, 82, 1371, 83
2531, 1460, 1320, 86
2532, 722, 1320, 1460
2533, 1372, 85, 84
2534, 84, 83, 1459
2535, 1876, 1921, 1737
2536, 1915, 1862, 2278
2537, 1371, 719, 1459
2538, 959, 1967, 1909
2539, 80, 79, 2130
2540, 5065, 482, 481
2541, 1461, 1373, 77
2542, 6402, 6408, 6398
2543, 713, 1461, 712
2544, 1373, 1461, 713
2545, 1966, 1907, 1909
2546, 76, 1323, 1461
2547, 1037, 1293, 1036
2548, 715, 2130, 714
2549, 718, 1371, 1462
2550, 80, 2130, 1374
2551, 1374, 717, 1462
2552, 1579, 1934, 159
2553, 1374, 2130, 716
2554, 1373, 714, 2130
2555, 1921, 1877, 2716
2556, 4086, 1968, 4079
2557, 1373, 2130, 78
2558, 1835, 1839, 1933
2559, 1699, 2180, 1917
2560, 245, 244, 1424
2561, 5053, 5058, 967
2562, 1829, 1949, 2268
2563, 1902, 735, 2695
2564, 230, 229, 1344
2565, 1135, 1136, 1437
2566, 734, 735, 1902
2567, 1835, 1934, 1838
2568, 1562, 1812, 1810
2569, 1732, 825, 1733
2570, 1996, 1932, 2001
2571, 1936, 1935, 993
2572, 2283, 2825, 1571
2573, 2269, 2884, 2722
2574, 419, 2309, 2022
2575, 1941, 288, 287
2576, 1862, 1917, 1940
2577, 1944, 1943, 287
2578, 1947, 1862, 1940
2579, 1944, 286, 2282
2580, 2274, 2275, 2272
2581, 1944, 287, 286
2582, 1942, 2272, 1945
2583, 1944, 2282, 1946
2584, 1942, 1943, 1944
2585, 927, 2276, 2275
2586, 1941, 1943, 1945
2587, 2728, 2725, 2724
2588, 925, 926, 2277
2589, 1941, 1947, 1940
2590, 2276, 1947, 1945
2591, 2218, 1948, 1871
2592, 2267, 1948, 1919
2593, 1950, 1949, 1831
2594, 2268, 1949, 1925
2595, 4059, 4058, 3944
2596, 2858, 2865, 2835
2597, 1126, 2832, 2838
2598, 3574, 3575, 3589
2599, 2881, 2850, 2855
2600, 3385, 2830, 2834
2601, 2843, 2847, 2840
2602, 1958, 2285, 2855
2603, 1122, 1959, 1950
2604, 2285, 2882, 1957
2605, 1958, 1955, 1959
2606, 1967, 1971, 1960
2607, 1950, 1959, 1954
2608, 1955, 2286, 2829
2609, 1954, 1959, 1955
2610, 1907, 1966, 2287
2611, 1978, 1982, 1961
2612, 1832, 1977, 2288
2613, 1988, 1835, 796
2614, 1996, 1962, 1932
2615, 1964, 1963, 994
2616, 2270, 1963, 1937
2617, 994, 995, 1964
2618, 2005, 1964, 995
2619, 2358, 2356, 2357
2620, 2290, 2354, 2883
2621, 1967, 1966, 1909
2622, 2287, 1966, 1960
2623, 4081, 4080, 3986
2624, 2918, 2925, 2895
2625, 963, 2892, 2898
2626, 3665, 3666, 3680
2627, 2941, 2910, 2915
2628, 3421, 2890, 2894
2629, 2903, 2907, 2900
2630, 1975, 2293, 2915
2631, 959, 1976, 1967
2632, 2293, 2942, 1974
2633, 1975, 1972, 1976
2634, 1978, 1977, 1911
2635, 1967, 1976, 1971
2636, 1972, 2294, 2889
2637, 1971, 1976, 1972
2638, 2288, 1977, 1961
2639, 4103, 4102, 4028
2640, 2976, 2983, 2953
2641, 637, 2950, 2956
2642, 3757, 3758, 3772
2643, 2999, 2968, 2973
2644, 3457, 2948, 2952
2645, 2961, 2965, 2958
2646, 1986, 2297, 2973
2647, 1285, 1987, 1978
2648, 2297, 3000, 1985
2649, 1986, 1983, 1987
2650, 4544, 4487, 4482
2651, 1978, 1987, 1982
2652, 1983, 2298, 2947
2653, 1982, 1987, 1983
2654, 1932, 1962, 1988
2655, 4570, 4567, 4562
2656, 2016, 2006, 2009
2657, 2015, 3499, 3498
2658, 4405, 4134, 4177
2659, 2000, 2003, 1997
2660, 2299, 1995, 1991
2661, 1991, 1988, 796
2662, 2301, 2000, 2304
2663, 1997, 2003, 2004
2664, 1962, 1998, 1839
2665, 2020, 2006, 2016
2666, 4125, 2017, 2018
2667, 2301, 1363, 1999
2668, 1996, 1363, 1998
2669, 1363, 2300, 1999
2670, 2003, 1999, 2300
2671, 1996, 2300, 1363
2672, 2008, 2006, 2004
2673, 1999, 2000, 2301
2674, 2006, 2012, 2004
2675, 2308, 2307, 2021
2676, 2305, 2304, 2302
2677, 2004, 2003, 2001
2678, 2008, 2001, 1932
2679, 2309, 2002, 2011
2680, 2289, 2005, 995
2681, 2723, 2005, 1965
2682, 2009, 2006, 2008
2683, 1991, 2017, 2016
2684, 4182, 4133, 4132
2685, 5312, 3817, 3502
2686, 2001, 2008, 2004
2687, 2009, 2008, 1932
2688, 1988, 2009, 1932
2689, 2016, 2009, 1991
2690, 3831, 3841, 3843
2691, 3836, 3837, 3834
2692, 4042, 4120, 4117
2693, 2310, 417, 416
2694, 2020, 2012, 2006
2695, 2012, 2020, 2014
2696, 3003, 3004, 1063
2697, 2011, 2307, 2308
2698, 2002, 2309, 418
2699, 1997, 3002, 2302
2700, 2012, 2013, 2004
2701, 2304, 2000, 2302
2702, 2017, 1991, 1995
2703, 3502, 2015, 5312
2704, 2018, 1994, 4125
2705, 2010, 2016, 2017
2706, 2013, 1997, 2004
2707, 2017, 1995, 2018
2708, 3002, 3500, 2302
2709, 3815, 3822, 3830
2710, 2010, 2020, 2016
2711, 2310, 2307, 417
2712, 2311, 2021, 2131
2713, 2022, 3003, 2312
2714, 418, 2309, 419
2715, 2025, 2320, 2324
2716, 5257, 420, 2316
2717, 1065, 2317, 2318
2718, 419, 2315, 2316
2719, 2321, 2322, 422
2720, 2319, 422, 421
2721, 2325, 2132, 2026
2722, 2327, 2329, 380
2723, 2327, 2330, 2332
2724, 2337, 378, 2338
2725, 3009, 2341, 2343
2726, 1021, 1022, 2340
2727, 3010, 2348, 2349
2728, 2345, 1019, 1020
2729, 3015, 3016, 3017
2730, 3012, 1018, 3011
2731, 353, 352, 2353
2732, 2354, 2031, 2353
2733, 425, 424, 2418
2734, 2419, 423, 2323
2735, 446, 2420, 447
2736, 2428, 2429, 2430
2737, 445, 444, 3074
2738, 2428, 2427, 1090
2739, 457, 2442, 2035
2740, 2434, 2035, 1103
2741, 2435, 2037, 2036
2742, 1106, 1107, 2149
2743, 2436, 2441, 2037
2744, 2437, 1105, 1106
2745, 2038, 2438, 2439
2746, 2038, 1104, 2440
2747, 2142, 2145, 2141
2748, 2039, 1102, 2443
2749, 2448, 2446, 2041
2750, 2040, 2700, 2150
2751, 2445, 2446, 983
2752, 2451, 339, 2042
2753, 2042, 2449, 2450
2754, 2452, 339, 338
2755, 266, 265, 2455
2756, 2464, 2466, 264
2757, 258, 257, 2045
2758, 2457, 2044, 2458
2759, 1688, 1689, 2458
2760, 258, 2045, 2044
2761, 259, 2459, 260
2762, 2460, 2046, 3077
2763, 2468, 2469, 902
2764, 2462, 261, 260
2765, 2476, 2470, 262
2766, 3079, 2465, 3080
2767, 2474, 2473, 904
2768, 2476, 262, 261
2769, 2481, 2051, 2478
2770, 220, 2499, 2508
2771, 2479, 2152, 2051
2772, 2051, 222, 2478
2773, 218, 2052, 2498
2774, 2486, 2484, 2052
2775, 2487, 2496, 857
2776, 2490, 2489, 217
2777, 2507, 860, 2477
2778, 2482, 2492, 2493
2779, 296, 2155, 2156
2780, 939, 2055, 2154
2781, 2266, 940, 941
2782, 2265, 299, 2511
2783, 5193, 5194, 5196
2784, 2506, 855, 2505
2785, 2513, 2058, 2520
2786, 2513, 2516, 2058
2787, 179, 1723, 2060
2788, 2059, 818, 2514
2789, 2061, 1722, 817
2790, 2060, 2059, 2515
2791, 818, 2061, 817
2792, 2059, 2060, 2061
2793, 2517, 2063, 2062
2794, 2062, 2711, 2183
2795, 2520, 181, 2513
2796, 2063, 820, 2518
2797, 2523, 2524, 3373
2798, 5221, 5223, 835
2799, 833, 2527, 832
2800, 2527, 2525, 2526
2801, 1159, 1160, 2532
2802, 2533, 2535, 2536
2803, 2543, 2544, 2545
2804, 2547, 2545, 2546
2805, 2549, 2068, 2555
2806, 2158, 2553, 1148
2807, 2069, 2554, 2555
2808, 2559, 498, 2070
2809, 1145, 2070, 2557
2810, 2558, 2070, 1145
2811, 3518, 3519, 3520
2812, 3087, 1181, 3086
2813, 2561, 2564, 2072
2814, 1269, 2562, 1268
2815, 2073, 1267, 2563
2816, 2565, 2073, 2564
2817, 614, 1889, 2191
2818, 2567, 2074, 1265
2819, 2075, 616, 2566
2820, 2075, 1266, 2569
2821, 2583, 2575, 536
2822, 2578, 1186, 2582
2823, 2572, 2573, 2574
2824, 2583, 536, 535
2825, 533, 2560, 2587
2826, 1182, 1183, 2589
2827, 2590, 2079, 3083
2828, 1189, 2591, 1188
2829, 540, 2080, 541
2830, 2079, 2590, 2591
2831, 606, 605, 3092
2832, 2203, 1255, 2204
2833, 604, 603, 3093
2834, 1253, 2598, 1252
2835, 579, 3094, 2605
2836, 1229, 2606, 1228
2837, 2618, 2084, 1226
2838, 578, 577, 2621
2839, 583, 582, 2623
2840, 2615, 2617, 2616
2841, 575, 2705, 576
2842, 2086, 1225, 2626
2843, 2631, 2629, 2088
2844, 2708, 20, 2165
2845, 2628, 2629, 22
2846, 2632, 657, 658
2847, 659, 2169, 658
2848, 2167, 659, 660
2849, 2635, 2090, 141
2850, 2636, 2090, 2637
2851, 2214, 139, 2212
2852, 2638, 2091, 2215
2853, 137, 2208, 2209
2854, 2211, 2207, 776
2855, 781, 1789, 2709
2856, 2093, 142, 2640
2857, 128, 127, 3185
2858, 2247, 765, 2244
2859, 3192, 2095, 3193
2860, 3191, 3194, 3190
2861, 3307, 2645, 2646
2862, 3531, 3310, 743
2863, 2258, 2259, 2651
2864, 670, 671, 2650
2865, 35, 34, 2648
2866, 2261, 2260, 2097
2867, 3321, 3322, 3323
2868, 3318, 692, 3317
2869, 2656, 57, 56
2870, 2663, 693, 694
2871, 2659, 59, 58
2872, 2664, 2666, 696
2873, 2669, 2670, 2667
2874, 698, 2678, 2674
2875, 2673, 2672, 2103
2876, 2675, 2679, 699
2877, 3367, 3369, 741
2878, 104, 103, 2685
2879, 2680, 739, 740
2880, 101, 2688, 102
2881, 100, 2690, 101
2882, 2691, 2106, 2692
2883, 99, 2693, 100
2884, 2694, 2107, 2696
2885, 2108, 2695, 2696
2886, 2697, 99, 98
2887, 403, 402, 2110
2888, 1048, 2109, 1047
2889, 1047, 2110, 1046
2890, 2110, 2109, 403
2891, 2112, 2111, 1306
2892, 805, 2111, 1307
2893, 167, 2112, 1306
2894, 166, 165, 2113
2895, 164, 2113, 165
2896, 2111, 2113, 1307
2897, 562, 561, 2115
2898, 1211, 2114, 1210
2899, 1210, 2115, 1209
2900, 2115, 2114, 562
2901, 2116, 1044, 1045
2902, 399, 2116, 400
2903, 1498, 2117, 971
2904, 2118, 2117, 1333
2905, 2118, 1333, 1497
2906, 1296, 2118, 327
2907, 1118, 2119, 1117
2908, 1298, 474, 2120
2909, 1335, 2120, 473
2910, 1298, 2120, 2119
2911, 1116, 2121, 1115
2912, 1419, 2121, 1335
2913, 2122, 242, 241
2914, 883, 2122, 882
2915, 808, 1348, 2123
2916, 2124, 2123, 1348
2917, 169, 2124, 1348
2918, 1306, 2124, 168
2919, 1134, 1350, 2125
2920, 2126, 2125, 1350
2921, 487, 2126, 1350
2922, 1310, 2126, 486
2923, 2127, 1313, 551
2924, 1197, 2127, 1356
2925, 645, 1366, 2128
2926, 2129, 2128, 1366
2927, 10, 2129, 1366
2928, 1319, 2129, 9
2929, 2130, 715, 716
2930, 78, 2130, 79
2931, 2131, 1061, 2311
2932, 2177, 2131, 1515
2933, 2178, 2132, 1026
2934, 2132, 1517, 2326
2935, 447, 2426, 448
2936, 2135, 2136, 1093
2937, 449, 2134, 1666
2938, 2140, 2137, 2133
2939, 1667, 2135, 1094
2940, 1520, 2134, 2137
2941, 2136, 2137, 2140
2942, 1092, 2139, 2136
2943, 1520, 2137, 2135
2944, 2133, 2137, 2134
2945, 2138, 2425, 2422
2946, 2428, 2430, 2033
2947, 1092, 1093, 2139
2948, 1093, 2136, 2139
2949, 2425, 2140, 2133
2950, 2140, 2138, 2431
2951, 1101, 2142, 2141
2952, 2145, 455, 1675
2953, 2143, 2142, 1101
2954, 2144, 2142, 2039
2955, 1101, 1102, 2143
2956, 2039, 2143, 1102
2957, 2442, 2144, 2039
2958, 2146, 456, 455
2959, 2141, 2145, 1522
2960, 2144, 456, 2146
2961, 455, 2145, 2146
2962, 2144, 2146, 2145
2963, 2435, 2148, 2147
2964, 1677, 2147, 1523
2965, 2036, 2437, 2149
2966, 1680, 2148, 1107
2967, 1107, 2148, 2149
2968, 2036, 2149, 2148
2969, 2150, 2699, 2444
2970, 2445, 2700, 2040
2971, 1524, 2150, 2151
2972, 2700, 2151, 2150
2973, 1709, 2152, 863
2974, 2152, 1532, 2480
2975, 938, 2154, 2153
2976, 2153, 2154, 2155
2977, 939, 2154, 938
2978, 2155, 2154, 2055
2979, 2156, 2155, 2055
2980, 1719, 2155, 296
2981, 2509, 2156, 2055
2982, 296, 2156, 297
2983, 2550, 2551, 2552
2984, 1149, 2158, 1148
2985, 1543, 2157, 2158
2986, 2553, 2158, 2157
2987, 1150, 1748, 2160
2988, 2158, 2159, 1543
2989, 1543, 2160, 1746
2990, 1150, 2160, 2159
2991, 2702, 2161, 2703
2992, 1759, 2161, 1547
2993, 2162, 2702, 2703
2994, 2562, 2162, 2072
2995, 2164, 2163, 1224
2996, 1778, 2163, 1550
2997, 2704, 2164, 1224
2998, 2086, 2625, 2705
2999, 2707, 2165, 2706
3000, 2087, 2628, 2708
3001, 1783, 2166, 19
3002, 2165, 2166, 1554
3003, 2168, 2167, 1557
3004, 2169, 2167, 2168
3005, 1787, 2168, 1557
3006, 2170, 25, 24
3007, 2169, 2089, 2633
3008, 659, 2167, 2169
3009, 2089, 2168, 2170
3010, 25, 2170, 2168
3011, 661, 1812, 2172
3012, 2167, 2171, 1557
3013, 1557, 2172, 1788
3014, 661, 2172, 2171
3015, 143, 2175, 2174
3016, 1790, 2173, 1558
3017, 2093, 2176, 2174
3018, 780, 2709, 2176
3019, 143, 142, 2175
3020, 2093, 2175, 142
3021, 2639, 2176, 2093
3022, 2709, 780, 781
3023, 1640, 2177, 1515
3024, 1059, 2177, 1641
3025, 1027, 2178, 1026
3026, 1647, 2178, 1648
3027, 2151, 2179, 1524
3028, 987, 2179, 986
3029, 1917, 2180, 289
3030, 1701, 2180, 1699
3031, 1535, 1708, 2181
3032, 936, 2181, 1708
3033, 1870, 2182, 302
3034, 1713, 2182, 1714
3035, 2062, 2518, 2711
3036, 2712, 822, 823
3037, 2184, 824, 1734
3038, 2712, 2184, 1724
3039, 2219, 2185, 830
3040, 1735, 2185, 1736
3041, 2225, 2186, 1156
3042, 1740, 2186, 1741
3043, 1751, 2187, 496
3044, 2187, 1750, 1923
3045, 1776, 2188, 1546
3046, 1263, 2188, 1262
3047, 2190, 2189, 1264
3048, 2188, 2189, 1757
3049, 2193, 2190, 1264
3050, 2194, 615, 2192
3051, 2189, 2190, 2191
3052, 2190, 2074, 2194
3053, 614, 2191, 2192
3054, 2194, 2191, 2190
3055, 1264, 1265, 2193
3056, 2074, 2193, 1265
3057, 2194, 2074, 2566
3058, 2191, 2194, 2192
3059, 2201, 2195, 2202
3060, 2199, 2201, 2203
3061, 2196, 2197, 2198
3062, 2200, 2196, 1256
3063, 2197, 1767, 1549
3064, 2198, 2197, 1765
3065, 1765, 2195, 2198
3066, 2199, 2198, 2195
3067, 2201, 2199, 2195
3068, 2199, 2203, 2204
3069, 1256, 1257, 2200
3070, 1257, 2196, 2200
3071, 2195, 2713, 2202
3072, 2203, 2201, 2081
3073, 606, 2202, 607
3074, 2081, 2201, 2202
3075, 2600, 2203, 2081
3076, 1254, 1255, 2203
3077, 1255, 1256, 2204
3078, 2196, 2204, 1256
3079, 1556, 2205, 1555
3080, 653, 2205, 652
3081, 2207, 2206, 775
3082, 1801, 2206, 1793
3083, 776, 2207, 775
3084, 2208, 2207, 2092
3085, 2209, 2208, 2092
3086, 1894, 2208, 137
3087, 2209, 2092, 2210
3088, 137, 2209, 138
3089, 2092, 2207, 2211
3090, 2211, 2213, 2215
3091, 776, 2213, 2211
3092, 777, 2638, 2215
3093, 139, 2210, 2212
3094, 2211, 2212, 2210
3095, 776, 777, 2213
3096, 2213, 777, 2215
3097, 2635, 2214, 2091
3098, 139, 2214, 140
3099, 2091, 2212, 2215
3100, 2215, 2212, 2211
3101, 767, 768, 2216
3102, 1802, 2216, 768
3103, 2218, 2217, 301
3104, 1718, 2217, 1871
3105, 1919, 2218, 300
3106, 2217, 2218, 1871
3107, 830, 2221, 2219
3108, 832, 2222, 2223
3109, 2220, 1877, 1921
3110, 1736, 2219, 2220
3111, 830, 831, 2221
3112, 2223, 2221, 831
3113, 2065, 2528, 2527
3114, 2714, 3373, 2715
3115, 832, 2223, 831
3116, 2224, 2223, 2222
3117, 2223, 2224, 2219
3118, 2714, 2224, 3372
3119, 1156, 2227, 2225
3120, 2231, 1158, 2228
3121, 2226, 1881, 1922
3122, 1741, 2225, 2226
3123, 1156, 1157, 2227
3124, 2231, 2227, 1157
3125, 2534, 2718, 1159
3126, 1881, 2230, 2233
3127, 2231, 2229, 2225
3128, 2229, 2228, 2230
3129, 2234, 2230, 2228
3130, 2233, 2230, 510
3131, 1158, 2231, 1157
3132, 2229, 2231, 2228
3133, 2234, 2717, 2232
3134, 2548, 2237, 2235
3135, 510, 509, 2233
3136, 1881, 2233, 509
3137, 2717, 2234, 2228
3138, 2235, 2234, 2232
3139, 2236, 2235, 2232
3140, 2235, 2236, 2548
3141, 2534, 2236, 2232
3142, 2066, 2546, 2548
3143, 511, 510, 2237
3144, 510, 2235, 2237
3145, 2187, 2238, 497
3146, 2238, 1887, 2557
3147, 2245, 2239, 2246
3148, 764, 765, 2247
3149, 2240, 767, 2216
3150, 2240, 2242, 2243
3151, 766, 767, 2241
3152, 767, 2240, 2241
3153, 1895, 2242, 1803
3154, 2243, 2242, 1896
3155, 2719, 2243, 1896
3156, 2243, 2239, 2244
3157, 2245, 2244, 2239
3158, 2248, 2244, 765
3159, 2239, 2720, 2246
3160, 2247, 2245, 2094
3161, 128, 2246, 129
3162, 2094, 2245, 2246
3163, 2245, 2247, 2244
3164, 3188, 2247, 2094
3165, 765, 766, 2248
3166, 2248, 766, 2240
3167, 666, 2249, 1900
3168, 2250, 2249, 667
3169, 668, 669, 2721
3170, 2249, 2250, 1901
3171, 2256, 2257, 2260
3172, 2250, 2251, 2255
3173, 31, 1818, 2253
3174, 2255, 2252, 1901
3175, 1901, 2253, 1564
3176, 2253, 2252, 2254
3177, 32, 31, 2254
3178, 2253, 2254, 31
3179, 2250, 2255, 1901
3180, 2255, 2251, 2256
3181, 2257, 2256, 2251
3182, 2256, 2260, 2262
3183, 2251, 2721, 2258
3184, 2260, 2257, 2097
3185, 2259, 2258, 669
3186, 2097, 2257, 2258
3187, 669, 670, 2259
3188, 670, 2650, 2651
3189, 2097, 2651, 2261
3190, 34, 33, 2260
3191, 2648, 2261, 2098
3192, 34, 2260, 2261
3193, 33, 32, 2262
3194, 2263, 2262, 32
3195, 2255, 2263, 2252
3196, 2262, 2263, 2256
3197, 300, 299, 2264
3198, 2265, 2264, 299
3199, 2511, 299, 298
3200, 2266, 2265, 2056
3201, 940, 2266, 2056
3202, 2267, 2266, 941
3203, 942, 2267, 941
3204, 2264, 2267, 1919
3205, 1939, 2270, 2271
3206, 2283, 2268, 1925
3207, 2723, 2269, 1937
3208, 2270, 1913, 1963
3209, 2271, 2270, 2269
3210, 2722, 2271, 2269
3211, 1939, 2271, 350
3212, 1942, 2273, 2277
3213, 2275, 2274, 927
3214, 1942, 2279, 2273
3215, 2725, 2281, 2273
3216, 2276, 927, 928
3217, 2272, 926, 2274
3218, 1945, 2272, 2275
3219, 928, 1915, 2278
3220, 1945, 2275, 2276
3221, 1942, 2277, 2272
3222, 925, 2277, 2273
3223, 1947, 2278, 1862
3224, 928, 2278, 2276
3225, 1944, 2279, 1942
3226, 1946, 2273, 2279
3227, 2726, 2724, 2725
3228, 2281, 2729, 925
3229, 2725, 2273, 1946
3230, 2729, 2281, 2280
3231, 286, 285, 2282
3232, 2726, 2282, 285
3233, 2268, 2283, 1571
3234, 1954, 2283, 1925
3235, 2861, 2856, 2852
3236, 2831, 2827, 2830
3237, 1954, 1955, 2829
3238, 2851, 2853, 2873
3239, 1952, 2827, 2825
3240, 995, 996, 2289
3241, 2291, 2287, 1960
3242, 2295, 2288, 1961
3243, 2356, 2289, 996
3244, 2884, 351, 2722
3245, 1965, 2356, 2399
3246, 2287, 2291, 1347
3247, 1971, 2291, 1960
3248, 2921, 2916, 2912
3249, 2891, 2887, 2890
3250, 1971, 1972, 2889
3251, 2911, 2913, 2933
3252, 1969, 2887, 2885
3253, 2288, 2295, 1353
3254, 1982, 2295, 1961
3255, 2979, 2974, 2970
3256, 2949, 2945, 2948
3257, 1982, 1983, 2947
3258, 2969, 2971, 2991
3259, 1980, 2945, 2943
3260, 2000, 1997, 2302
3261, 1991, 796, 2299
3262, 2304, 2306, 2303
3263, 2304, 2303, 2301
3264, 2003, 2300, 2001
3265, 2000, 1999, 2003
3266, 3002, 3814, 3500
3267, 2306, 2305, 1305
3268, 160, 2306, 1305
3269, 2013, 3494, 3495
3270, 1305, 2305, 800
3271, 2303, 2306, 160
3272, 2305, 2306, 2304
3273, 2311, 2308, 2021
3274, 3003, 2011, 2308
3275, 2131, 2310, 1515
3276, 2307, 2310, 2021
3277, 1061, 1062, 2311
3278, 2308, 2311, 1062
3279, 1063, 1064, 2312
3280, 2313, 2312, 1064
3281, 2314, 2313, 1064
3282, 2313, 2024, 2315
3283, 1064, 1065, 2314
3284, 2314, 1065, 2318
3285, 2316, 2315, 2024
3286, 2022, 2315, 419
3287, 2024, 2318, 5257
3288, 419, 2316, 420
3289, 2320, 2317, 1066
3290, 2318, 2317, 2023
3291, 2318, 2023, 5257
3292, 2318, 2024, 2314
3293, 2023, 2317, 2320
3294, 2321, 2319, 2320
3295, 2324, 2320, 1066
3296, 2321, 2320, 2025
3297, 2322, 2321, 2025
3298, 422, 2319, 2321
3299, 2322, 2025, 2323
3300, 422, 2322, 423
3301, 2025, 1067, 3005
3302, 2032, 2418, 2419
3303, 1066, 1067, 2324
3304, 2025, 2324, 1067
3305, 1024, 1025, 2325
3306, 2132, 2325, 1025
3307, 381, 2326, 382
3308, 2132, 2326, 2026
3309, 2330, 2327, 380
3310, 1023, 2333, 2332
3311, 2326, 2328, 2026
3312, 2329, 2328, 381
3313, 2331, 2330, 380
3314, 2328, 2329, 2327
3315, 2332, 2330, 2027
3316, 380, 379, 2331
3317, 2331, 379, 2336
3318, 2334, 2332, 2027
3319, 1023, 1024, 2333
3320, 2328, 2333, 2026
3321, 2332, 2333, 2327
3322, 1022, 1023, 2334
3323, 2332, 2334, 1023
3324, 2338, 2335, 2337
3325, 1021, 2340, 2028
3326, 2331, 2336, 2027
3327, 2337, 2336, 379
3328, 377, 2338, 378
3329, 2336, 2337, 2335
3330, 2338, 2028, 2340
3331, 2336, 2339, 2027
3332, 2338, 2340, 2335
3333, 1022, 2339, 2340
3334, 2339, 2335, 2340
3335, 2347, 376, 2346
3336, 2342, 2344, 1020
3337, 1021, 2028, 2342
3338, 2343, 2342, 2028
3339, 377, 2343, 2028
3340, 2344, 2343, 2341
3341, 2347, 2344, 2341
3342, 2029, 3058, 2345
3343, 1020, 2344, 2345
3344, 2029, 2345, 2344
3345, 375, 3010, 2349
3346, 2347, 2346, 2029
3347, 2344, 2347, 2029
3348, 2347, 2341, 3009
3349, 2351, 374, 2350
3350, 2348, 2351, 3011
3351, 375, 2349, 2346
3352, 3057, 2349, 2348
3353, 2030, 3014, 3013
3354, 2351, 2350, 2030
3355, 3011, 2351, 2030
3356, 2351, 2348, 3010
3357, 2358, 2359, 2361
3358, 2361, 2352, 2355
3359, 2354, 2353, 352
3360, 2355, 2353, 2031
3361, 2883, 2354, 352
3362, 2399, 2356, 2031
3363, 2361, 2031, 2358
3364, 2352, 2371, 2400
3365, 2357, 2356, 996
3366, 2031, 2354, 2399
3367, 996, 997, 2357
3368, 2357, 997, 2358
3369, 998, 2359, 997
3370, 2358, 997, 2359
3371, 2360, 2359, 998
3372, 2355, 2031, 2361
3373, 998, 2362, 2360
3374, 2364, 2366, 2362
3375, 2359, 2360, 2361
3376, 2352, 2361, 2360
3377, 998, 999, 2362
3378, 2362, 999, 2364
3379, 2364, 999, 2365
3380, 354, 2371, 2368
3381, 2365, 999, 1000
3382, 2364, 2363, 2366
3383, 2369, 2365, 1000
3384, 2364, 2365, 2401
3385, 2366, 2363, 2368
3386, 2360, 2366, 2352
3387, 2369, 1000, 2370
3388, 2373, 355, 2372
3389, 2372, 2368, 2363
3390, 2374, 354, 2368
3391, 2370, 1000, 1001
3392, 2367, 2376, 2401
3393, 2377, 2370, 1001
3394, 2367, 2369, 2370
3395, 2400, 354, 353
3396, 2366, 2371, 2352
3397, 2372, 2401, 2376
3398, 355, 2373, 356
3399, 2372, 2376, 2373
3400, 2367, 2402, 2378
3401, 2377, 1001, 2379
3402, 2372, 2374, 2368
3403, 356, 2378, 2380
3404, 2401, 2372, 2363
3405, 2367, 2373, 2376
3406, 2379, 1001, 1002
3407, 2375, 2378, 2402
3408, 2367, 2378, 2373
3409, 2380, 2378, 2375
3410, 2382, 2379, 1002
3411, 2375, 2377, 2379
3412, 2375, 2403, 2384
3413, 356, 2380, 357
3414, 2382, 1002, 2383
3415, 2387, 2384, 2381
3416, 2383, 1002, 1003
3417, 2381, 2384, 2403
3418, 2391, 2388, 2383
3419, 2381, 2382, 2383
3420, 2375, 2384, 2380
3421, 2385, 2384, 2387
3422, 2388, 2386, 2389
3423, 357, 2384, 2385
3424, 2392, 2397, 2391
3425, 2395, 2389, 2386
3426, 2389, 2387, 2388
3427, 2381, 2383, 2388
3428, 2391, 2383, 1003
3429, 2390, 2389, 2395
3430, 358, 2387, 2389
3431, 2397, 2386, 2391
3432, 358, 2389, 2390
3433, 2392, 2391, 1003
3434, 2386, 2388, 2391
3435, 1003, 1004, 2392
3436, 1004, 2394, 2392
3437, 2390, 2395, 359
3438, 3060, 1006, 2406
3439, 2394, 2393, 2398
3440, 2395, 2386, 2397
3441, 359, 2395, 2398
3442, 360, 5258, 5259
3443, 1004, 2396, 2405
3444, 2392, 2394, 2397
3445, 2397, 2394, 2398
3446, 359, 2398, 2393
3447, 2397, 2398, 2395
3448, 2354, 2290, 2399
3449, 1965, 2399, 2290
3450, 2352, 2400, 2355
3451, 354, 2400, 2371
3452, 2401, 2363, 2364
3453, 2367, 2401, 2369
3454, 2370, 2402, 2367
3455, 2375, 2402, 2377
3456, 2379, 2403, 2375
3457, 2381, 2403, 2382
3458, 2393, 2404, 2407
3459, 2405, 2394, 1004
3460, 2404, 2393, 2405
3461, 2417, 2410, 2406
3462, 2409, 361, 360
3463, 2408, 2404, 2411
3464, 2407, 2404, 2408
3465, 2410, 2408, 2406
3466, 2408, 2410, 2409
3467, 360, 2407, 2409
3468, 2408, 2409, 2407
3469, 2417, 1006, 2412
3470, 362, 361, 2413
3471, 3060, 2411, 1005
3472, 2408, 2411, 2406
3473, 1006, 3061, 2412
3474, 3072, 363, 362
3475, 361, 2410, 2413
3476, 2414, 2413, 2410
3477, 2417, 2414, 2410
3478, 2412, 3063, 2414
3479, 3063, 3061, 3062
3480, 3063, 3062, 2415
3481, 2414, 2416, 2413
3482, 3072, 2416, 2415
3483, 1006, 2417, 2406
3484, 2414, 2417, 2412
3485, 2419, 2418, 424
3486, 5084, 2418, 2032
3487, 423, 2419, 424
3488, 2032, 2419, 2323
3489, 2421, 2420, 446
3490, 2422, 2033, 2138
3491, 2423, 2421, 446
3492, 2421, 2034, 2424
3493, 2140, 2425, 2138
3494, 447, 2420, 2422
3495, 446, 445, 2423
3496, 3074, 3073, 445
3497, 2427, 2424, 2034
3498, 2428, 2424, 2427
3499, 2698, 2425, 2133
3500, 2426, 2425, 448
3501, 447, 2422, 2426
3502, 2425, 2426, 2422
3503, 5093, 2427, 2034
3504, 1090, 2427, 1089
3505, 2429, 2428, 1090
3506, 2033, 2424, 2428
3507, 1090, 1091, 2429
3508, 2429, 1091, 2430
3509, 2431, 2430, 1091
3510, 2033, 2430, 2138
3511, 1091, 1092, 2431
3512, 1092, 2136, 2431
3513, 5096, 5097, 5101
3514, 1089, 5093, 5094
3515, 458, 457, 2433
3516, 457, 2035, 2433
3517, 1103, 1104, 2434
3518, 2038, 2434, 1104
3519, 461, 460, 2435
3520, 2037, 2435, 460
3521, 460, 459, 2436
3522, 2441, 2436, 459
3523, 2437, 1106, 2149
3524, 2037, 1105, 2437
3525, 459, 458, 2438
3526, 2439, 2438, 458
3527, 2433, 2439, 458
3528, 2434, 2439, 2035
3529, 1104, 1105, 2440
3530, 2037, 2440, 1105
3531, 2438, 2441, 459
3532, 2440, 2441, 2038
3533, 2144, 2442, 456
3534, 2035, 2442, 2039
3535, 1102, 1103, 2443
3536, 2035, 2443, 1103
3537, 2446, 2444, 341
3538, 2150, 2444, 2040
3539, 2700, 2445, 984
3540, 2445, 2040, 2446
3541, 2444, 2446, 2040
3542, 2447, 341, 340
3543, 2041, 2446, 2447
3544, 341, 2447, 2446
3545, 982, 983, 2448
3546, 2446, 2448, 983
3547, 981, 982, 2449
3548, 2450, 2449, 982
3549, 2448, 2450, 982
3550, 2041, 2447, 2451
3551, 339, 2451, 340
3552, 2042, 2450, 2451
3553, 2453, 338, 1683
3554, 981, 2454, 980
3555, 980, 2453, 1682
3556, 338, 2453, 2452
3557, 2452, 2453, 2454
3558, 980, 2454, 2453
3559, 2467, 265, 2465
3560, 5191, 2455, 2043
3561, 2456, 3076, 3077
3562, 258, 3078, 259
3563, 898, 899, 2457
3564, 3075, 2457, 899
3565, 897, 2458, 1689
3566, 2458, 898, 2457
3567, 2459, 259, 3078
3568, 2459, 2046, 2463
3569, 900, 901, 2460
3570, 2463, 2460, 901
3571, 901, 902, 2461
3572, 2469, 2461, 902
3573, 260, 2459, 2463
3574, 2476, 2462, 2047
3575, 2463, 2046, 2460
3576, 2047, 2462, 2463
3577, 2471, 263, 2470
3578, 2048, 3080, 2466
3579, 2474, 3080, 2048
3580, 2455, 2467, 2043
3581, 2048, 2466, 2464
3582, 265, 2466, 2465
3583, 265, 2467, 2455
3584, 3079, 2467, 2465
3585, 2475, 903, 2472
3586, 2469, 2468, 2049
3587, 2476, 2469, 2049
3588, 2469, 2047, 2461
3589, 2475, 2468, 903
3590, 2464, 2471, 2048
3591, 263, 2471, 2464
3592, 2470, 2049, 2475
3593, 2048, 2471, 2472
3594, 2471, 2470, 2475
3595, 3082, 905, 3080
3596, 2472, 903, 2473
3597, 2048, 2472, 2474
3598, 2468, 2475, 2049
3599, 2471, 2475, 2472
3600, 2476, 261, 2462
3601, 2470, 2476, 2049
3602, 860, 861, 2477
3603, 2481, 2477, 861
3604, 2508, 2478, 221
3605, 2478, 2050, 2481
3606, 861, 862, 2479
3607, 2152, 2479, 862
3608, 222, 2480, 223
3609, 2152, 2480, 2051
3610, 2477, 2481, 2050
3611, 2479, 2481, 861
3612, 859, 2492, 2482
3613, 2498, 2493, 219
3614, 2483, 2052, 2484
3615, 2491, 2483, 858
3616, 2052, 218, 2486
3617, 2484, 2486, 2497
3618, 218, 2488, 2486
3619, 2484, 857, 2485
3620, 217, 2489, 2488
3621, 2494, 2487, 2053
3622, 857, 2484, 2487
3623, 218, 217, 2488
3624, 216, 2490, 217
3625, 2053, 2487, 2489
3626, 2497, 2489, 2487
3627, 2501, 2490, 216
3628, 2053, 2489, 2490
3629, 860, 2492, 859
3630, 2483, 2491, 2482
3631, 2492, 2499, 2493
3632, 2499, 2492, 2054
3633, 220, 219, 2493
3634, 2494, 2053, 2495
3635, 2496, 2494, 856
3636, 2495, 2053, 2501
3637, 2495, 2501, 2505
3638, 2484, 2497, 2487
3639, 2494, 2496, 2487
3640, 2488, 2497, 2486
3641, 218, 2498, 219
3642, 2482, 2498, 2052
3643, 2499, 2054, 2508
3644, 220, 2493, 2499
3645, 855, 856, 2500
3646, 2494, 2500, 856
3647, 2490, 2501, 2053
3648, 2502, 2501, 216
3649, 216, 215, 2502
3650, 2503, 2502, 215
3651, 2504, 2503, 215
3652, 2503, 2057, 2505
3653, 215, 214, 2504
3654, 2504, 214, 5194
3655, 2506, 2505, 2057
3656, 855, 2495, 2505
3657, 2057, 5194, 5195
3658, 855, 2506, 854
3659, 2508, 2507, 2050
3660, 2492, 2507, 2054
3661, 2508, 221, 220
3662, 2507, 2508, 2054
3663, 2510, 2055, 939
3664, 2265, 2511, 2056
3665, 2512, 2510, 939
3666, 2511, 2510, 2056
3667, 298, 2509, 2511
3668, 2510, 2511, 2509
3669, 939, 940, 2512
3670, 2056, 2512, 940
3671, 181, 180, 2513
3672, 2516, 2513, 180
3673, 2521, 2514, 819
3674, 2514, 2058, 2516
3675, 180, 179, 2515
3676, 2060, 2515, 179
3677, 2515, 2516, 180
3678, 2514, 2516, 2059
3679, 2063, 2517, 182
3680, 2183, 2517, 2062
3681, 2711, 2518, 821
3682, 2063, 2518, 2062
3683, 182, 181, 2519
3684, 2520, 2519, 181
3685, 2058, 2514, 2521
3686, 2519, 2520, 2063
3687, 820, 2521, 819
3688, 2063, 2520, 2521
3689, 2523, 2522, 193
3690, 2064, 5234, 2530
3691, 2524, 2523, 193
3692, 2526, 2525, 2064
3693, 193, 192, 2524
3694, 2715, 3373, 192
3695, 5222, 834, 5221
3696, 2064, 2523, 2526
3697, 2523, 2065, 2526
3698, 2527, 2526, 2065
3699, 3372, 2528, 2065
3700, 833, 2525, 2527
3701, 2222, 832, 2528
3702, 832, 2527, 2528
3703, 5222, 2064, 2525
3704, 5234, 5224, 2529
3705, 2064, 2530, 2522
3706, 2531, 2530, 2529
3707, 5224, 5228, 2529
3708, 194, 2531, 195
3709, 2533, 2532, 1160
3710, 2534, 2532, 2066
3711, 2535, 2533, 1160
3712, 2067, 2543, 2545
3713, 2236, 2534, 2066
3714, 2232, 2717, 2718
3715, 1160, 1161, 2535
3716, 2536, 2535, 1161
3717, 2537, 2536, 1161
3718, 2533, 2536, 2067
3719, 1161, 1162, 2537
3720, 2537, 1162, 2539
3721, 2539, 2540, 2538
3722, 513, 2543, 2542
3723, 2540, 2539, 1162
3724, 2541, 2539, 2538
3725, 1162, 1163, 2540
3726, 2540, 1163, 5261
3727, 2541, 2538, 2542
3728, 2541, 2067, 2536
3729, 5274, 2538, 5266
3730, 514, 513, 2542
3731, 2545, 2544, 512
3732, 2067, 2541, 2543
3733, 2545, 512, 2546
3734, 2543, 513, 2544
3735, 2067, 2545, 2547
3736, 512, 511, 2546
3737, 2548, 2546, 511
3738, 2066, 2533, 2547
3739, 2547, 2533, 2067
3740, 2237, 2548, 511
3741, 2066, 2548, 2236
3742, 1146, 1147, 2549
3743, 2551, 2549, 1147
3744, 2556, 2550, 500
3745, 2550, 2068, 2551
3746, 2549, 2551, 2068
3747, 2553, 1147, 1148
3748, 502, 2552, 2157
3749, 2550, 2552, 501
3750, 2157, 2551, 2553
3751, 1147, 2553, 2551
3752, 1145, 1146, 2554
3753, 2555, 2554, 1146
3754, 2549, 2555, 1146
3755, 2556, 2555, 2068
3756, 499, 2556, 500
3757, 2555, 2556, 2069
3758, 1145, 2557, 1144
3759, 2238, 2557, 2070
3760, 2554, 2558, 1145
3761, 2559, 2069, 499
3762, 498, 2559, 499
3763, 2070, 2558, 2559
3764, 3517, 2560, 532
3765, 2071, 3086, 2587
3766, 619, 618, 2561
3767, 2564, 2561, 618
3768, 2562, 1269, 2701
3769, 2072, 1268, 2562
3770, 1267, 1268, 2563
3771, 2072, 2563, 1268
3772, 2565, 2564, 618
3773, 2563, 2564, 2073
3774, 618, 617, 2565
3775, 2570, 2565, 617
3776, 2194, 2566, 615
3777, 2075, 2566, 2074
3778, 1265, 1266, 2567
3779, 2075, 2567, 1266
3780, 617, 616, 2568
3781, 616, 2075, 2568
3782, 1266, 1267, 2569
3783, 2073, 2569, 1267
3784, 2568, 2570, 617
3785, 2569, 2570, 2075
3786, 2573, 2571, 537
3787, 2580, 2571, 2076
3788, 2577, 2572, 1185
3789, 2572, 2076, 2573
3790, 2571, 2573, 2076
3791, 2575, 537, 536
3792, 1183, 2574, 2077
3793, 2572, 2574, 1184
3794, 2077, 2573, 2575
3795, 537, 2575, 2573
3796, 2576, 2578, 2582
3797, 2581, 539, 538
3798, 2572, 2577, 2076
3799, 2578, 2577, 1185
3800, 1186, 3083, 2582
3801, 2577, 2578, 2576
3802, 3084, 540, 539
3803, 2577, 2580, 2076
3804, 2582, 2581, 2576
3805, 538, 2580, 2581
3806, 2581, 2580, 2576
3807, 3083, 1186, 1187
3808, 2581, 2582, 2579
3809, 535, 2584, 2583
3810, 2077, 2588, 1183
3811, 2585, 535, 534
3812, 2588, 2584, 2078
3813, 2585, 3085, 2586
3814, 2078, 2584, 2585
3815, 2586, 2587, 3086
3816, 2585, 2586, 3091
3817, 2071, 2587, 2560
3818, 3085, 2587, 2586
3819, 2584, 2588, 2583
3820, 3090, 2589, 2588
3821, 1183, 2588, 2589
3822, 3090, 2588, 2078
3823, 1187, 1188, 2590
3824, 2591, 2590, 1188
3825, 1760, 2591, 1761
3826, 2079, 2591, 2080
3827, 2595, 605, 2594
3828, 2602, 2595, 2082
3829, 2202, 606, 2593
3830, 3092, 2593, 606
3831, 604, 3093, 2597
3832, 2595, 2594, 2082
3833, 2602, 2082, 2598
3834, 2595, 2592, 3092
3835, 3901, 3897, 5246
3836, 5239, 5238, 1252
3837, 604, 2597, 2594
3838, 5237, 2597, 2596
3839, 2598, 1253, 2599
3840, 5239, 2082, 5237
3841, 1253, 2603, 2599
3842, 1254, 2203, 2600
3843, 2081, 2593, 2601
3844, 2600, 2599, 2603
3845, 2599, 2601, 2592
3846, 2081, 2601, 2600
3847, 2598, 2599, 2602
3848, 2592, 2602, 2599
3849, 1253, 1254, 2603
3850, 2600, 2603, 1254
3851, 2605, 2604, 579
3852, 2608, 2604, 2083
3853, 2621, 2605, 578
3854, 2084, 2618, 2619
3855, 2606, 1229, 2609
3856, 2620, 2606, 2083
3857, 2610, 2609, 1229
3858, 2611, 2616, 2610
3859, 2612, 2608, 2607
3860, 2604, 2608, 580
3861, 2610, 1229, 1230
3862, 2608, 2609, 2607
3863, 2611, 2610, 1230
3864, 2607, 2609, 2610
3865, 2613, 2611, 1230
3866, 2623, 2614, 2085
3867, 2607, 2616, 2617
3868, 580, 2612, 581
3869, 1230, 1231, 2613
3870, 1231, 3096, 3097
3871, 2615, 2614, 582
3872, 2610, 2616, 2607
3873, 582, 581, 2615
3874, 581, 2612, 2617
3875, 2611, 2614, 2616
3876, 2615, 2616, 2614
3877, 581, 2617, 2615
3878, 2607, 2617, 2612
3879, 1226, 1227, 2618
3880, 2619, 2618, 1227
3881, 2620, 1227, 1228
3882, 2084, 2619, 2605
3883, 2606, 2620, 1228
3884, 2083, 2605, 2620
3885, 2621, 577, 2625
3886, 2605, 2621, 2084
3887, 2085, 3097, 3096
3888, 2622, 3096, 3099
3889, 2614, 2623, 582
3890, 2624, 2623, 2085
3891, 3096, 2624, 2085
3892, 2624, 2622, 3095
3893, 2625, 576, 2705
3894, 2621, 2625, 2086
3895, 1225, 1226, 2626
3896, 2084, 2626, 1226
3897, 655, 656, 2627
3898, 2629, 2627, 656
3899, 2708, 2628, 21
3900, 2628, 2087, 2629
3901, 2627, 2629, 2087
3902, 2630, 657, 2632
3903, 2629, 656, 2630
3904, 656, 657, 2630
3905, 23, 22, 2631
3906, 2629, 2631, 22
3907, 658, 2633, 2632
3908, 2634, 23, 2631
3909, 2169, 2633, 658
3910, 2634, 2633, 2089
3911, 2633, 2634, 2632
3912, 2634, 2089, 2170
3913, 141, 140, 2635
3914, 2635, 140, 2214
3915, 778, 779, 2636
3916, 779, 2090, 2636
3917, 2635, 2637, 2090
3918, 2638, 2637, 2091
3919, 777, 778, 2638
3920, 2637, 2638, 778
3921, 2176, 2639, 780
3922, 2090, 2639, 2093
3923, 142, 141, 2640
3924, 2090, 2640, 141
3925, 2643, 127, 2642
3926, 3186, 3190, 763
3927, 2642, 126, 3193
3928, 2643, 2642, 2095
3929, 3190, 2643, 2095
3930, 2643, 2641, 3185
3931, 106, 3307, 2646
3932, 3313, 2096, 3311
3933, 105, 3366, 2684
3934, 2645, 3370, 3371
3935, 106, 2646, 2644
3936, 3308, 2646, 2645
3937, 5248, 2098, 2650
3938, 2647, 5247, 5250
3939, 2261, 2648, 34
3940, 2649, 2648, 2098
3941, 5247, 2649, 2098
3942, 2649, 2647, 3316
3943, 5248, 671, 5247
3944, 2098, 2261, 2651
3945, 2651, 2097, 2258
3946, 2098, 2651, 2650
3947, 2099, 3320, 3319
3948, 2099, 3317, 2656
3949, 2655, 57, 2654
3950, 2659, 2100, 2658
3951, 2652, 2656, 56
3952, 2654, 2656, 3317
3953, 57, 2655, 2653
3954, 3363, 2655, 2654
3955, 2099, 2656, 2652
3956, 57, 2656, 2654
3957, 2661, 59, 2658
3958, 2670, 2657, 2101
3959, 2653, 2659, 58
3960, 2660, 2662, 694
3961, 2100, 2659, 2653
3962, 59, 2659, 2658
3963, 2665, 2660, 695
3964, 2661, 2660, 2101
3965, 2657, 2661, 2101
3966, 2662, 2661, 2658
3967, 2658, 2100, 2662
3968, 2100, 3364, 2663
3969, 694, 2662, 2663
3970, 2100, 2663, 2662
3971, 696, 2667, 2664
3972, 2670, 60, 2657
3973, 2660, 2665, 2101
3974, 2666, 2665, 695
3975, 2668, 2667, 696
3976, 2665, 2666, 2664
3977, 2669, 2667, 2102
3978, 696, 697, 2668
3979, 2668, 697, 2674
3980, 2672, 2669, 2102
3981, 2671, 61, 60
3982, 2667, 2670, 2664
3983, 2671, 2669, 61
3984, 60, 2670, 2671
3985, 2669, 2671, 2670
3986, 2669, 2672, 61
3987, 2103, 2672, 2102
3988, 2672, 2673, 62
3989, 2677, 2103, 2675
3990, 2668, 2674, 2102
3991, 698, 2674, 697
3992, 2676, 699, 1820
3993, 1819, 2677, 2676
3994, 2677, 1819, 64
3995, 699, 2676, 2675
3996, 63, 2677, 64
3997, 2675, 2676, 2677
3998, 2674, 2678, 2103
3999, 2679, 2678, 698
4000, 2104, 2685, 2681
4001, 2678, 2679, 2675
4002, 739, 2680, 2683
4003, 2682, 2681, 103
4004, 2683, 2681, 2682
4005, 103, 102, 2682
4006, 2105, 2682, 102
4007, 2683, 2105, 2687
4008, 2680, 2681, 2683
4009, 2684, 2686, 3367
4010, 3307, 2684, 2645
4011, 2681, 2685, 103
4012, 2686, 2685, 2104
4013, 3367, 2686, 2104
4014, 2686, 2684, 3366
4015, 738, 739, 2687
4016, 2683, 2687, 739
4017, 101, 2690, 2689
4018, 2105, 102, 2688
4019, 2689, 2106, 2691
4020, 2105, 2688, 2689
4021, 2690, 100, 2693
4022, 2689, 2690, 2106
4023, 737, 738, 2691
4024, 2689, 2691, 738
4025, 2691, 2692, 737
4026, 2690, 2692, 2106
4027, 2693, 99, 2697
4028, 2690, 2693, 2107
4029, 736, 737, 2694
4030, 2692, 2694, 737
4031, 735, 736, 2695
4032, 2696, 2695, 736
4033, 2694, 2696, 736
4034, 2693, 2696, 2107
4035, 2697, 98, 1903
4036, 2693, 2697, 2108
4037, 2425, 2698, 448
4038, 2134, 2698, 2133
4039, 2444, 2699, 342
4040, 1681, 2699, 2150
4041, 984, 985, 2700
4042, 2151, 2700, 985
4043, 2701, 1270, 1758
4044, 2562, 2701, 2162
4045, 2161, 620, 2703
4046, 1758, 2702, 2701
4047, 620, 619, 2703
4048, 2072, 2703, 619
4049, 1224, 1225, 2704
4050, 2086, 2704, 1225
4051, 1777, 2705, 575
4052, 2705, 2164, 2086
4053, 2707, 2706, 655
4054, 1786, 2706, 2165
4055, 2627, 2707, 655
4056, 2708, 2707, 2087
4057, 20, 2708, 21
4058, 2707, 2708, 2165
4059, 2173, 2709, 1558
4060, 2176, 2709, 2174
4061, 2517, 2710, 183
4062, 1872, 2710, 2183
4063, 821, 822, 2711
4064, 2712, 2711, 822
4065, 2184, 2712, 823
4066, 1724, 2183, 2712
4067, 2202, 2713, 607
4068, 1890, 2713, 2195
4069, 3372, 2224, 2222
4070, 2714, 3372, 3373
4071, 192, 191, 2715
4072, 2716, 2715, 191
4073, 1921, 2716, 191
4074, 2224, 2716, 1877
4075, 2228, 1158, 2717
4076, 2718, 1158, 1159
4077, 2232, 2718, 2534
4078, 1158, 2718, 2717
4079, 1924, 2719, 1896
4080, 2720, 2719, 130
4081, 2246, 2720, 129
4082, 2719, 2720, 2239
4083, 2258, 2721, 669
4084, 2250, 2721, 2251
4085, 351, 350, 2722
4086, 2271, 2722, 350
4087, 2005, 2723, 1937
4088, 2290, 2723, 1965
4089, 2727, 2724, 2726
4090, 2733, 2728, 2724
4091, 2281, 2725, 2280
4092, 2726, 2725, 1946
4093, 2282, 2726, 1946
4094, 2727, 2726, 285
4095, 285, 284, 2727
4096, 2730, 2727, 284
4097, 2727, 2730, 2733
4098, 923, 924, 2731
4099, 925, 2729, 924
4100, 2280, 2728, 2729
4101, 284, 2734, 2730
4102, 2736, 2738, 2734
4103, 2729, 2731, 924
4104, 2728, 2733, 2732
4105, 2730, 2734, 2738
4106, 2732, 2739, 2741
4107, 2727, 2733, 2724
4108, 2732, 2733, 2730
4109, 284, 283, 2734
4110, 2734, 283, 2736
4111, 2737, 2736, 283
4112, 2737, 2742, 2735
4113, 2737, 283, 282
4114, 2738, 2736, 2735
4115, 2742, 2737, 282
4116, 2735, 2736, 2737
4117, 2735, 2751, 2739
4118, 2738, 2732, 2730
4119, 2732, 2741, 923
4120, 2732, 2738, 2739
4121, 2742, 282, 2743
4122, 921, 2750, 2749
4123, 2743, 282, 281
4124, 2739, 922, 2741
4125, 2735, 2742, 2740
4126, 2743, 281, 2745
4127, 2740, 2742, 2743
4128, 2746, 2745, 281
4129, 2746, 2754, 2744
4130, 2746, 281, 280
4131, 2745, 2744, 2747
4132, 2755, 2754, 2746
4133, 2744, 2745, 2746
4134, 2740, 2751, 2735
4135, 2752, 2747, 2744
4136, 2748, 921, 2749
4137, 2752, 2749, 2747
4138, 2750, 921, 922
4139, 2740, 2747, 2749
4140, 2751, 922, 2739
4141, 2750, 2751, 2740
4142, 922, 2751, 2750
4143, 2752, 2744, 2758
4144, 2749, 2752, 2748
4145, 2756, 2755, 280
4146, 2762, 2756, 2760
4147, 2755, 2746, 280
4148, 919, 2757, 2766
4149, 2756, 280, 279
4150, 2753, 2754, 2755
4151, 2760, 2756, 279
4152, 2753, 2755, 2756
4153, 2757, 920, 2758
4154, 920, 2752, 2758
4155, 2754, 2758, 2744
4156, 2766, 2753, 2764
4157, 2760, 279, 2761
4158, 2761, 2771, 2759
4159, 2761, 279, 278
4160, 2762, 2760, 2759
4161, 2761, 278, 2769
4162, 2759, 2760, 2761
4163, 2762, 2759, 2765
4164, 2756, 2762, 2753
4165, 919, 2764, 2763
4166, 2762, 2764, 2753
4167, 2757, 2758, 2766
4168, 918, 2763, 2765
4169, 2764, 2765, 2763
4170, 2754, 2766, 2758
4171, 2770, 2769, 278
4172, 2775, 2770, 2773
4173, 2759, 2768, 2765
4174, 2767, 2778, 2815
4175, 2770, 278, 277
4176, 2771, 2767, 2768
4177, 2770, 277, 2773
4178, 2767, 2769, 2770
4179, 2759, 2771, 2768
4180, 2761, 2769, 2771
4181, 2774, 2773, 277
4182, 2781, 2774, 2779
4183, 2774, 277, 276
4184, 2775, 2773, 2772
4185, 2774, 276, 2779
4186, 2772, 2773, 2774
4187, 2775, 2772, 2784
4188, 2770, 2775, 2767
4189, 917, 2778, 2776
4190, 2775, 2778, 2767
4191, 2780, 2779, 276
4192, 2787, 2789, 2780
4193, 917, 2814, 2815
4194, 2780, 276, 275
4195, 2779, 2777, 2781
4196, 2787, 2780, 275
4197, 2777, 2779, 2780
4198, 2816, 2789, 2785
4199, 2784, 916, 2776
4200, 2782, 916, 2783
4201, 2783, 2781, 2786
4202, 2772, 2781, 2783
4203, 2781, 2777, 2786
4204, 2772, 2783, 2784
4205, 2784, 2783, 916
4206, 2787, 275, 2788
4207, 915, 2786, 2791
4208, 2783, 2786, 2782
4209, 2788, 275, 274
4210, 2789, 2787, 2785
4211, 2793, 2788, 274
4212, 2785, 2787, 2788
4213, 2798, 2816, 2785
4214, 2780, 2789, 2777
4215, 2798, 2785, 2795
4216, 915, 2791, 2790
4217, 2789, 2791, 2777
4218, 2790, 2791, 2816
4219, 2793, 274, 2794
4220, 2790, 2816, 2798
4221, 2794, 274, 273
4222, 2793, 2792, 2795
4223, 2800, 2794, 273
4224, 2792, 2793, 2794
4225, 2796, 2798, 2799
4226, 2798, 914, 2790
4227, 2802, 2799, 2792
4228, 2796, 914, 2798
4229, 2800, 273, 2801
4230, 2805, 2802, 2803
4231, 2799, 2795, 2792
4232, 2798, 2795, 2799
4233, 913, 2796, 2799
4234, 2801, 273, 272
4235, 2800, 2797, 2802
4236, 2806, 2801, 272
4237, 2797, 2800, 2801
4238, 2800, 2802, 2792
4239, 2802, 2797, 2803
4240, 3374, 2797, 2801
4241, 2802, 2805, 913
4242, 2806, 2808, 2804
4243, 2807, 2809, 2811
4244, 2808, 2806, 272
4245, 2803, 912, 2805
4246, 2804, 2807, 3374
4247, 3374, 2803, 2797
4248, 2809, 2807, 2804
4249, 272, 271, 2808
4250, 2808, 271, 2810
4251, 2810, 2812, 2808
4252, 2807, 2811, 912
4253, 2820, 271, 270
4254, 911, 2809, 2813
4255, 2808, 2812, 2804
4256, 2809, 911, 2811
4257, 2812, 2810, 2813
4258, 2820, 2817, 2819
4259, 911, 2813, 2818
4260, 2767, 2815, 2768
4261, 2815, 2814, 2768
4262, 917, 2815, 2778
4263, 2789, 2816, 2791
4264, 2817, 2820, 3375
4265, 2821, 910, 2813
4266, 2820, 2819, 2810
4267, 2813, 910, 2818
4268, 2819, 2817, 2821
4269, 271, 2820, 2810
4270, 2820, 270, 3375
4271, 3377, 2824, 2821
4272, 2823, 910, 2821
4273, 2822, 2824, 3377
4274, 3376, 2822, 3377
4275, 3377, 2821, 2817
4276, 2824, 2823, 2821
4277, 2824, 2822, 3383
4278, 2827, 2828, 2844
4279, 2284, 1571, 2825
4280, 2836, 2847, 2843
4281, 2831, 2284, 2825
4282, 2828, 2827, 1952
4283, 2827, 2826, 2830
4284, 2829, 1952, 1954
4285, 2286, 2842, 2844
4286, 2286, 2828, 2829
4287, 1952, 2829, 2828
4288, 2826, 2832, 2830
4289, 1126, 2834, 2832
4290, 2827, 2831, 2825
4291, 2830, 2284, 2831
4292, 2841, 2826, 2842
4293, 2834, 1126, 1311
4294, 478, 2834, 1311
4295, 3547, 3576, 3588
4296, 2830, 2832, 2834
4297, 2826, 2841, 2832
4298, 2862, 2868, 2870
4299, 2838, 2840, 2837
4300, 2837, 1126, 2838
4301, 2841, 2842, 2846
4302, 2849, 2842, 2286
4303, 2857, 2874, 2843
4304, 2841, 2840, 2838
4305, 2840, 2839, 2843
4306, 2832, 2841, 2838
4307, 2844, 2842, 2826
4308, 2850, 2849, 2286
4309, 2840, 2846, 2839
4310, 2873, 2857, 2839
4311, 2857, 2843, 2839
4312, 2827, 2844, 2826
4313, 2286, 2844, 2828
4314, 2854, 2876, 2853
4315, 2849, 2851, 2842
4316, 2841, 2846, 2840
4317, 2851, 2846, 2842
4318, 2836, 2837, 2847
4319, 2840, 2847, 2837
4320, 1957, 5306, 2880
4321, 2868, 2862, 2864
4322, 2850, 2286, 1955
4323, 2851, 2849, 2845
4324, 2855, 2850, 1955
4325, 2845, 2849, 2850
4326, 2853, 2851, 2845
4327, 2851, 2839, 2846
4328, 2845, 2854, 2853
4329, 2859, 2857, 2856
4330, 2881, 2880, 2854
4331, 2852, 2857, 2873
4332, 3405, 3407, 3409
4333, 2861, 3392, 2856
4334, 1958, 2855, 1955
4335, 2855, 2285, 2881
4336, 2861, 2876, 2878
4337, 2836, 2843, 2874
4338, 2860, 2859, 2856
4339, 2863, 2859, 2860
4340, 2874, 2857, 2859
4341, 2848, 2860, 2856
4342, 2852, 2856, 2857
4343, 2861, 2852, 2876
4344, 2860, 2848, 2864
4345, 2875, 2863, 2858
4346, 2868, 3391, 2866
4347, 3391, 3392, 3386
4348, 3563, 3547, 3564
4349, 2867, 2860, 2864
4350, 3580, 3566, 3565
4351, 3391, 2868, 2864
4352, 2867, 2865, 2863
4353, 2858, 2863, 2865
4354, 2860, 2867, 2863
4355, 3395, 2879, 3393
4356, 3554, 3557, 3597
4357, 2864, 2862, 2867
4358, 2870, 3566, 3580
4359, 3391, 2864, 2848
4360, 2866, 3400, 2870
4361, 3391, 3396, 2866
4362, 2867, 3579, 2865
4363, 2866, 2870, 2868
4364, 3585, 3586, 3416
4365, 3400, 3397, 3548
4366, 3539, 2835, 3579
4367, 2871, 3401, 3565
4368, 3569, 3561, 3590
4369, 2851, 2873, 2839
4370, 2852, 2873, 2853
4371, 2875, 2859, 2863
4372, 2836, 2874, 2875
4373, 2836, 2875, 2858
4374, 2859, 2875, 2874
4375, 2853, 2876, 2852
4376, 2878, 2876, 2854
4377, 5307, 2877, 2879
4378, 2879, 1956, 3393
4379, 2854, 2880, 5306
4380, 5307, 3387, 2878
4381, 1957, 3388, 5306
4382, 3388, 2877, 5307
4383, 2881, 2854, 2845
4384, 1957, 2880, 2285
4385, 2881, 2845, 2850
4386, 2285, 2880, 2881
4387, 352, 351, 2883
4388, 2285, 1958, 2882
4389, 2884, 2883, 351
4390, 2723, 2884, 2269
4391, 2883, 2884, 2290
4392, 2887, 2888, 2904
4393, 2292, 1347, 2885
4394, 2896, 2907, 2903
4395, 2891, 2292, 2885
4396, 2888, 2887, 1969
4397, 2887, 2886, 2890
4398, 2889, 1969, 1971
4399, 2294, 2902, 2904
4400, 2294, 2888, 2889
4401, 1969, 2889, 2888
4402, 2886, 2892, 2890
4403, 963, 2894, 2892
4404, 2887, 2891, 2885
4405, 2890, 2292, 2891
4406, 2901, 2886, 2902
4407, 2894, 963, 1299
4408, 319, 2894, 1299
4409, 3638, 3667, 3679
4410, 2890, 2892, 2894
4411, 2886, 2901, 2892
4412, 2922, 2928, 2930
4413, 2898, 2900, 2897
4414, 2897, 963, 2898
4415, 2901, 2902, 2906
4416, 2909, 2902, 2294
4417, 2917, 2934, 2903
4418, 2901, 2900, 2898
4419, 2900, 2899, 2903
4420, 2892, 2901, 2898
4421, 2904, 2902, 2886
4422, 2910, 2909, 2294
4423, 2900, 2906, 2899
4424, 2933, 2917, 2899
4425, 2917, 2903, 2899
4426, 2887, 2904, 2886
4427, 2294, 2904, 2888
4428, 2914, 2936, 2913
4429, 2909, 2911, 2902
4430, 2901, 2906, 2900
4431, 2911, 2906, 2902
4432, 2896, 2897, 2907
4433, 2900, 2907, 2897
4434, 1974, 5308, 2940
4435, 2928, 2922, 2924
4436, 2910, 2294, 1972
4437, 2911, 2909, 2905
4438, 2915, 2910, 1972
4439, 2905, 2909, 2910
4440, 2913, 2911, 2905
4441, 2911, 2899, 2906
4442, 2905, 2914, 2913
4443, 2919, 2917, 2916
4444, 2941, 2940, 2914
4445, 2912, 2917, 2933
4446, 3441, 3443, 3445
4447, 2921, 3428, 2916
4448, 1975, 2915, 1972
4449, 2915, 2293, 2941
4450, 2921, 2936, 2938
4451, 2896, 2903, 2934
4452, 2920, 2919, 2916
4453, 2923, 2919, 2920
4454, 2934, 2917, 2919
4455, 2908, 2920, 2916
4456, 2912, 2916, 2917
4457, 2921, 2912, 2936
4458, 2920, 2908, 2924
4459, 2935, 2923, 2918
4460, 2928, 3427, 2926
4461, 3427, 3428, 3422
4462, 3654, 3638, 3655
4463, 2927, 2920, 2924
4464, 3671, 3657, 3656
4465, 3427, 2928, 2924
4466, 2927, 2925, 2923
4467, 2918, 2923, 2925
4468, 2920, 2927, 2923
4469, 3431, 2939, 3429
4470, 3645, 3648, 3688
4471, 2924, 2922, 2927
4472, 2930, 3657, 3671
4473, 3427, 2924, 2908
4474, 2926, 3436, 2930
4475, 3427, 3432, 2926
4476, 2927, 3670, 2925
4477, 2926, 2930, 2928
4478, 3676, 3677, 3452
4479, 3436, 3433, 3639
4480, 3630, 2895, 3670
4481, 2931, 3437, 3656
4482, 3660, 3652, 3681
4483, 2911, 2933, 2899
4484, 2912, 2933, 2913
4485, 2935, 2919, 2923
4486, 2896, 2934, 2935
4487, 2896, 2935, 2918
4488, 2919, 2935, 2934
4489, 2913, 2936, 2912
4490, 2938, 2936, 2914
4491, 5309, 2937, 2939
4492, 2939, 1973, 3429
4493, 2914, 2940, 5308
4494, 5309, 3423, 2938
4495, 1974, 3424, 5308
4496, 3424, 2937, 5309
4497, 2941, 2914, 2905
4498, 1974, 2940, 2293
4499, 2941, 2905, 2910
4500, 2293, 2940, 2941
4501, 2945, 2946, 2962
4502, 2293, 1975, 2942
4503, 2296, 1353, 2943
4504, 2954, 2965, 2961
4505, 2949, 2296, 2943
4506, 2946, 2945, 1980
4507, 2945, 2944, 2948
4508, 2947, 1980, 1982
4509, 2298, 2960, 2962
4510, 2298, 2946, 2947
4511, 1980, 2947, 2946
4512, 2944, 2950, 2948
4513, 637, 2952, 2950
4514, 2945, 2949, 2943
4515, 2948, 2296, 2949
4516, 2959, 2944, 2960
4517, 2952, 637, 1316
4518, 1, 2952, 1316
4519, 3730, 3759, 3771
4520, 2948, 2950, 2952
4521, 2944, 2959, 2950
4522, 2980, 2986, 2988
4523, 2956, 2958, 2955
4524, 2955, 637, 2956
4525, 2959, 2960, 2964
4526, 2967, 2960, 2298
4527, 2975, 2992, 2961
4528, 2959, 2958, 2956
4529, 2958, 2957, 2961
4530, 2950, 2959, 2956
4531, 2962, 2960, 2944
4532, 2968, 2967, 2298
4533, 2958, 2964, 2957
4534, 2991, 2975, 2957
4535, 2975, 2961, 2957
4536, 2945, 2962, 2944
4537, 2298, 2962, 2946
4538, 2972, 2994, 2971
4539, 2967, 2969, 2960
4540, 2959, 2964, 2958
4541, 2969, 2964, 2960
4542, 2954, 2955, 2965
4543, 2958, 2965, 2955
4544, 1985, 5310, 2998
4545, 2986, 2980, 2982
4546, 2968, 2298, 1983
4547, 2969, 2967, 2963
4548, 2973, 2968, 1983
4549, 2963, 2967, 2968
4550, 2971, 2969, 2963
4551, 2969, 2957, 2964
4552, 2963, 2972, 2971
4553, 2977, 2975, 2974
4554, 2999, 2998, 2972
4555, 2970, 2975, 2991
4556, 3477, 3479, 3481
4557, 2979, 3464, 2974
4558, 1986, 2973, 1983
4559, 2973, 2297, 2999
4560, 2979, 2994, 2996
4561, 2954, 2961, 2992
4562, 2978, 2977, 2974
4563, 2981, 2977, 2978
4564, 2992, 2975, 2977
4565, 2966, 2978, 2974
4566, 2970, 2974, 2975
4567, 2979, 2970, 2994
4568, 2978, 2966, 2982
4569, 2993, 2981, 2976
4570, 2986, 3463, 2984
4571, 3463, 3464, 3458
4572, 3746, 3730, 3747
4573, 2985, 2978, 2982
4574, 3763, 3749, 3748
4575, 3463, 2986, 2982
4576, 2985, 2983, 2981
4577, 2976, 2981, 2983
4578, 2978, 2985, 2981
4579, 3467, 2997, 3465
4580, 3737, 3740, 3780
4581, 2982, 2980, 2985
4582, 2988, 3749, 3763
4583, 3463, 2982, 2966
4584, 2984, 3472, 2988
4585, 3463, 3468, 2984
4586, 2985, 3762, 2983
4587, 2984, 2988, 2986
4588, 3768, 3769, 3488
4589, 3472, 3469, 3731
4590, 3722, 2953, 3762
4591, 2989, 3473, 3748
4592, 3752, 3744, 3773
4593, 2969, 2991, 2957
4594, 2970, 2991, 2971
4595, 2993, 2977, 2981
4596, 2954, 2992, 2993
4597, 2954, 2993, 2976
4598, 2977, 2993, 2992
4599, 2971, 2994, 2970
4600, 2996, 2994, 2972
4601, 5311, 2995, 2997
4602, 2997, 1984, 3465
4603, 2972, 2998, 5310
4604, 5311, 3459, 2996
4605, 1985, 3460, 5310
4606, 3460, 2995, 5311
4607, 2999, 2972, 2963
4608, 1985, 2998, 2297
4609, 2999, 2963, 2968
4610, 2297, 2998, 2999
4611, 2012, 2014, 3494
4612, 2297, 1986, 3000
4613, 3497, 3500, 3814
4614, 2013, 3002, 1997
4615, 3495, 3002, 2013
4616, 3004, 2308, 1062
4617, 3003, 1063, 2312
4618, 3006, 1068, 3005
4619, 2308, 3004, 3003
4620, 3007, 3005, 1068
4621, 3008, 3007, 1068
4622, 3005, 1067, 3006
4623, 2032, 2323, 3007
4624, 1068, 1069, 3008
4625, 3008, 1069, 5081
4626, 377, 376, 3009
4627, 2347, 3009, 376
4628, 375, 374, 3010
4629, 2351, 3010, 374
4630, 3012, 3011, 2030
4631, 3057, 3011, 1018
4632, 3012, 2030, 3013
4633, 1018, 3012, 1017
4634, 2030, 2350, 3014
4635, 372, 3018, 3016
4636, 2350, 373, 3014
4637, 3015, 3014, 373
4638, 373, 372, 3015
4639, 3015, 372, 3016
4640, 3016, 3018, 3020
4641, 3024, 3028, 3020
4642, 3015, 3017, 3014
4643, 3029, 3017, 3016
4644, 372, 371, 3018
4645, 3021, 3020, 3018
4646, 3021, 3022, 3023
4647, 3021, 3023, 3019
4648, 3021, 3018, 371
4649, 3024, 3020, 3019
4650, 3023, 3022, 370
4651, 3019, 3020, 3021
4652, 369, 3025, 370
4653, 3021, 371, 3022
4654, 370, 3025, 3023
4655, 3027, 3024, 3019
4656, 3028, 3024, 1015
4657, 3035, 3033, 3034
4658, 1013, 3039, 3037
4659, 3023, 3025, 3031
4660, 3025, 3032, 3031
4661, 3026, 3027, 3019
4662, 1015, 3027, 1014
4663, 1015, 1016, 3028
4664, 3507, 3029, 1016
4665, 3017, 3029, 3013
4666, 3020, 3029, 3016
4667, 3035, 3030, 3033
4668, 3039, 3032, 3037
4669, 369, 3033, 3025
4670, 3019, 3031, 3026
4671, 3037, 3032, 3030
4672, 3026, 3031, 3032
4673, 3034, 368, 3035
4674, 3030, 3032, 3033
4675, 367, 3036, 3047
4676, 3033, 369, 3034
4677, 3035, 368, 3036
4678, 3046, 3042, 3045
4679, 3045, 3043, 3040
4680, 3038, 3037, 3030
4681, 1013, 1014, 3039
4682, 3040, 3038, 3030
4683, 3037, 3041, 1013
4684, 1014, 3026, 3039
4685, 3032, 3039, 3026
4686, 3035, 3040, 3030
4687, 3036, 3045, 3040
4688, 3036, 3046, 3045
4689, 3038, 1012, 3041
4690, 3051, 3046, 3050
4691, 3040, 3043, 3038
4692, 3044, 3043, 3042
4693, 3051, 3044, 3042
4694, 1012, 3044, 1011
4695, 3046, 3036, 367
4696, 3043, 3045, 3042
4697, 367, 3048, 3046
4698, 3046, 3048, 3050
4699, 367, 366, 3048
4700, 3036, 368, 3047
4701, 366, 3511, 3050
4702, 3512, 3509, 3511
4703, 3051, 3052, 3054
4704, 366, 3050, 3048
4705, 3050, 3049, 3051
4706, 3052, 3051, 3049
4707, 3044, 3051, 1011
4708, 3055, 3052, 3510
4709, 3051, 3054, 1011
4710, 3071, 3053, 3509
4711, 3053, 3071, 3069
4712, 3510, 3052, 3049
4713, 3052, 1010, 3054
4714, 3053, 3069, 3056
4715, 3011, 3057, 2348
4716, 3053, 3056, 3055
4717, 3059, 1019, 3057
4718, 2345, 3058, 1019
4719, 2029, 3057, 3058
4720, 1006, 1007, 3061
4721, 3057, 1018, 3059
4722, 2411, 3060, 2406
4723, 3061, 1007, 3062
4724, 1008, 3064, 1007
4725, 3062, 1007, 3064
4726, 3063, 2415, 2416
4727, 3061, 3063, 2412
4728, 3066, 3064, 1008
4729, 3068, 3064, 3066
4730, 3066, 1008, 3067
4731, 3068, 3508, 363
4732, 3067, 1008, 1009
4733, 3066, 3065, 3068
4734, 1009, 3056, 3069
4735, 3065, 3066, 3067
4736, 3508, 3068, 3065
4737, 3072, 3068, 363
4738, 3509, 3053, 3510
4739, 3067, 3069, 3515
4740, 3064, 3070, 3062
4741, 3072, 3070, 3068
4742, 364, 3071, 3513
4743, 3514, 3071, 364
4744, 2416, 3072, 362
4745, 3072, 2415, 3070
4746, 445, 3073, 2423
4747, 5093, 3073, 2432
4748, 5097, 5096, 5099
4749, 3073, 3074, 2432
4750, 3076, 3075, 899
4751, 3078, 3075, 2456
4752, 899, 900, 3076
4753, 3077, 3076, 900
4754, 2460, 3077, 900
4755, 2459, 3077, 2046
4756, 2044, 3078, 258
4757, 2459, 3078, 2456
4758, 3081, 3079, 905
4759, 2467, 3079, 2043
4760, 904, 3080, 2474
4761, 905, 3079, 3080
4762, 905, 906, 3081
4763, 3081, 906, 5183
4764, 3084, 2079, 540
4765, 3080, 904, 3082
4766, 2582, 3083, 2579
4767, 2579, 3083, 3084
4768, 2079, 3084, 3083
4769, 534, 533, 3085
4770, 2587, 3085, 533
4771, 3087, 3086, 2071
4772, 1181, 1182, 3089
4773, 3087, 2071, 3088
4774, 1181, 3087, 1180
4775, 3517, 3088, 2071
4776, 531, 3850, 3519
4777, 1182, 3090, 3089
4778, 3089, 3090, 3091
4779, 2589, 3090, 1182
4780, 3091, 3090, 2078
4781, 2585, 3091, 2078
4782, 2586, 3089, 3091
4783, 2595, 3092, 605
4784, 2593, 3092, 2592
4785, 5242, 3093, 603
4786, 2597, 3093, 2596
4787, 579, 578, 3094
4788, 578, 2605, 3094
4789, 584, 583, 3095
4790, 2624, 3095, 583
4791, 1232, 3099, 3098
4792, 3096, 3098, 3099
4793, 2611, 3097, 2085
4794, 1231, 3097, 2613
4795, 1233, 3100, 1232
4796, 3096, 1231, 3098
4797, 3099, 1232, 3100
4798, 3103, 3100, 1233
4799, 3103, 3102, 3100
4800, 3104, 3103, 1233
4801, 3170, 3104, 3106
4802, 3167, 3102, 3101
4803, 3095, 3102, 584
4804, 3104, 1233, 1234
4805, 3102, 3103, 3101
4806, 3106, 3104, 1234
4807, 3101, 3103, 3104
4808, 3106, 1234, 3107
4809, 3105, 3111, 3115
4810, 3107, 1234, 1235
4811, 3106, 3105, 3170
4812, 3107, 1235, 3109
4813, 3105, 3106, 3107
4814, 3109, 1235, 3110
4815, 3114, 3118, 3113
4816, 3110, 1235, 1236
4817, 3109, 3108, 3111
4818, 3116, 3110, 1236
4819, 3108, 3109, 3110
4820, 3108, 3113, 3111
4821, 3113, 587, 3115
4822, 3116, 1236, 3117
4823, 3114, 3120, 588
4824, 3113, 3108, 3114
4825, 3115, 587, 586
4826, 3108, 3119, 3114
4827, 3114, 3119, 3120
4828, 3115, 586, 3168
4829, 3111, 3113, 3115
4830, 3117, 1236, 1237
4831, 3116, 3112, 3119
4832, 3117, 1237, 3123
4833, 3112, 3116, 3117
4834, 3119, 3108, 3110
4835, 3114, 588, 3118
4836, 3120, 3119, 3112
4837, 3124, 3120, 3112
4838, 3122, 588, 3120
4839, 3123, 1237, 3125
4840, 3126, 589, 3127
4841, 3125, 1237, 1238
4842, 3127, 3122, 3120
4843, 3123, 3121, 3124
4844, 3123, 3124, 3112
4845, 3124, 3121, 3126
4846, 3129, 3125, 1238
4847, 3121, 3123, 3125
4848, 3144, 3126, 3121
4849, 590, 589, 3126
4850, 3120, 3124, 3127
4851, 3126, 3127, 3124
4852, 3129, 1238, 3130
4853, 3128, 3134, 3137
4854, 3130, 1238, 1239
4855, 3128, 3144, 3148
4856, 3132, 3130, 1239
4857, 3128, 3129, 3130
4858, 3132, 1239, 3133
4859, 3134, 3142, 3137
4860, 3133, 1239, 1240
4861, 3132, 3131, 3134
4862, 3138, 3133, 1240
4863, 3131, 3132, 3133
4864, 3136, 3142, 3147
4865, 3142, 3131, 3147
4866, 3138, 1240, 3139
4867, 3137, 3142, 591
4868, 3131, 3140, 3147
4869, 591, 3142, 3136
4870, 590, 3144, 3143
4871, 3144, 3121, 3148
4872, 3139, 1240, 1241
4873, 3140, 3138, 3135
4874, 3149, 3139, 1241
4875, 3135, 3138, 3139
4876, 3146, 3153, 3135
4877, 3133, 3140, 3131
4878, 3146, 593, 3141
4879, 3153, 592, 3147
4880, 3131, 3142, 3134
4881, 3143, 3144, 3137
4882, 3137, 591, 3143
4883, 3126, 3144, 590
4884, 3149, 1241, 3150
4885, 593, 3146, 3152
4886, 3135, 3139, 3151
4887, 593, 3152, 594
4888, 3147, 592, 3136
4889, 3125, 3148, 3121
4890, 3128, 3148, 3129
4891, 3150, 1241, 1242
4892, 3149, 3145, 3151
4893, 3155, 3150, 1242
4894, 3145, 3149, 3150
4895, 3152, 3151, 3145
4896, 3135, 3151, 3146
4897, 3151, 3152, 3146
4898, 3159, 3152, 3145
4899, 3141, 3153, 3146
4900, 3140, 3153, 3147
4901, 3155, 1242, 3156
4902, 3158, 3157, 3154
4903, 3156, 1242, 1243
4904, 3155, 3154, 3157
4905, 3156, 1243, 3161
4906, 3154, 3155, 3156
4907, 3154, 3165, 3158
4908, 3152, 3159, 594
4909, 595, 594, 3158
4910, 3159, 3158, 594
4911, 3145, 3157, 3159
4912, 3158, 3159, 3157
4913, 3162, 3161, 1243
4914, 3162, 3172, 3160
4915, 3162, 1243, 1244
4916, 3161, 3160, 3163
4917, 3173, 3172, 3162
4918, 3160, 3161, 3162
4919, 3166, 3160, 3176
4920, 3158, 3165, 595
4921, 3164, 595, 3165
4922, 3165, 3163, 3166
4923, 3154, 3163, 3165
4924, 3163, 3160, 3166
4925, 3165, 3166, 3164
4926, 3168, 3167, 3101
4927, 3169, 3167, 585
4928, 3170, 3168, 3101
4929, 585, 3168, 586
4930, 585, 584, 3169
4931, 3102, 3169, 584
4932, 3170, 3101, 3104
4933, 3115, 3170, 3105
4934, 3174, 3173, 1244
4935, 3180, 3174, 3178
4936, 3173, 3162, 1244
4937, 3182, 597, 3175
4938, 3174, 1244, 1245
4939, 3171, 3172, 3173
4940, 3178, 3174, 1245
4941, 3171, 3173, 3174
4942, 596, 3176, 3175
4943, 596, 3166, 3176
4944, 3172, 3176, 3160
4945, 3175, 3176, 3184
4946, 3890, 1247, 3892
4947, 3181, 3180, 3177
4948, 1246, 3183, 3179
4949, 3180, 3178, 3177
4950, 3177, 3178, 3521
4951, 1245, 3179, 3521
4952, 3523, 3181, 3177
4953, 3174, 3180, 3171
4954, 598, 597, 3181
4955, 3523, 598, 3181
4956, 3180, 3182, 3171
4957, 3181, 597, 3182
4958, 3175, 3184, 3182
4959, 3176, 3172, 3184
4960, 2643, 3185, 127
4961, 3530, 2641, 3189
4962, 764, 2247, 3188
4963, 3190, 3186, 2641
4964, 3189, 3188, 2094
4965, 3186, 763, 3187
4966, 764, 3188, 3186
4967, 2094, 2246, 3530
4968, 2641, 3186, 3189
4969, 2643, 3190, 2641
4970, 3191, 3190, 2095
4971, 3191, 2095, 3192
4972, 3194, 3191, 762
4973, 2095, 2642, 3193
4974, 3200, 3199, 761
4975, 126, 3197, 3193
4976, 3198, 3201, 3197
4977, 762, 763, 3194
4978, 763, 3190, 3194
4979, 761, 762, 3195
4980, 3191, 3195, 762
4981, 3201, 3198, 3208
4982, 3200, 3201, 3196
4983, 126, 125, 3197
4984, 3197, 125, 3198
4985, 125, 3202, 3198
4986, 3204, 3202, 3205
4987, 3195, 3200, 761
4988, 3196, 760, 3199
4989, 3201, 3200, 3192
4990, 3192, 3193, 3201
4991, 3197, 3201, 3193
4992, 125, 124, 3202
4993, 3202, 124, 3205
4994, 3206, 3205, 124
4995, 3211, 3203, 3206
4996, 3203, 3210, 3204
4997, 3201, 3208, 3196
4998, 3206, 124, 123
4999, 3204, 3205, 3203
5000, 3211, 3206, 123
5001, 3203, 3205, 3206
5002, 3210, 760, 3196
5003, 3210, 3196, 3208
5004, 3198, 3204, 3208
5005, 3203, 3222, 3210
5006, 3212, 3211, 123
5007, 3216, 3212, 3214
5008, 760, 3210, 3207
5009, 3212, 123, 122
5010, 3211, 3209, 3223
5011, 3212, 122, 3214
5012, 3209, 3211, 3212
5013, 3215, 3214, 122
5014, 3215, 3224, 3213
5015, 3215, 122, 121
5016, 3214, 3213, 3216
5017, 3225, 3224, 3215
5018, 3213, 3214, 3215
5019, 3220, 3213, 3228
5020, 3219, 758, 759
5021, 3217, 758, 3218
5022, 3220, 3218, 3216
5023, 3209, 3216, 3218
5024, 3213, 3220, 3216
5025, 3222, 3219, 759
5026, 3209, 3218, 3219
5027, 3218, 3220, 3217
5028, 3226, 3225, 121
5029, 3232, 3226, 3230
5030, 3222, 759, 3207
5031, 3223, 3222, 3203
5032, 3211, 3223, 3203
5033, 3209, 3219, 3223
5034, 3225, 3215, 121
5035, 756, 3227, 3236
5036, 3226, 121, 120
5037, 3221, 3224, 3225
5038, 3230, 3226, 120
5039, 3221, 3225, 3226
5040, 3227, 757, 3228
5041, 757, 3220, 3228
5042, 3224, 3228, 3213
5043, 3236, 3221, 3234
5044, 3230, 120, 3231
5045, 3239, 3295, 3231
5046, 3231, 120, 119
5047, 3232, 3230, 3229
5048, 3231, 119, 3239
5049, 3229, 3230, 3231
5050, 3232, 3229, 3235
5051, 3226, 3232, 3221
5052, 756, 3234, 3233
5053, 3232, 3234, 3221
5054, 3227, 3228, 3236
5055, 755, 3233, 3235
5056, 3234, 3235, 3233
5057, 3224, 3236, 3228
5058, 3240, 3239, 119
5059, 3244, 3240, 3242
5060, 3229, 3238, 3235
5061, 3237, 3247, 3294
5062, 3240, 119, 118
5063, 3295, 3237, 3238
5064, 3240, 118, 3242
5065, 3237, 3239, 3240
5066, 3243, 3242, 118
5067, 3250, 3243, 3248
5068, 3243, 118, 117
5069, 3244, 3242, 3241
5070, 3243, 117, 3248
5071, 3241, 3242, 3243
5072, 3244, 3241, 3253
5073, 3240, 3244, 3237
5074, 754, 3247, 3245
5075, 3244, 3247, 3237
5076, 3249, 3248, 117
5077, 3256, 3258, 3249
5078, 754, 3293, 3294
5079, 3249, 117, 116
5080, 3248, 3246, 3250
5081, 3256, 3249, 116
5082, 3246, 3248, 3249
5083, 3258, 3259, 3260
5084, 3253, 753, 3245
5085, 3251, 753, 3252
5086, 3252, 3250, 3255
5087, 3241, 3250, 3252
5088, 3250, 3246, 3255
5089, 3241, 3252, 3253
5090, 3253, 3252, 753
5091, 3256, 116, 3257
5092, 752, 3255, 3260
5093, 3252, 3255, 3251
5094, 3257, 116, 115
5095, 3258, 3256, 3254
5096, 3262, 3257, 115
5097, 3254, 3256, 3257
5098, 3258, 3254, 3259
5099, 3249, 3258, 3246
5100, 3267, 3254, 3264
5101, 751, 752, 3259
5102, 3258, 3260, 3246
5103, 752, 3260, 3259
5104, 3262, 115, 3263
5105, 751, 3259, 3267
5106, 3263, 115, 114
5107, 3262, 3261, 3264
5108, 3269, 3263, 114
5109, 3261, 3262, 3263
5110, 3261, 3268, 3273
5111, 3267, 3259, 3254
5112, 3268, 750, 3265
5113, 3267, 3273, 751
5114, 3269, 114, 3270
5115, 3272, 750, 3268
5116, 3273, 3264, 3261
5117, 751, 3273, 3265
5118, 3261, 3271, 3268
5119, 750, 3272, 749
5120, 3269, 3266, 3271
5121, 3275, 3270, 113
5122, 3266, 3269, 3270
5123, 3271, 3261, 3263
5124, 3272, 3271, 3266
5125, 3271, 3272, 3268
5126, 3266, 3296, 3276
5127, 3265, 3273, 3268
5128, 3264, 3273, 3267
5129, 3275, 3277, 3274
5130, 3297, 749, 3276
5131, 3277, 3275, 113
5132, 3274, 3276, 3296
5133, 3266, 3276, 3272
5134, 3297, 3276, 3274
5135, 113, 112, 3277
5136, 3277, 112, 3279
5137, 3279, 112, 3280
5138, 3282, 3288, 3278
5139, 3280, 112, 111
5140, 3274, 3279, 3278
5141, 3282, 3280, 3283
5142, 3278, 3279, 3280
5143, 3283, 3285, 3286
5144, 3283, 3286, 3281
5145, 3281, 3284, 3282
5146, 3282, 3284, 3288
5147, 3286, 3285, 110
5148, 3281, 3282, 3283
5149, 3287, 3284, 3281
5150, 3284, 747, 3288
5151, 109, 3289, 110
5152, 3283, 111, 3285
5153, 3286, 110, 3289
5154, 3290, 3287, 3292
5155, 3284, 3291, 747
5156, 3299, 748, 3288
5157, 748, 3297, 3298
5158, 3303, 3300, 3302
5159, 3290, 3301, 746
5160, 3292, 3287, 3281
5161, 3289, 109, 3302
5162, 3286, 3289, 3292
5163, 3287, 746, 3291
5164, 3304, 3292, 3289
5165, 3237, 3294, 3238
5166, 3294, 3293, 3238
5167, 754, 3294, 3247
5168, 3231, 3295, 3229
5169, 3237, 3295, 3239
5170, 3270, 3296, 3266
5171, 3274, 3296, 3275
5172, 3298, 3297, 3274
5173, 749, 3297, 748
5174, 3278, 3298, 3274
5175, 748, 3298, 3288
5176, 3315, 108, 107
5177, 3288, 747, 3299
5178, 3304, 3305, 3290
5179, 3303, 3302, 109
5180, 3290, 745, 3301
5181, 3304, 3302, 3300
5182, 109, 108, 3303
5183, 3303, 108, 3314
5184, 3304, 3300, 3305
5185, 3304, 3290, 3292
5186, 3312, 3305, 3300
5187, 3306, 745, 3305
5188, 106, 105, 3307
5189, 3312, 3306, 3305
5190, 2684, 3307, 105
5191, 3310, 3309, 743
5192, 2646, 3308, 2096
5193, 3531, 743, 744
5194, 3308, 742, 3309
5195, 2096, 3308, 3310
5196, 744, 3306, 3312
5197, 3311, 3314, 3313
5198, 3314, 3312, 3300
5199, 3312, 3311, 3531
5200, 2096, 3313, 2644
5201, 3312, 3314, 3311
5202, 3303, 3314, 3300
5203, 3315, 3314, 108
5204, 107, 3313, 3315
5205, 3314, 3315, 3313
5206, 2649, 3316, 35
5207, 5253, 2647, 5252
5208, 3318, 3317, 2099
5209, 3363, 3317, 692
5210, 3318, 2099, 3319
5211, 692, 3318, 691
5212, 2099, 2652, 3320
5213, 54, 3324, 3322
5214, 2652, 55, 3320
5215, 3321, 3320, 55
5216, 55, 54, 3321
5217, 3321, 54, 3322
5218, 3322, 3324, 3326
5219, 3330, 3334, 3326
5220, 3321, 3323, 3320
5221, 3335, 3323, 3322
5222, 54, 53, 3324
5223, 3327, 3326, 3324
5224, 3327, 3328, 3329
5225, 3327, 3329, 3325
5226, 3327, 3324, 53
5227, 3330, 3326, 3325
5228, 3329, 3328, 52
5229, 3325, 3326, 3327
5230, 51, 3331, 52
5231, 3327, 53, 3328
5232, 52, 3331, 3329
5233, 3333, 3330, 3325
5234, 3334, 3330, 689
5235, 3341, 3339, 3340
5236, 687, 3345, 3343
5237, 3329, 3331, 3337
5238, 3331, 3338, 3337
5239, 3332, 3333, 3325
5240, 689, 3333, 688
5241, 689, 690, 3334
5242, 3532, 3335, 690
5243, 3323, 3335, 3319
5244, 3326, 3335, 3322
5245, 3342, 3341, 50
5246, 3345, 3338, 3343
5247, 51, 3339, 3331
5248, 3325, 3337, 3332
5249, 3343, 3338, 3336
5250, 3332, 3337, 3338
5251, 3341, 3340, 50
5252, 3336, 3338, 3339
5253, 3342, 3353, 49
5254, 3339, 51, 3340
5255, 3339, 3341, 3336
5256, 3352, 3348, 3351
5257, 3351, 3349, 3346
5258, 3344, 3343, 3336
5259, 687, 688, 3345
5260, 3346, 3344, 3336
5261, 3343, 3347, 687
5262, 688, 3332, 3345
5263, 3338, 3345, 3332
5264, 3341, 3346, 3336
5265, 3342, 3351, 3346
5266, 3342, 3352, 3351
5267, 3344, 686, 3347
5268, 3357, 3352, 3356
5269, 3346, 3349, 3344
5270, 3350, 3349, 3348
5271, 3357, 3350, 3348
5272, 686, 3350, 685
5273, 3352, 3342, 49
5274, 3349, 3351, 3348
5275, 49, 3354, 3352
5276, 3352, 3354, 3356
5277, 49, 48, 3354
5278, 3342, 50, 3353
5279, 48, 3535, 3356
5280, 3536, 3533, 3535
5281, 3357, 3358, 3360
5282, 48, 3356, 3354
5283, 3356, 3355, 3357
5284, 3358, 3357, 3355
5285, 3350, 3357, 685
5286, 3361, 3358, 3534
5287, 3357, 3360, 685
5288, 3534, 3533, 3359
5289, 3533, 47, 3538
5290, 3534, 3358, 3355
5291, 3358, 684, 3360
5292, 3359, 3910, 3362
5293, 3317, 3363, 2654
5294, 3359, 3362, 3361
5295, 3365, 693, 3363
5296, 2663, 3364, 693
5297, 2100, 3363, 3364
5298, 105, 104, 3366
5299, 3363, 692, 3365
5300, 2686, 3366, 104
5301, 3368, 3367, 2104
5302, 3370, 3367, 741
5303, 2680, 3368, 2104
5304, 3369, 3368, 740
5305, 3371, 741, 742
5306, 3368, 3369, 3367
5307, 2645, 2684, 3370
5308, 2645, 3371, 3308
5309, 741, 3371, 3370
5310, 2528, 3372, 2222
5311, 3373, 3372, 2065
5312, 2523, 3373, 2065
5313, 192, 3373, 2524
5314, 2804, 3374, 2806
5315, 2803, 3374, 2807
5316, 270, 269, 3375
5317, 3375, 269, 3376
5318, 269, 3378, 3376
5319, 3378, 3380, 3376
5320, 2817, 3375, 3377
5321, 3376, 3377, 3375
5322, 269, 268, 3378
5323, 3380, 3378, 5189
5324, 5187, 5189, 267
5325, 5185, 5187, 5192
5326, 5189, 3378, 268
5327, 5188, 3381, 3379
5328, 3383, 3382, 909
5329, 3384, 3381, 3383
5330, 3384, 3383, 2822
5331, 3381, 908, 3382
5332, 3382, 3383, 3381
5333, 3376, 3384, 2822
5334, 3380, 3381, 3384
5335, 3387, 2861, 2878
5336, 2834, 478, 3385
5337, 5306, 2878, 2854
5338, 2877, 1956, 2879
5339, 3387, 3386, 3392
5340, 2866, 3399, 3400
5341, 3388, 5307, 5306
5342, 3406, 3410, 3413
5343, 2866, 3396, 3399
5344, 3399, 3402, 3397
5345, 3394, 3399, 3396
5346, 3392, 3391, 2848
5347, 3391, 3386, 3396
5348, 2856, 3392, 2848
5349, 3387, 3392, 2861
5350, 3387, 2879, 3395
5351, 3387, 3395, 3386
5352, 3393, 3403, 3395
5353, 3389, 3404, 3398
5354, 3395, 3394, 3396
5355, 3395, 3396, 3386
5356, 3394, 3395, 3403
5357, 3418, 3397, 3409
5358, 3399, 3394, 3403
5359, 3393, 1956, 3398
5360, 3400, 3399, 3397
5361, 3397, 3418, 3548
5362, 3586, 3418, 3416
5363, 3402, 3405, 3409
5364, 3569, 2871, 3565
5365, 3398, 3404, 3393
5366, 3404, 3389, 3405
5367, 3404, 3403, 3393
5368, 3399, 3403, 3402
5369, 3405, 3389, 3390
5370, 3403, 3404, 3402
5371, 3405, 3390, 3407
5372, 3402, 3404, 3405
5373, 3411, 3407, 3390
5374, 3414, 3413, 3410
5375, 3407, 3410, 3406
5376, 3407, 3406, 3409
5377, 3406, 3419, 3418
5378, 3411, 3408, 3410
5379, 3397, 3402, 3409
5380, 3412, 3414, 1953
5381, 3410, 3408, 3414
5382, 3417, 3420, 3541
5383, 3407, 3411, 3410
5384, 3416, 3543, 3585
5385, 3413, 3412, 3420
5386, 3406, 3413, 3419
5387, 1953, 3414, 3408
5388, 3413, 3414, 3412
5389, 3417, 3541, 3549
5390, 3545, 3549, 3558
5391, 3413, 3420, 3543
5392, 3563, 3564, 3544
5393, 3549, 3541, 3552
5394, 3543, 3416, 3419
5395, 3406, 3418, 3409
5396, 3585, 3543, 3544
5397, 3543, 3419, 3413
5398, 3418, 3419, 3416
5399, 1953, 3542, 3412
5400, 3543, 3420, 3417
5401, 3423, 2921, 2938
5402, 2894, 319, 3421
5403, 5308, 2938, 2914
5404, 2937, 1973, 2939
5405, 3423, 3422, 3428
5406, 2926, 3435, 3436
5407, 3424, 5309, 5308
5408, 3442, 3446, 3449
5409, 2926, 3432, 3435
5410, 3435, 3438, 3433
5411, 3430, 3435, 3432
5412, 3428, 3427, 2908
5413, 3427, 3422, 3432
5414, 2916, 3428, 2908
5415, 3423, 3428, 2921
5416, 3423, 2939, 3431
5417, 3423, 3431, 3422
5418, 3429, 3439, 3431
5419, 3425, 3440, 3434
5420, 3431, 3430, 3432
5421, 3431, 3432, 3422
5422, 3430, 3431, 3439
5423, 3454, 3433, 3445
5424, 3435, 3430, 3439
5425, 3429, 1973, 3434
5426, 3436, 3435, 3433
5427, 3433, 3454, 3639
5428, 3677, 3454, 3452
5429, 3438, 3441, 3445
5430, 3660, 2931, 3656
5431, 3434, 3440, 3429
5432, 3440, 3425, 3441
5433, 3440, 3439, 3429
5434, 3435, 3439, 3438
5435, 3441, 3425, 3426
5436, 3439, 3440, 3438
5437, 3441, 3426, 3443
5438, 3438, 3440, 3441
5439, 3447, 3443, 3426
5440, 3450, 3449, 3446
5441, 3443, 3446, 3442
5442, 3443, 3442, 3445
5443, 3442, 3455, 3454
5444, 3447, 3444, 3446
5445, 3433, 3438, 3445
5446, 3448, 3450, 1970
5447, 3446, 3444, 3450
5448, 3453, 3456, 3632
5449, 3443, 3447, 3446
5450, 3452, 3634, 3676
5451, 3449, 3448, 3456
5452, 3442, 3449, 3455
5453, 1970, 3450, 3444
5454, 3449, 3450, 3448
5455, 3453, 3632, 3640
5456, 3636, 3640, 3649
5457, 3449, 3456, 3634
5458, 3654, 3655, 3635
5459, 3640, 3632, 3643
5460, 3634, 3452, 3455
5461, 3442, 3454, 3445
5462, 3676, 3634, 3635
5463, 3634, 3455, 3449
5464, 3454, 3455, 3452
5465, 1970, 3633, 3448
5466, 3634, 3456, 3453
5467, 3459, 2979, 2996
5468, 2952, 1, 3457
5469, 5310, 2996, 2972
5470, 2995, 1984, 2997
5471, 3459, 3458, 3464
5472, 2984, 3471, 3472
5473, 3460, 5311, 5310
5474, 3478, 3482, 3485
5475, 2984, 3468, 3471
5476, 3471, 3474, 3469
5477, 3466, 3471, 3468
5478, 3464, 3463, 2966
5479, 3463, 3458, 3468
5480, 2974, 3464, 2966
5481, 3459, 3464, 2979
5482, 3459, 2997, 3467
5483, 3459, 3467, 3458
5484, 3465, 3475, 3467
5485, 3461, 3476, 3470
5486, 3467, 3466, 3468
5487, 3467, 3468, 3458
5488, 3466, 3467, 3475
5489, 3490, 3469, 3481
5490, 3471, 3466, 3475
5491, 3465, 1984, 3470
5492, 3472, 3471, 3469
5493, 3469, 3490, 3731
5494, 3769, 3490, 3488
5495, 3474, 3477, 3481
5496, 3752, 2989, 3748
5497, 3470, 3476, 3465
5498, 3476, 3461, 3477
5499, 3476, 3475, 3465
5500, 3471, 3475, 3474
5501, 3477, 3461, 3462
5502, 3475, 3476, 3474
5503, 3477, 3462, 3479
5504, 3474, 3476, 3477
5505, 3483, 3479, 3462
5506, 3486, 3485, 3482
5507, 3479, 3482, 3478
5508, 3479, 3478, 3481
5509, 3478, 3491, 3490
5510, 3483, 3480, 3482
5511, 3469, 3474, 3481
5512, 3484, 3486, 1981
5513, 3482, 3480, 3486
5514, 3489, 3492, 3724
5515, 3479, 3483, 3482
5516, 3488, 3726, 3768
5517, 3485, 3484, 3492
5518, 3478, 3485, 3491
5519, 1981, 3486, 3480
5520, 3485, 3486, 3484
5521, 3489, 3724, 3732
5522, 3728, 3732, 3741
5523, 3485, 3492, 3726
5524, 3746, 3747, 3727
5525, 3732, 3724, 3735
5526, 3726, 3488, 3491
5527, 3478, 3490, 3481
5528, 3768, 3726, 3727
5529, 3726, 3491, 3485
5530, 3490, 3491, 3488
5531, 1981, 3725, 3484
5532, 3726, 3492, 3489
5533, 3503, 3498, 3493
5534, 3496, 3495, 3493
5535, 3495, 3494, 3493
5536, 2013, 2012, 3494
5537, 3001, 3814, 3496
5538, 3498, 3496, 3493
5539, 3499, 3001, 3496
5540, 3497, 800, 3500
5541, 2305, 2302, 3500
5542, 3504, 3501, 3503
5543, 3498, 3506, 5312
5544, 3814, 3002, 3495
5545, 3498, 3499, 3496
5546, 3501, 3834, 3833
5547, 3819, 3820, 3818
5548, 3493, 3494, 3504
5549, 3498, 3503, 3506
5550, 3506, 3503, 3838
5551, 3504, 2014, 3836
5552, 3493, 3504, 3503
5553, 3832, 3822, 3820
5554, 3817, 3816, 3502
5555, 3838, 3503, 3501
5556, 3505, 3817, 5312
5557, 1016, 1017, 3507
5558, 3012, 3507, 1017
5559, 3514, 3508, 3065
5560, 364, 363, 3508
5561, 3509, 3510, 3511
5562, 3513, 3509, 3512
5563, 3055, 3510, 3053
5564, 3511, 3510, 3049
5565, 3050, 3511, 3049
5566, 3512, 365, 3513
5567, 364, 3513, 365
5568, 3511, 366, 3512
5569, 3071, 3509, 3513
5570, 3508, 3514, 364
5571, 3515, 3514, 3065
5572, 3067, 3515, 3065
5573, 3071, 3515, 3069
5574, 1179, 1180, 3516
5575, 3087, 3516, 1180
5576, 2560, 3517, 2071
5577, 3518, 3517, 532
5578, 532, 531, 3518
5579, 3518, 531, 3519
5580, 3519, 3850, 3852
5581, 3860, 3862, 3856
5582, 3518, 3520, 3517
5583, 3861, 3520, 3519
5584, 3179, 3183, 3521
5585, 3177, 3521, 3183
5586, 3527, 3528, 3891
5587, 3524, 599, 3525
5588, 3524, 3523, 3183
5589, 3525, 598, 3523
5590, 3183, 3526, 3524
5591, 3524, 3526, 3528
5592, 1246, 3526, 3183
5593, 3524, 3525, 3523
5594, 3528, 3526, 3522
5595, 3891, 3522, 3892
5596, 3529, 600, 599
5597, 3891, 3528, 3522
5598, 3529, 3528, 3527
5599, 3528, 3529, 3524
5600, 600, 3529, 3527
5601, 3185, 3530, 128
5602, 2094, 3530, 3189
5603, 3312, 3531, 744
5604, 3310, 3531, 3311
5605, 690, 691, 3532
5606, 3318, 3532, 691
5607, 3533, 3534, 3535
5608, 3537, 3907, 46
5609, 3361, 3534, 3359
5610, 3535, 3534, 3355
5611, 3356, 3535, 3355
5612, 3533, 3536, 47
5613, 3912, 46, 5316
5614, 3535, 48, 3536
5615, 3538, 3911, 3533
5616, 3907, 3538, 47
5617, 3538, 3537, 3911
5618, 3591, 3576, 2833
5619, 2872, 3595, 3598
5620, 3600, 3612, 3614
5621, 3545, 3417, 3549
5622, 3412, 3541, 3420
5623, 3552, 3542, 3551
5624, 3550, 3560, 3551
5625, 3412, 3542, 3541
5626, 3545, 3544, 3417
5627, 3543, 3417, 3544
5628, 3563, 3544, 3545
5629, 3566, 3400, 3561
5630, 1953, 3550, 3551
5631, 3563, 3545, 3415
5632, 3554, 3549, 3552
5633, 3559, 3553, 3415
5634, 3557, 3555, 3597
5635, 3561, 3565, 3566
5636, 3616, 3589, 3575
5637, 3544, 3564, 3585
5638, 3567, 3571, 3574
5639, 3542, 3552, 3541
5640, 3542, 1953, 3551
5641, 3597, 3555, 3604
5642, 3554, 3552, 3557
5643, 3599, 3558, 3554
5644, 3573, 2833, 3568
5645, 3555, 3557, 3560
5646, 3553, 3563, 3415
5647, 3915, 3555, 3560
5648, 3601, 3605, 3581
5649, 3547, 3563, 3553
5650, 3558, 3559, 3415
5651, 3552, 3551, 3560
5652, 3612, 3600, 3610
5653, 3545, 3558, 3415
5654, 3554, 3558, 3549
5655, 3560, 3550, 3915
5656, 3571, 3553, 3559
5657, 3552, 3560, 3557
5658, 2869, 3588, 3591
5659, 3577, 3553, 3578
5660, 3594, 3593, 3570
5661, 3577, 3578, 3568
5662, 3539, 3579, 3580
5663, 2871, 3569, 3570
5664, 3418, 3586, 3548
5665, 2867, 2862, 3579
5666, 3400, 3566, 2870
5667, 2862, 2870, 3580
5668, 3565, 3561, 3569
5669, 3559, 3558, 3599
5670, 3574, 3589, 3567
5671, 3567, 3578, 3571
5672, 3568, 2833, 3576
5673, 3614, 3615, 3600
5674, 3580, 3401, 3539
5675, 3400, 3548, 3561
5676, 2835, 2865, 3579
5677, 3559, 3599, 3574
5678, 3584, 3578, 3583
5679, 3596, 3604, 3618
5680, 3595, 3603, 3575
5681, 3577, 3568, 3576
5682, 3547, 3577, 3576
5683, 3559, 3574, 3571
5684, 3574, 3572, 3595
5685, 3575, 3574, 3595
5686, 3583, 3589, 3622
5687, 2862, 3580, 3579
5688, 3577, 3547, 3553
5689, 3553, 3571, 3578
5690, 3583, 3578, 3567
5691, 3578, 3573, 3568
5692, 3580, 3565, 3401
5693, 3608, 3610, 3606
5694, 3575, 3603, 3616
5695, 3589, 3616, 3622
5696, 3583, 3567, 3589
5697, 3578, 3584, 3573
5698, 3592, 3588, 2869
5699, 3583, 3562, 3584
5700, 3590, 3587, 3569
5701, 3586, 3585, 3587
5702, 3548, 3586, 3590
5703, 3564, 3587, 3585
5704, 3547, 3588, 3564
5705, 3592, 3594, 3587
5706, 3592, 3564, 3588
5707, 3624, 3622, 3616
5708, 3548, 3590, 3561
5709, 3586, 3587, 3590
5710, 3594, 3570, 3569
5711, 3576, 3591, 3588
5712, 3564, 3592, 3587
5713, 3587, 3594, 3569
5714, 3592, 2869, 3593
5715, 3592, 3593, 3594
5716, 3598, 3595, 3572
5717, 3603, 3595, 2872
5718, 3618, 3605, 3601
5719, 3581, 2872, 3601
5720, 3596, 3598, 3597
5721, 3572, 3599, 3598
5722, 2872, 3598, 3596
5723, 3572, 3574, 3599
5724, 3554, 3597, 3599
5725, 3598, 3599, 3597
5726, 3609, 3920, 3608
5727, 3606, 3610, 3603
5728, 2872, 3596, 3601
5729, 5313, 3605, 3618
5730, 3605, 3620, 3619
5731, 3618, 3604, 5313
5732, 3606, 3603, 2872
5733, 3617, 3616, 3603
5734, 3597, 3604, 3596
5735, 3604, 3555, 3915
5736, 3620, 3602, 3546
5737, 3608, 3606, 3581
5738, 2872, 3581, 3606
5739, 3935, 3940, 3627
5740, 3924, 3928, 3930
5741, 3608, 3581, 3619
5742, 3610, 3608, 3607
5743, 3605, 3619, 3581
5744, 3621, 3629, 3919
5745, 3607, 3629, 3612
5746, 3603, 3610, 3600
5747, 3935, 3947, 3945
5748, 3924, 3930, 3611
5749, 3607, 3612, 3610
5750, 3621, 3924, 3611
5751, 3628, 3562, 3622
5752, 3917, 3918, 4148
5753, 3611, 3614, 3612
5754, 3583, 3622, 3562
5755, 3596, 3618, 3601
5756, 3616, 3617, 3624
5757, 3617, 3603, 3600
5758, 3939, 3917, 4052
5759, 3600, 3615, 3617
5760, 3624, 3615, 3623
5761, 3620, 3605, 3602
5762, 5313, 3604, 3540
5763, 3608, 3619, 3609
5764, 4056, 3620, 3546
5765, 3619, 3620, 3609
5766, 3611, 3629, 3621
5767, 3611, 3612, 3629
5768, 3556, 3582, 3623
5769, 3623, 3615, 3556
5770, 3582, 3622, 3624
5771, 3615, 3624, 3617
5772, 3624, 3623, 3582
5773, 3920, 3919, 3607
5774, 3925, 3924, 3621
5775, 3948, 4055, 3626
5776, 3609, 3620, 4056
5777, 4056, 4053, 3625
5778, 3916, 4148, 3613
5779, 4054, 3919, 3625
5780, 3622, 3582, 3628
5781, 3919, 3629, 3607
5782, 3682, 3667, 2893
5783, 2932, 3686, 3689
5784, 3691, 3704, 3706
5785, 3636, 3453, 3640
5786, 3448, 3632, 3456
5787, 3643, 3633, 3642
5788, 3641, 3651, 3642
5789, 3448, 3633, 3632
5790, 3636, 3635, 3453
5791, 3634, 3453, 3635
5792, 3654, 3635, 3636
5793, 3657, 3436, 3652
5794, 1970, 3641, 3642
5795, 3654, 3636, 3451
5796, 3645, 3640, 3643
5797, 3650, 3644, 3451
5798, 3648, 3646, 3688
5799, 3652, 3656, 3657
5800, 3708, 3680, 3666
5801, 3635, 3655, 3676
5802, 3658, 3662, 3665
5803, 3633, 3643, 3632
5804, 3633, 1970, 3642
5805, 3688, 3646, 3695
5806, 3645, 3643, 3648
5807, 3690, 3649, 3645
5808, 3664, 2893, 3659
5809, 3646, 3648, 3651
5810, 3644, 3654, 3451
5811, 3957, 3646, 3651
5812, 3692, 3696, 3672
5813, 3638, 3654, 3644
5814, 3649, 3650, 3451
5815, 3643, 3642, 3651
5816, 3704, 3691, 3702
5817, 3636, 3649, 3451
5818, 3645, 3649, 3640
5819, 3651, 3641, 3957
5820, 3662, 3644, 3650
5821, 3643, 3651, 3648
5822, 2929, 3679, 3682
5823, 3668, 3644, 3669
5824, 3685, 3684, 3661
5825, 3668, 3669, 3659
5826, 3630, 3670, 3671
5827, 2931, 3660, 3661
5828, 3454, 3677, 3639
5829, 2927, 2922, 3670
5830, 3436, 3657, 2930
5831, 2922, 2930, 3671
5832, 3656, 3652, 3660
5833, 3650, 3649, 3690
5834, 3665, 3680, 3658
5835, 3658, 3669, 3662
5836, 3659, 2893, 3667
5837, 3706, 3707, 3691
5838, 3671, 3437, 3630
5839, 3436, 3639, 3652
5840, 2895, 2925, 3670
5841, 3650, 3690, 3665
5842, 3675, 3669, 3674
5843, 3687, 3695, 3710
5844, 3686, 3697, 3666
5845, 3668, 3659, 3667
5846, 3638, 3668, 3667
5847, 3650, 3665, 3662
5848, 3665, 3663, 3686
5849, 3666, 3665, 3686
5850, 3674, 3680, 3714
5851, 2922, 3671, 3670
5852, 3668, 3638, 3644
5853, 3644, 3662, 3669
5854, 3674, 3669, 3658
5855, 3669, 3664, 3659
5856, 3671, 3656, 3437
5857, 3698, 3694, 3697
5858, 3697, 3708, 3666
5859, 3680, 3708, 3714
5860, 3674, 3658, 3680
5861, 3669, 3675, 3664
5862, 3683, 3679, 2929
5863, 3674, 3653, 3675
5864, 3681, 3678, 3660
5865, 3677, 3676, 3678
5866, 3639, 3677, 3681
5867, 3655, 3678, 3676
5868, 3638, 3679, 3655
5869, 3683, 3685, 3678
5870, 3683, 3655, 3679
5871, 3716, 3714, 3708
5872, 3639, 3681, 3652
5873, 3677, 3678, 3681
5874, 3685, 3661, 3660
5875, 3667, 3682, 3679
5876, 3655, 3683, 3678
5877, 3678, 3685, 3660
5878, 3683, 2929, 3684
5879, 3683, 3684, 3685
5880, 3689, 3686, 3663
5881, 3697, 3686, 2932
5882, 3710, 3696, 3692
5883, 3672, 2932, 3692
5884, 3687, 3689, 3688
5885, 3663, 3690, 3689
5886, 2932, 3689, 3687
5887, 3663, 3665, 3690
5888, 3645, 3688, 3690
5889, 3689, 3690, 3688
5890, 3701, 3962, 3700
5891, 3698, 3702, 3694
5892, 2932, 3687, 3692
5893, 5314, 3696, 3710
5894, 3696, 3712, 3711
5895, 3710, 3695, 5314
5896, 3698, 2932, 3672
5897, 3709, 3708, 3694
5898, 3688, 3695, 3687
5899, 3695, 3646, 3957
5900, 3712, 3693, 3637
5901, 3698, 3697, 2932
5902, 3708, 3697, 3694
5903, 3700, 3698, 3672
5904, 3698, 3700, 3702
5905, 3977, 3982, 3719
5906, 3966, 3970, 3972
5907, 3700, 3672, 3711
5908, 3702, 3700, 3699
5909, 3696, 3711, 3672
5910, 3713, 3721, 3961
5911, 3699, 3721, 3704
5912, 3694, 3702, 3691
5913, 3977, 3989, 3987
5914, 3966, 3972, 3703
5915, 3699, 3704, 3702
5916, 3713, 3966, 3703
5917, 3720, 3653, 3714
5918, 3959, 3960, 4151
5919, 3703, 3706, 3704
5920, 3674, 3714, 3653
5921, 3687, 3710, 3692
5922, 3708, 3709, 3716
5923, 3709, 3694, 3691
5924, 3981, 3959, 4074
5925, 3691, 3707, 3709
5926, 3716, 3707, 3715
5927, 3712, 3696, 3693
5928, 5314, 3695, 3631
5929, 3700, 3711, 3701
5930, 4078, 3712, 3637
5931, 3711, 3712, 3701
5932, 3703, 3721, 3713
5933, 3703, 3704, 3721
5934, 3647, 3673, 3715
5935, 3715, 3707, 3647
5936, 3673, 3714, 3716
5937, 3707, 3716, 3709
5938, 3716, 3715, 3673
5939, 3962, 3961, 3699
5940, 3967, 3966, 3713
5941, 3990, 4077, 3718
5942, 3701, 3712, 4078
5943, 4078, 4075, 3717
5944, 3958, 4151, 3705
5945, 4076, 3961, 3717
5946, 3714, 3673, 3720
5947, 3961, 3721, 3699
5948, 3774, 3759, 2951
5949, 2990, 3778, 3781
5950, 3783, 3796, 3798
5951, 3728, 3489, 3732
5952, 3484, 3724, 3492
5953, 3735, 3725, 3734
5954, 3733, 3743, 3734
5955, 3484, 3725, 3724
5956, 3728, 3727, 3489
5957, 3726, 3489, 3727
5958, 3746, 3727, 3728
5959, 3749, 3472, 3744
5960, 1981, 3733, 3734
5961, 3746, 3728, 3487
5962, 3737, 3732, 3735
5963, 3742, 3736, 3487
5964, 3740, 3738, 3780
5965, 3744, 3748, 3749
5966, 3800, 3772, 3758
5967, 3727, 3747, 3768
5968, 3750, 3754, 3757
5969, 3725, 3735, 3724
5970, 3725, 1981, 3734
5971, 3780, 3738, 3787
5972, 3737, 3735, 3740
5973, 3782, 3741, 3737
5974, 3756, 2951, 3751
5975, 3738, 3740, 3743
5976, 3736, 3746, 3487
5977, 3999, 3738, 3743
5978, 3784, 3788, 3764
5979, 3730, 3746, 3736
5980, 3741, 3742, 3487
5981, 3735, 3734, 3743
5982, 3796, 3783, 3794
5983, 3728, 3741, 3487
5984, 3737, 3741, 3732
5985, 3743, 3733, 3999
5986, 3754, 3736, 3742
5987, 3735, 3743, 3740
5988, 2987, 3771, 3774
5989, 3760, 3736, 3761
5990, 3777, 3776, 3753
5991, 3760, 3761, 3751
5992, 3722, 3762, 3763
5993, 2989, 3752, 3753
5994, 3490, 3769, 3731
5995, 2985, 2980, 3762
5996, 3472, 3749, 2988
5997, 2980, 2988, 3763
5998, 3748, 3744, 3752
5999, 3742, 3741, 3782
6000, 3757, 3772, 3750
6001, 3750, 3761, 3754
6002, 3751, 2951, 3759
6003, 3798, 3799, 3783
6004, 3763, 3473, 3722
6005, 3472, 3731, 3744
6006, 2953, 2983, 3762
6007, 3742, 3782, 3757
6008, 3767, 3761, 3766
6009, 3779, 3787, 3802
6010, 3778, 3789, 3758
6011, 3760, 3751, 3759
6012, 3730, 3760, 3759
6013, 3742, 3757, 3754
6014, 3757, 3755, 3778
6015, 3758, 3757, 3778
6016, 3766, 3772, 3806
6017, 2980, 3763, 3762
6018, 3760, 3730, 3736
6019, 3736, 3754, 3761
6020, 3766, 3761, 3750
6021, 3761, 3756, 3751
6022, 3763, 3748, 3473
6023, 3790, 3786, 3789
6024, 3789, 3800, 3758
6025, 3772, 3800, 3806
6026, 3766, 3750, 3772
6027, 3761, 3767, 3756
6028, 3775, 3771, 2987
6029, 3766, 3745, 3767
6030, 3773, 3770, 3752
6031, 3769, 3768, 3770
6032, 3731, 3769, 3773
6033, 3747, 3770, 3768
6034, 3730, 3771, 3747
6035, 3775, 3777, 3770
6036, 3775, 3747, 3771
6037, 3808, 3806, 3800
6038, 3731, 3773, 3744
6039, 3769, 3770, 3773
6040, 3777, 3753, 3752
6041, 3759, 3774, 3771
6042, 3747, 3775, 3770
6043, 3770, 3777, 3752
6044, 3775, 2987, 3776
6045, 3775, 3776, 3777
6046, 3781, 3778, 3755
6047, 3789, 3778, 2990
6048, 3802, 3788, 3784
6049, 3764, 2990, 3784
6050, 3779, 3781, 3780
6051, 3755, 3782, 3781
6052, 2990, 3781, 3779
6053, 3755, 3757, 3782
6054, 3737, 3780, 3782
6055, 3781, 3782, 3780
6056, 3793, 4004, 3792
6057, 3790, 3794, 3786
6058, 2990, 3779, 3784
6059, 5315, 3788, 3802
6060, 3788, 3804, 3803
6061, 3802, 3787, 5315
6062, 3790, 2990, 3764
6063, 3801, 3800, 3786
6064, 3780, 3787, 3779
6065, 3787, 3738, 3999
6066, 3804, 3785, 3729
6067, 3790, 3789, 2990
6068, 3800, 3789, 3786
6069, 3792, 3790, 3764
6070, 3790, 3792, 3794
6071, 4019, 4024, 3811
6072, 4008, 4012, 4014
6073, 3792, 3764, 3803
6074, 3794, 3792, 3791
6075, 3788, 3803, 3764
6076, 3805, 3813, 4003
6077, 3791, 3813, 3796
6078, 3786, 3794, 3783
6079, 4019, 4031, 4029
6080, 4008, 4014, 3795
6081, 3791, 3796, 3794
6082, 3805, 4008, 3795
6083, 3812, 3745, 3806
6084, 4001, 4002, 4154
6085, 3795, 3798, 3796
6086, 3766, 3806, 3745
6087, 3779, 3802, 3784
6088, 3800, 3801, 3808
6089, 3801, 3786, 3783
6090, 4023, 4001, 4096
6091, 3783, 3799, 3801
6092, 3808, 3799, 3807
6093, 3804, 3788, 3785
6094, 5315, 3787, 3723
6095, 3792, 3803, 3793
6096, 4100, 3804, 3729
6097, 3803, 3804, 3793
6098, 3795, 3813, 3805
6099, 3795, 3796, 3813
6100, 3739, 3765, 3807
6101, 3807, 3799, 3739
6102, 3765, 3806, 3808
6103, 3799, 3808, 3801
6104, 3808, 3807, 3765
6105, 4004, 4003, 3791
6106, 4009, 4008, 3805
6107, 4032, 4099, 3810
6108, 3793, 3804, 4100
6109, 4100, 4097, 3809
6110, 4000, 4154, 3797
6111, 4098, 4003, 3809
6112, 3806, 3765, 3812
6113, 4003, 3813, 3791
6114, 3496, 3814, 3495
6115, 3497, 3814, 3001
6116, 4378, 3815, 4160
6117, 4121, 1994, 4117
6118, 3817, 3505, 3819
6119, 3505, 3838, 3819
6120, 3816, 3817, 3821
6121, 3821, 2019, 3816
6122, 3819, 3821, 3817
6123, 3819, 3838, 3820
6124, 3819, 3818, 3821
6125, 3833, 3832, 3820
6126, 3818, 3822, 3824
6127, 3828, 3831, 3843
6128, 3824, 3831, 3818
6129, 3844, 3840, 4135
6130, 2019, 3821, 3828
6131, 3829, 3824, 3815
6132, 3815, 3824, 3822
6133, 3822, 3818, 3820
6134, 3832, 3830, 3822
6135, 4159, 4168, 4160
6136, 3831, 3828, 3821
6137, 3834, 4122, 4043
6138, 4119, 4124, 1993
6139, 3821, 3818, 3831
6140, 3825, 2019, 3828
6141, 4158, 3830, 4119
6142, 3831, 3839, 3841
6143, 3835, 3827, 4119
6144, 3830, 3835, 4119
6145, 3824, 3839, 3831
6146, 3826, 3842, 3829
6147, 3820, 3838, 3833
6148, 3832, 3833, 4043
6149, 3836, 3501, 3504
6150, 4043, 3835, 3832
6151, 3837, 2014, 2020
6152, 4125, 4121, 4123
6153, 4120, 4121, 4117
6154, 3830, 3832, 3835
6155, 3837, 3836, 2014
6156, 3501, 3836, 3834
6157, 2020, 2010, 3837
6158, 4123, 3837, 2010
6159, 3506, 3838, 3505
6160, 3833, 3838, 3501
6161, 3824, 3829, 3839
6162, 4186, 4190, 4194
6163, 3842, 3847, 3840
6164, 3844, 3825, 3843
6165, 3842, 3839, 3829
6166, 3843, 3841, 3840
6167, 3840, 3841, 3842
6168, 3842, 3841, 3839
6169, 3844, 3843, 3840
6170, 3828, 3843, 3825
6171, 4041, 4126, 3848
6172, 3825, 3844, 3823
6173, 3826, 3849, 3847
6174, 3847, 4126, 4135
6175, 4135, 3840, 3847
6176, 4126, 3847, 3849
6177, 3842, 3826, 3847
6178, 4162, 4168, 4159
6179, 4164, 4163, 4167
6180, 4174, 4041, 3848
6181, 4126, 3849, 3848
6182, 531, 530, 3850
6183, 3853, 3852, 3850
6184, 3853, 3854, 3855
6185, 3853, 3855, 3851
6186, 3853, 3850, 530
6187, 3856, 3852, 3851
6188, 3855, 3854, 529
6189, 3851, 3852, 3853
6190, 528, 3857, 529
6191, 3853, 530, 3854
6192, 529, 3857, 3855
6193, 3859, 3856, 3851
6194, 3860, 1178, 1179
6195, 3868, 3866, 3867
6196, 1176, 3872, 3870
6197, 3855, 3857, 3864
6198, 3857, 3865, 3864
6199, 3858, 3859, 3851
6200, 1178, 3859, 1177
6201, 1179, 3516, 3861
6202, 3852, 3862, 3519
6203, 3520, 3861, 3088
6204, 3862, 3861, 3519
6205, 3856, 3862, 3852
6206, 3861, 3862, 3860
6207, 3869, 3868, 527
6208, 3872, 3865, 3870
6209, 528, 3866, 3857
6210, 3851, 3864, 3858
6211, 3870, 3865, 3863
6212, 3858, 3864, 3865
6213, 3868, 3867, 527
6214, 3863, 3865, 3866
6215, 3869, 3880, 526
6216, 3866, 528, 3867
6217, 3866, 3868, 3863
6218, 3879, 3875, 3878
6219, 3878, 3876, 3873
6220, 3871, 3870, 3863
6221, 1176, 1177, 3872
6222, 3873, 3871, 3863
6223, 3870, 3874, 1176
6224, 1177, 3858, 3872
6225, 3865, 3872, 3858
6226, 3868, 3873, 3863
6227, 3869, 3878, 3873
6228, 3869, 3879, 3878
6229, 3871, 1175, 3874
6230, 3884, 3879, 3883
6231, 3873, 3876, 3871
6232, 3877, 3876, 3875
6233, 3884, 3877, 3875
6234, 1175, 3877, 1174
6235, 3879, 3869, 526
6236, 3876, 3878, 3875
6237, 526, 3881, 3879
6238, 3879, 3881, 3883
6239, 526, 525, 3881
6240, 3869, 527, 3880
6241, 525, 4047, 3883
6242, 4048, 4045, 4047
6243, 3884, 3885, 3887
6244, 525, 3883, 3881
6245, 3883, 3882, 3884
6246, 3885, 3884, 3882
6247, 3877, 3884, 1174
6248, 3888, 3885, 4046
6249, 3884, 3887, 1174
6250, 4046, 4045, 3886
6251, 4045, 524, 4050
6252, 4046, 3885, 3882
6253, 3885, 1173, 3887
6254, 3886, 4143, 3889
6255, 3893, 3891, 3892
6256, 3886, 3889, 3888
6257, 3522, 1246, 3890
6258, 3906, 3893, 3895
6259, 3890, 3892, 3522
6260, 3893, 3892, 1247
6261, 1247, 1248, 3893
6262, 3895, 3893, 1248
6263, 3895, 1248, 3896
6264, 601, 3903, 3902
6265, 3896, 1248, 1249
6266, 3895, 3894, 3906
6267, 3896, 1249, 3898
6268, 3894, 3895, 3896
6269, 3897, 3898, 3899
6270, 5245, 3899, 1250
6271, 3899, 3898, 1249
6272, 3898, 3897, 3900
6273, 1249, 1250, 3899
6274, 5240, 5241, 5245
6275, 3901, 3900, 3897
6276, 3903, 601, 600
6277, 5246, 3897, 5241
6278, 3902, 3904, 601
6279, 3894, 3900, 3902
6280, 3901, 3902, 3900
6281, 3905, 600, 3527
6282, 3894, 3902, 3903
6283, 3527, 3891, 3905
6284, 3901, 602, 3904
6285, 3906, 3905, 3891
6286, 3906, 3891, 3893
6287, 3903, 3906, 3894
6288, 46, 45, 5316
6289, 3538, 3907, 3537
6290, 5618, 5613, 5615
6291, 3912, 3909, 3911
6292, 3914, 682, 3913
6293, 3362, 3910, 683
6294, 3911, 3910, 3359
6295, 3911, 3359, 3533
6296, 3912, 3911, 3537
6297, 46, 3912, 3537
6298, 3914, 3912, 3908
6299, 3910, 3913, 683
6300, 3914, 3913, 3909
6301, 3912, 3914, 3909
6302, 5635, 5636, 3908
6303, 3550, 3540, 3915
6304, 3604, 3915, 3540
6305, 3919, 3921, 3621
6306, 4052, 4051, 3556
6307, 3918, 3939, 3930
6308, 4052, 3615, 3614
6309, 4052, 3614, 3939
6310, 3939, 3918, 3917
6311, 3608, 3920, 3607
6312, 3920, 3609, 4056
6313, 3948, 3921, 4054
6314, 3625, 3919, 3920
6315, 3627, 3621, 3921
6316, 3625, 3922, 4054
6317, 3947, 3936, 3945
6318, 3940, 3935, 3927
6319, 3932, 3613, 4148
6320, 3925, 3621, 3627
6321, 3928, 3924, 3923
6322, 3926, 3949, 3935
6323, 3923, 3924, 3925
6324, 4072, 4067, 4200
6325, 3925, 3940, 3923
6326, 3927, 3935, 3949
6327, 3952, 3943, 3938
6328, 3931, 3928, 3943
6329, 3918, 3928, 3931
6330, 3938, 3923, 3927
6331, 3613, 3932, 3934
6332, 4052, 3556, 3615
6333, 3614, 3611, 3930
6334, 3943, 3928, 3923
6335, 3932, 3931, 3929
6336, 3952, 3929, 3943
6337, 3931, 3932, 4148
6338, 3626, 3941, 3948
6339, 3932, 3953, 3934
6340, 3953, 3932, 3929
6341, 3926, 3935, 3945
6342, 1904, 4215, 3954
6343, 3935, 3948, 3941
6344, 4150, 4149, 3942
6345, 4058, 4057, 1951
6346, 3950, 3938, 3927
6347, 3951, 3938, 3950
6348, 3614, 3930, 3939
6349, 3928, 3918, 3930
6350, 3923, 3940, 3927
6351, 3627, 3940, 3925
6352, 3948, 3935, 3627
6353, 3945, 3956, 3926
6354, 4059, 3951, 3937
6355, 3931, 3943, 3929
6356, 3923, 3938, 3943
6357, 4059, 4057, 4058
6358, 3953, 3933, 3934
6359, 3947, 3935, 3941
6360, 3954, 3945, 3936
6361, 3941, 3946, 3947
6362, 3941, 3626, 3946
6363, 3936, 3947, 3946
6364, 3921, 3948, 3627
6365, 4054, 3921, 3919
6366, 4150, 3949, 3926
6367, 3950, 3949, 3942
6368, 3949, 3950, 3927
6369, 3951, 3950, 3942
6370, 3937, 3951, 3942
6371, 3951, 3944, 3952
6372, 3951, 3952, 3938
6373, 3944, 4058, 3953
6374, 3929, 3952, 3953
6375, 3944, 3953, 3952
6376, 3936, 1904, 3954
6377, 4150, 3956, 4070
6378, 5651, 5655, 4060
6379, 4250, 4247, 4251
6380, 3954, 3956, 3945
6381, 4218, 1904, 4216
6382, 3641, 3631, 3957
6383, 3695, 3957, 3631
6384, 3961, 3963, 3713
6385, 4074, 4073, 3647
6386, 3960, 3981, 3972
6387, 4074, 3707, 3706
6388, 4074, 3706, 3981
6389, 3981, 3960, 3959
6390, 3700, 3962, 3699
6391, 3962, 3701, 4078
6392, 3990, 3963, 4076
6393, 3717, 3961, 3962
6394, 3719, 3713, 3963
6395, 3717, 3964, 4076
6396, 3989, 3978, 3987
6397, 3982, 3977, 3969
6398, 3974, 3705, 4151
6399, 3967, 3713, 3719
6400, 3970, 3966, 3965
6401, 3968, 3991, 3977
6402, 3965, 3966, 3967
6403, 4094, 4089, 4259
6404, 3967, 3982, 3965
6405, 3969, 3977, 3991
6406, 3994, 3985, 3980
6407, 3973, 3970, 3985
6408, 3960, 3970, 3973
6409, 3980, 3965, 3969
6410, 3705, 3974, 3976
6411, 4074, 3647, 3707
6412, 3706, 3703, 3972
6413, 3985, 3970, 3965
6414, 3974, 3973, 3971
6415, 3994, 3971, 3985
6416, 3973, 3974, 4151
6417, 3718, 3983, 3990
6418, 3974, 3995, 3976
6419, 3995, 3974, 3971
6420, 3968, 3977, 3987
6421, 1926, 4274, 3996
6422, 3977, 3990, 3983
6423, 4153, 4152, 3984
6424, 4080, 4079, 1968
6425, 3992, 3980, 3969
6426, 3993, 3980, 3992
6427, 3706, 3972, 3981
6428, 3970, 3960, 3972
6429, 3965, 3982, 3969
6430, 3719, 3982, 3967
6431, 3990, 3977, 3719
6432, 3987, 3998, 3968
6433, 4081, 3993, 3979
6434, 3973, 3985, 3971
6435, 3965, 3980, 3985
6436, 4081, 4079, 4080
6437, 3995, 3975, 3976
6438, 3989, 3977, 3983
6439, 3996, 3987, 3978
6440, 3983, 3988, 3989
6441, 3983, 3718, 3988
6442, 3978, 3989, 3988
6443, 3963, 3990, 3719
6444, 4076, 3963, 3961
6445, 4153, 3991, 3968
6446, 3992, 3991, 3984
6447, 3991, 3992, 3969
6448, 3993, 3992, 3984
6449, 3979, 3993, 3984
6450, 3993, 3986, 3994
6451, 3993, 3994, 3980
6452, 3986, 4080, 3995
6453, 3971, 3994, 3995
6454, 3986, 3995, 3994
6455, 3978, 1926, 3996
6456, 4153, 3998, 4092
6457, 6294, 6298, 4082
6458, 4309, 4306, 4310
6459, 3996, 3998, 3987
6460, 4277, 1926, 4275
6461, 3733, 3723, 3999
6462, 3787, 3999, 3723
6463, 4003, 4005, 3805
6464, 4096, 4095, 3739
6465, 4002, 4023, 4014
6466, 4096, 3799, 3798
6467, 4096, 3798, 4023
6468, 4023, 4002, 4001
6469, 3792, 4004, 3791
6470, 4004, 3793, 4100
6471, 4032, 4005, 4098
6472, 3809, 4003, 4004
6473, 3811, 3805, 4005
6474, 3809, 4006, 4098
6475, 4031, 4020, 4029
6476, 4024, 4019, 4011
6477, 4016, 3797, 4154
6478, 4009, 3805, 3811
6479, 4012, 4008, 4007
6480, 4010, 4033, 4019
6481, 4007, 4008, 4009
6482, 4116, 4111, 4318
6483, 4009, 4024, 4007
6484, 4011, 4019, 4033
6485, 4036, 4027, 4022
6486, 4015, 4012, 4027
6487, 4002, 4012, 4015
6488, 4022, 4007, 4011
6489, 3797, 4016, 4018
6490, 4096, 3739, 3799
6491, 3798, 3795, 4014
6492, 4027, 4012, 4007
6493, 4016, 4015, 4013
6494, 4036, 4013, 4027
6495, 4015, 4016, 4154
6496, 3810, 4025, 4032
6497, 4016, 4037, 4018
6498, 4037, 4016, 4013
6499, 4010, 4019, 4029
6500, 1929, 4333, 4038
6501, 4019, 4032, 4025
6502, 4156, 4155, 4026
6503, 4102, 4101, 1979
6504, 4034, 4022, 4011
6505, 4035, 4022, 4034
6506, 3798, 4014, 4023
6507, 4012, 4002, 4014
6508, 4007, 4024, 4011
6509, 3811, 4024, 4009
6510, 4032, 4019, 3811
6511, 4029, 4040, 4010
6512, 4103, 4035, 4021
6513, 4015, 4027, 4013
6514, 4007, 4022, 4027
6515, 4103, 4101, 4102
6516, 4037, 4017, 4018
6517, 4031, 4019, 4025
6518, 4038, 4029, 4020
6519, 4025, 4030, 4031
6520, 4025, 3810, 4030
6521, 4020, 4031, 4030
6522, 4005, 4032, 3811
6523, 4098, 4005, 4003
6524, 4156, 4033, 4010
6525, 4034, 4033, 4026
6526, 4033, 4034, 4011
6527, 4035, 4034, 4026
6528, 4021, 4035, 4026
6529, 4035, 4028, 4036
6530, 4035, 4036, 4022
6531, 4028, 4102, 4037
6532, 4013, 4036, 4037
6533, 4028, 4037, 4036
6534, 4020, 1929, 4038
6535, 4156, 4040, 4114
6536, 6911, 6915, 4104
6537, 4368, 4365, 4369
6538, 4038, 4040, 4029
6539, 4336, 1929, 4334
6540, 4380, 4175, 4167
6541, 3849, 4164, 3848
6542, 3835, 4043, 3827
6543, 4044, 4127, 4126
6544, 4181, 4427, 4186
6545, 3833, 3834, 4043
6546, 4131, 4127, 4128
6547, 4045, 4046, 4047
6548, 4049, 4140, 523
6549, 3888, 4046, 3886
6550, 4047, 4046, 3882
6551, 3883, 4047, 3882
6552, 4045, 4048, 524
6553, 4145, 523, 5319
6554, 4047, 525, 4048
6555, 4050, 4144, 4045
6556, 4140, 4050, 524
6557, 4050, 4049, 4144
6558, 3917, 4051, 4052
6559, 3917, 3916, 4051
6560, 4055, 3948, 4054
6561, 3625, 4053, 3922
6562, 4053, 4056, 3546
6563, 4054, 3922, 4055
6564, 3920, 4056, 3625
6565, 4149, 4071, 3937
6566, 4066, 4064, 4067
6567, 1951, 3933, 4058
6568, 3953, 4058, 3933
6569, 3951, 4059, 3944
6570, 4200, 4059, 3937
6571, 4234, 4237, 4233
6572, 4208, 4066, 4072
6573, 3937, 4071, 4200
6574, 4064, 4066, 4063
6575, 4063, 1951, 4064
6576, 4067, 4064, 4057
6577, 3942, 4149, 3937
6578, 3942, 3949, 4150
6579, 4185, 4209, 4201
6580, 4062, 4063, 4069
6581, 4057, 4059, 4200
6582, 4057, 4200, 4067
6583, 5667, 5647, 5676
6584, 4206, 4062, 4069
6585, 4063, 4066, 4069
6586, 4072, 4066, 4067
6587, 3955, 4072, 4200
6588, 4188, 4199, 4061
6589, 4187, 4188, 4062
6590, 4208, 4209, 4205
6591, 4230, 4231, 4220
6592, 3956, 4215, 4070
6593, 3959, 4073, 4074
6594, 3959, 3958, 4073
6595, 4077, 3990, 4076
6596, 3717, 4075, 3964
6597, 4075, 4078, 3637
6598, 4076, 3964, 4077
6599, 3962, 4078, 3717
6600, 4152, 4093, 3979
6601, 4088, 4086, 4089
6602, 1968, 3975, 4080
6603, 3995, 4080, 3975
6604, 3993, 4081, 3986
6605, 4259, 4081, 3979
6606, 4293, 4296, 4292
6607, 4267, 4088, 4094
6608, 3979, 4093, 4259
6609, 4086, 4088, 4085
6610, 4085, 1968, 4086
6611, 4089, 4086, 4079
6612, 3984, 4152, 3979
6613, 3984, 3991, 4153
6614, 4385, 4268, 4260
6615, 4084, 4085, 4091
6616, 4079, 4081, 4259
6617, 4079, 4259, 4089
6618, 6310, 6290, 6319
6619, 4265, 4084, 4091
6620, 4085, 4088, 4091
6621, 4094, 4088, 4089
6622, 3997, 4094, 4259
6623, 4384, 4388, 4083
6624, 4386, 4384, 4084
6625, 4267, 4268, 4264
6626, 4289, 4290, 4279
6627, 3998, 4274, 4092
6628, 4001, 4095, 4096
6629, 4001, 4000, 4095
6630, 4099, 4032, 4098
6631, 3809, 4097, 4006
6632, 4097, 4100, 3729
6633, 4098, 4006, 4099
6634, 4004, 4100, 3809
6635, 4155, 4115, 4021
6636, 4110, 4108, 4111
6637, 1979, 4017, 4102
6638, 4037, 4102, 4017
6639, 4035, 4103, 4028
6640, 4318, 4103, 4021
6641, 4352, 4355, 4351
6642, 4326, 4110, 4116
6643, 4021, 4115, 4318
6644, 4108, 4110, 4107
6645, 4107, 1979, 4108
6646, 4111, 4108, 4101
6647, 4026, 4155, 4021
6648, 4026, 4033, 4156
6649, 4395, 4327, 4319
6650, 4106, 4107, 4113
6651, 4101, 4103, 4318
6652, 4101, 4318, 4111
6653, 6927, 6907, 6936
6654, 4324, 4106, 4113
6655, 4107, 4110, 4113
6656, 4116, 4110, 4111
6657, 4039, 4116, 4318
6658, 4394, 4398, 4105
6659, 4396, 4394, 4106
6660, 4326, 4327, 4323
6661, 4348, 4349, 4338
6662, 4040, 4333, 4114
6663, 4160, 3830, 4158
6664, 4041, 3845, 4134
6665, 4125, 2010, 2017
6666, 1994, 4121, 4125
6667, 4120, 4119, 3827
6668, 4041, 4044, 4126
6669, 4120, 3827, 4121
6670, 4124, 4120, 4042
6671, 4122, 3827, 4043
6672, 4122, 4123, 4121
6673, 3834, 3837, 4123
6674, 3827, 4122, 4121
6675, 4123, 2010, 4125
6676, 3834, 4123, 4122
6677, 4127, 3846, 4129
6678, 4120, 4124, 4119
6679, 1993, 4157, 4161
6680, 4128, 4127, 4044
6681, 4129, 3846, 3823
6682, 4134, 4133, 4044
6683, 4127, 4131, 3846
6684, 4129, 3823, 3844
6685, 4126, 4127, 4129
6686, 4175, 4180, 4465
6687, 4381, 4201, 4227
6688, 4133, 4128, 4044
6689, 4128, 2007, 4131
6690, 4412, 4138, 4409
6691, 4044, 4041, 4134
6692, 4195, 4187, 4205
6693, 4167, 4175, 3845
6694, 4186, 4178, 4191
6695, 4126, 4129, 4135
6696, 3844, 4135, 4129
6697, 4438, 4433, 4429
6698, 4427, 4423, 4178
6699, 4191, 4183, 4186
6700, 4133, 4134, 4132
6701, 4403, 4410, 4409
6702, 4403, 4138, 4193
6703, 4177, 4134, 3845
6704, 4405, 4132, 4134
6705, 523, 522, 5319
6706, 4050, 4140, 4049
6707, 5321, 5325, 5296
6708, 4145, 4142, 4144
6709, 5324, 4146, 4147
6710, 3889, 4143, 1172
6711, 4144, 4143, 3886
6712, 4144, 3886, 4045
6713, 4145, 4144, 4049
6714, 523, 4145, 4049
6715, 4147, 4145, 4141
6716, 4143, 4146, 1172
6717, 4147, 4146, 4142
6718, 4145, 4147, 4142
6719, 4141, 5320, 5324
6720, 3917, 4148, 3916
6721, 4148, 3918, 3931
6722, 4150, 3926, 3956
6723, 4202, 3955, 4071
6724, 4149, 4150, 4203
6725, 3959, 4151, 3958
6726, 4151, 3960, 3973
6727, 4153, 3968, 3998
6728, 4261, 3997, 4093
6729, 4152, 4153, 4262
6730, 4001, 4154, 4000
6731, 4154, 4002, 4015
6732, 4156, 4010, 4040
6733, 4320, 4039, 4115
6734, 4155, 4156, 4321
6735, 4118, 4162, 4157
6736, 4164, 4169, 4163
6737, 1993, 4158, 4119
6738, 4161, 4159, 4158
6739, 4160, 4158, 4159
6740, 4159, 4157, 4162
6741, 4161, 4158, 1993
6742, 3830, 4160, 3815
6743, 4157, 4159, 4161
6744, 4162, 4118, 4166
6745, 4165, 4168, 4166
6746, 4166, 4171, 4163
6747, 4164, 4167, 3848
6748, 3849, 3826, 4164
6749, 4377, 3826, 3829
6750, 4164, 4377, 4169
6751, 4377, 4378, 4165
6752, 4173, 4171, 4170
6753, 4166, 4163, 4169
6754, 4171, 4380, 4163
6755, 4174, 4167, 3845
6756, 4166, 4168, 4162
6757, 4168, 4165, 4378
6758, 4377, 4164, 3826
6759, 4166, 4169, 4165
6760, 4172, 4166, 4118
6761, 4172, 4170, 4171
6762, 4379, 1992, 4173
6763, 4219, 4198, 4255
6764, 4166, 4172, 4171
6765, 4380, 4173, 4175
6766, 4041, 4174, 3845
6767, 3848, 4167, 4174
6768, 4381, 4136, 4195
6769, 4194, 4181, 4186
6770, 4175, 4173, 4180
6771, 4195, 4205, 4185
6772, 4175, 4177, 3845
6773, 4427, 4415, 4423
6774, 4190, 4189, 4193
6775, 4138, 4412, 4413
6776, 4413, 4194, 4138
6777, 4381, 4195, 4201
6778, 1992, 4180, 4173
6779, 4195, 4136, 4179
6780, 4190, 4192, 4189
6781, 2007, 4128, 4197
6782, 4403, 4189, 4404
6783, 4188, 4179, 4199
6784, 4404, 4182, 4132
6785, 4405, 4177, 4408
6786, 4197, 4196, 2007
6787, 4128, 4133, 4197
6788, 4136, 4207, 5686
6789, 4198, 4381, 4223
6790, 4181, 4413, 4415
6791, 4209, 4185, 4205
6792, 4190, 4193, 4194
6793, 4464, 4455, 4463
6794, 4184, 4182, 4189
6795, 4186, 4183, 4190
6796, 4189, 4192, 4184
6797, 4190, 4183, 4137
6798, 4403, 4193, 4189
6799, 4430, 4191, 4178
6800, 4190, 4137, 4192
6801, 4381, 4198, 4207
6802, 4223, 4255, 4198
6803, 4138, 4194, 4193
6804, 4201, 4195, 4185
6805, 4133, 4182, 4197
6806, 4182, 4184, 4196
6807, 4196, 4197, 4182
6808, 4224, 4382, 4221
6809, 4199, 4136, 5686
6810, 5646, 4247, 5639
6811, 4381, 4207, 4136
6812, 4211, 4213, 4226
6813, 4200, 4071, 3955
6814, 4211, 4227, 4201
6815, 4203, 4071, 4149
6816, 4220, 4214, 4211
6817, 4070, 4203, 4150
6818, 4203, 4202, 4071
6819, 4202, 4203, 4221
6820, 4201, 4209, 4213
6821, 4069, 4208, 4206
6822, 4206, 4205, 4187
6823, 4208, 4069, 4066
6824, 4187, 4195, 4179
6825, 4179, 4188, 4187
6826, 4206, 4187, 4062
6827, 4210, 4072, 3955
6828, 4206, 4208, 4205
6829, 4210, 4209, 4208
6830, 4217, 4222, 3955
6831, 4072, 4210, 4208
6832, 4202, 4217, 3955
6833, 4221, 4382, 4217
6834, 4201, 4213, 4211
6835, 4203, 4070, 4221
6836, 4256, 4258, 4255
6837, 4209, 4210, 4222
6838, 4210, 3955, 4222
6839, 4382, 4224, 4225
6840, 4202, 4221, 4217
6841, 3954, 4215, 3956
6842, 4204, 4226, 4222
6843, 4217, 4204, 4222
6844, 1904, 4218, 4215
6845, 4224, 4218, 4216
6846, 4070, 4215, 4218
6847, 4214, 4232, 4234
6848, 4250, 4238, 4243
6849, 4228, 4204, 4382
6850, 4232, 4214, 4231
6851, 4224, 4070, 4218
6852, 4225, 4224, 4216
6853, 4226, 4204, 4220
6854, 4222, 4213, 4209
6855, 4211, 4256, 4227
6856, 4136, 4199, 4179
6857, 4225, 4216, 4212
6858, 4070, 4224, 4221
6859, 4228, 4225, 4212
6860, 4382, 4204, 4217
6861, 4211, 4226, 4220
6862, 4213, 4222, 4226
6863, 4256, 4211, 4214
6864, 4227, 4223, 4381
6865, 4230, 4228, 4212
6866, 4220, 4204, 4228
6867, 4212, 4229, 4230
6868, 4230, 4220, 4228
6869, 4230, 4229, 4231
6870, 4232, 4231, 4229
6871, 4220, 4231, 4214
6872, 4229, 4065, 4232
6873, 4232, 4065, 4234
6874, 4239, 4257, 4254
6875, 4256, 4255, 4223
6876, 4065, 4237, 4234
6877, 4214, 4234, 4233
6878, 4237, 4240, 4239
6879, 4237, 4065, 4236
6880, 4233, 4237, 4239
6881, 4240, 4238, 4239
6882, 4242, 4238, 4240
6883, 4235, 4244, 4246
6884, 4240, 4237, 4236
6885, 4239, 4238, 4257
6886, 4235, 4242, 4241
6887, 4240, 4241, 4242
6888, 4248, 4252, 4253
6889, 4240, 4236, 4241
6890, 4246, 4242, 4235
6891, 4249, 4245, 4243
6892, 4242, 4243, 4238
6893, 4246, 4244, 4252
6894, 4250, 4243, 5639
6895, 4249, 4243, 4242
6896, 5650, 5645, 5663
6897, 4242, 4246, 4249
6898, 5686, 4061, 4199
6899, 5646, 5658, 4247
6900, 5639, 5329, 5646
6901, 5329, 5639, 5643
6902, 4252, 4249, 4246
6903, 5644, 4249, 4248
6904, 5639, 4243, 4245
6905, 5658, 5659, 4247
6906, 4251, 4219, 4254
6907, 4250, 4251, 4257
6908, 4253, 4252, 4244
6909, 4249, 4252, 4248
6910, 4244, 4068, 4253
6911, 4068, 5674, 4253
6912, 4255, 4254, 4219
6913, 4239, 4254, 4258
6914, 5659, 5660, 4219
6915, 4223, 4227, 4256
6916, 4214, 4233, 4256
6917, 4258, 4256, 4233
6918, 4250, 4257, 4238
6919, 4254, 4257, 4251
6920, 4239, 4258, 4233
6921, 4255, 4258, 4254
6922, 4270, 4272, 4285
6923, 4259, 4093, 3997
6924, 4270, 4286, 4260
6925, 4262, 4093, 4152
6926, 4279, 4273, 4270
6927, 4092, 4262, 4153
6928, 4262, 4261, 4093
6929, 4261, 4262, 4280
6930, 4260, 4268, 4272
6931, 4091, 4267, 4265
6932, 4265, 4264, 4386
6933, 4267, 4091, 4088
6934, 4386, 4383, 4387
6935, 4387, 4384, 4386
6936, 4265, 4386, 4084
6937, 4269, 4094, 3997
6938, 4265, 4267, 4264
6939, 4269, 4268, 4267
6940, 4276, 4281, 3997
6941, 4094, 4269, 4267
6942, 4261, 4276, 3997
6943, 4280, 4392, 4276
6944, 4260, 4272, 4270
6945, 4262, 4092, 4280
6946, 4315, 4317, 4314
6947, 4268, 4269, 4281
6948, 4269, 3997, 4281
6949, 4392, 4283, 4284
6950, 4261, 4280, 4276
6951, 3996, 4274, 3998
6952, 4263, 4285, 4281
6953, 4276, 4263, 4281
6954, 1926, 4277, 4274
6955, 4283, 4277, 4275
6956, 4092, 4274, 4277
6957, 4273, 4291, 4293
6958, 4309, 4297, 4302
6959, 4287, 4263, 4392
6960, 4291, 4273, 4290
6961, 4283, 4092, 4277
6962, 4284, 4283, 4275
6963, 4285, 4263, 4279
6964, 4281, 4272, 4268
6965, 4270, 4315, 4286
6966, 4389, 4388, 4387
6967, 4284, 4275, 4271
6968, 4092, 4283, 4280
6969, 4287, 4284, 4271
6970, 4392, 4263, 4276
6971, 4270, 4285, 4279
6972, 4272, 4281, 4285
6973, 4315, 4270, 4273
6974, 4286, 4282, 4391
6975, 4289, 4287, 4271
6976, 4279, 4263, 4287
6977, 4271, 4288, 4289
6978, 4289, 4279, 4287
6979, 4289, 4288, 4290
6980, 4291, 4290, 4288
6981, 4279, 4290, 4273
6982, 4288, 4087, 4291
6983, 4291, 4087, 4293
6984, 4298, 4316, 4313
6985, 4315, 4314, 4282
6986, 4087, 4296, 4293
6987, 4273, 4293, 4292
6988, 4296, 4299, 4298
6989, 4296, 4087, 4295
6990, 4292, 4296, 4298
6991, 4299, 4297, 4298
6992, 4301, 4297, 4299
6993, 4294, 4303, 4305
6994, 4299, 4296, 4295
6995, 4298, 4297, 4316
6996, 4294, 4301, 4300
6997, 4299, 4300, 4301
6998, 4307, 4311, 4312
6999, 4299, 4295, 4300
7000, 4305, 4301, 4294
7001, 4308, 4304, 4302
7002, 4301, 4302, 4297
7003, 4305, 4303, 4311
7004, 4309, 4302, 6282
7005, 4308, 4302, 4301
7006, 6293, 6288, 6306
7007, 4301, 4305, 4308
7008, 6329, 4083, 4388
7009, 6289, 6301, 4306
7010, 6282, 5330, 6289
7011, 5330, 6282, 6286
7012, 4311, 4308, 4305
7013, 6287, 4308, 4307
7014, 6282, 4302, 4304
7015, 6301, 6302, 4306
7016, 4310, 4278, 4313
7017, 4309, 4310, 4316
7018, 4312, 4311, 4303
7019, 4308, 4311, 4307
7020, 4303, 4090, 4312
7021, 4090, 6317, 4312
7022, 4314, 4313, 4278
7023, 4298, 4313, 4317
7024, 6302, 6303, 4278
7025, 4282, 4286, 4315
7026, 4273, 4292, 4315
7027, 4317, 4315, 4292
7028, 4309, 4316, 4297
7029, 4313, 4316, 4310
7030, 4298, 4317, 4292
7031, 4314, 4317, 4313
7032, 4329, 4331, 4344
7033, 4318, 4115, 4039
7034, 4329, 4345, 4319
7035, 4321, 4115, 4155
7036, 4338, 4332, 4329
7037, 4114, 4321, 4156
7038, 4321, 4320, 4115
7039, 4320, 4321, 4339
7040, 4319, 4327, 4331
7041, 4113, 4326, 4324
7042, 4324, 4323, 4396
7043, 4326, 4113, 4110
7044, 4396, 4393, 4397
7045, 4397, 4394, 4396
7046, 4324, 4396, 4106
7047, 4328, 4116, 4039
7048, 4324, 4326, 4323
7049, 4328, 4327, 4326
7050, 4335, 4340, 4039
7051, 4116, 4328, 4326
7052, 4320, 4335, 4039
7053, 4339, 4402, 4335
7054, 4319, 4331, 4329
7055, 4321, 4114, 4339
7056, 4374, 4376, 4373
7057, 4327, 4328, 4340
7058, 4328, 4039, 4340
7059, 4402, 4342, 4343
7060, 4320, 4339, 4335
7061, 4038, 4333, 4040
7062, 4322, 4344, 4340
7063, 4335, 4322, 4340
7064, 1929, 4336, 4333
7065, 4342, 4336, 4334
7066, 4114, 4333, 4336
7067, 4332, 4350, 4352
7068, 4368, 4356, 4361
7069, 4346, 4322, 4402
7070, 4350, 4332, 4349
7071, 4342, 4114, 4336
7072, 4343, 4342, 4334
7073, 4344, 4322, 4338
7074, 4340, 4331, 4327
7075, 4329, 4374, 4345
7076, 4399, 4398, 4397
7077, 4343, 4334, 4330
7078, 4114, 4342, 4339
7079, 4346, 4343, 4330
7080, 4402, 4322, 4335
7081, 4329, 4344, 4338
7082, 4331, 4340, 4344
7083, 4374, 4329, 4332
7084, 4345, 4341, 4401
7085, 4348, 4346, 4330
7086, 4338, 4322, 4346
7087, 4330, 4347, 4348
7088, 4348, 4338, 4346
7089, 4348, 4347, 4349
7090, 4350, 4349, 4347
7091, 4338, 4349, 4332
7092, 4347, 4109, 4350
7093, 4350, 4109, 4352
7094, 4357, 4375, 4372
7095, 4374, 4373, 4341
7096, 4109, 4355, 4352
7097, 4332, 4352, 4351
7098, 4355, 4358, 4357
7099, 4355, 4109, 4354
7100, 4351, 4355, 4357
7101, 4358, 4356, 4357
7102, 4360, 4356, 4358
7103, 4353, 4362, 4364
7104, 4358, 4355, 4354
7105, 4357, 4356, 4375
7106, 4353, 4360, 4359
7107, 4358, 4359, 4360
7108, 4366, 4370, 4371
7109, 4358, 4354, 4359
7110, 4364, 4360, 4353
7111, 4367, 4363, 4361
7112, 4360, 4361, 4356
7113, 4364, 4362, 4370
7114, 4368, 4361, 6899
7115, 4367, 4361, 4360
7116, 6910, 6905, 6923
7117, 4360, 4364, 4367
7118, 6946, 4105, 4398
7119, 6906, 6918, 4365
7120, 6899, 5331, 6906
7121, 5331, 6899, 6903
7122, 4370, 4367, 4364
7123, 6904, 4367, 4366
7124, 6899, 4361, 4363
7125, 6918, 6919, 4365
7126, 4369, 4337, 4372
7127, 4368, 4369, 4375
7128, 4371, 4370, 4362
7129, 4367, 4370, 4366
7130, 4362, 4112, 4371
7131, 4112, 6934, 4371
7132, 4373, 4372, 4337
7133, 4357, 4372, 4376
7134, 6919, 6920, 4337
7135, 4341, 4345, 4374
7136, 4332, 4351, 4374
7137, 4376, 4374, 4351
7138, 4368, 4375, 4356
7139, 4372, 4375, 4369
7140, 4357, 4376, 4351
7141, 4373, 4376, 4372
7142, 4378, 4377, 3829
7143, 4169, 4377, 4165
7144, 3815, 4378, 3829
7145, 4378, 4160, 4168
7146, 4163, 4380, 4167
7147, 4173, 4170, 4379
7148, 4171, 4173, 4380
7149, 4228, 4382, 4225
7150, 4391, 4260, 4286
7151, 4383, 4389, 4387
7152, 4383, 4386, 4264
7153, 4383, 4264, 4385
7154, 4268, 4385, 4264
7155, 4260, 4383, 4385
7156, 4282, 4314, 4390
7157, 4391, 4390, 4266
7158, 4384, 4387, 4388
7159, 6289, 4306, 6282
7160, 4388, 4389, 6329
7161, 4391, 4389, 4383
7162, 4389, 4266, 6329
7163, 4278, 4390, 4314
7164, 4391, 4266, 4389
7165, 4391, 4383, 4260
7166, 4390, 4391, 4282
7167, 4283, 4392, 4280
7168, 4287, 4392, 4284
7169, 4401, 4319, 4345
7170, 4393, 4399, 4397
7171, 4393, 4396, 4323
7172, 4393, 4323, 4395
7173, 4327, 4395, 4323
7174, 4319, 4393, 4395
7175, 4341, 4373, 4400
7176, 4401, 4400, 4325
7177, 4394, 4397, 4398
7178, 6906, 4365, 6899
7179, 4398, 4399, 6946
7180, 4401, 4399, 4393
7181, 4399, 4325, 6946
7182, 4337, 4400, 4373
7183, 4401, 4325, 4399
7184, 4401, 4393, 4319
7185, 4400, 4401, 4341
7186, 4342, 4402, 4339
7187, 4346, 4402, 4343
7188, 4182, 4404, 4189
7189, 4403, 4132, 4405
7190, 4132, 4403, 4404
7191, 4175, 4406, 4408
7192, 4407, 4409, 4410
7193, 4475, 4467, 4442
7194, 4409, 4138, 4403
7195, 4453, 4434, 4425
7196, 4414, 4416, 4418
7197, 4175, 4408, 4177
7198, 4410, 4408, 4406
7199, 4410, 4403, 4405
7200, 4421, 4412, 4409
7201, 4408, 4410, 4405
7202, 4428, 4410, 4406
7203, 4457, 4417, 4420
7204, 4416, 4414, 4415
7205, 4421, 4409, 4407
7206, 4413, 4412, 4411
7207, 4415, 4413, 4416
7208, 4194, 4413, 4181
7209, 4447, 4426, 4431
7210, 4436, 4423, 4414
7211, 4416, 4413, 4411
7212, 4415, 4414, 4423
7213, 4419, 4416, 4411
7214, 4419, 4418, 4416
7215, 4419, 4411, 4420
7216, 4429, 4436, 4426
7217, 4459, 4419, 4417
7218, 4453, 4442, 4450
7219, 4412, 4421, 4411
7220, 4420, 4417, 4419
7221, 4422, 4420, 4407
7222, 4457, 4422, 5335
7223, 4407, 4420, 4421
7224, 4411, 4421, 4420
7225, 4428, 4422, 4407
7226, 4439, 4438, 4429
7227, 4429, 4425, 4439
7228, 4139, 4445, 4444
7229, 4414, 4426, 4436
7230, 4445, 4430, 4423
7231, 4414, 4431, 4426
7232, 4439, 4452, 4437
7233, 4431, 4414, 4418
7234, 4441, 4440, 4443
7235, 4186, 4427, 4178
7236, 4181, 4415, 4427
7237, 4410, 4428, 4407
7238, 4439, 4434, 4452
7239, 4435, 4458, 4417
7240, 4436, 4433, 4445
7241, 4191, 4430, 4139
7242, 4423, 4430, 4178
7243, 4422, 4463, 4130
7244, 4423, 4436, 4445
7245, 4450, 4434, 4453
7246, 4433, 4436, 4429
7247, 4462, 4448, 4431
7248, 4463, 4428, 4464
7249, 4435, 4176, 4458
7250, 5335, 4417, 4457
7251, 4447, 4429, 4426
7252, 4453, 4448, 4451
7253, 4461, 4492, 4437
7254, 4440, 4438, 4437
7255, 4441, 4438, 4440
7256, 4451, 4442, 4453
7257, 4437, 4438, 4439
7258, 4483, 4489, 4488
7259, 4441, 4443, 4432
7260, 4139, 4430, 4445
7261, 4433, 4438, 4441
7262, 4461, 4479, 4484
7263, 4425, 4434, 4439
7264, 4433, 4441, 4445
7265, 4440, 4424, 4443
7266, 4441, 4432, 4444
7267, 4444, 4445, 4441
7268, 4425, 4429, 4447
7269, 4467, 4470, 4450
7270, 4418, 4462, 4431
7271, 4474, 4446, 4454
7272, 4434, 4450, 4452
7273, 4472, 4176, 4449
7274, 4449, 4454, 4471
7275, 4428, 4463, 4422
7276, 4471, 4454, 4451
7277, 4418, 4419, 4459
7278, 4454, 4442, 4451
7279, 4447, 4453, 4425
7280, 4462, 4418, 4460
7281, 4467, 4450, 4442
7282, 4448, 4447, 4431
7283, 4490, 4424, 4440
7284, 4462, 4471, 4448
7285, 4470, 4479, 4450
7286, 4466, 1992, 4455
7287, 4452, 4479, 4461
7288, 4464, 4428, 4406
7289, 4406, 4465, 4464
7290, 4420, 4422, 4457
7291, 5335, 4422, 4130
7292, 4448, 4453, 4447
7293, 4478, 4456, 4511
7294, 4417, 4458, 4459
7295, 4176, 4473, 4458
7296, 4418, 4459, 4460
7297, 4458, 4460, 4459
7298, 4437, 4452, 4461
7299, 4487, 4461, 4484
7300, 4455, 4130, 4463
7301, 4472, 4462, 4473
7302, 4180, 4466, 4465
7303, 4175, 4465, 4406
7304, 4466, 4180, 1992
7305, 4455, 4464, 4466
7306, 4465, 4466, 4464
7307, 4442, 4454, 4475
7308, 4470, 4467, 4481
7309, 4456, 4478, 4468
7310, 4456, 4468, 4476
7311, 4481, 4468, 4478
7312, 4485, 4482, 4484
7313, 4475, 4468, 4467
7314, 4484, 4479, 4469
7315, 4448, 4471, 4451
7316, 4460, 4473, 4462
7317, 4449, 4471, 4472
7318, 4472, 4471, 4462
7319, 4458, 4473, 4460
7320, 4176, 4472, 4473
7321, 4446, 4475, 4454
7322, 4454, 4449, 4474
7323, 4476, 4475, 4446
7324, 4475, 4476, 4468
7325, 4481, 4469, 4470
7326, 4511, 4456, 1990
7327, 4478, 4477, 4481
7328, 4450, 4479, 4452
7329, 4469, 4479, 4470
7330, 4519, 4505, 4497
7331, 4493, 4486, 4496
7332, 4481, 4467, 4468
7333, 4481, 4477, 4510
7334, 4469, 4481, 4485
7335, 4526, 4508, 4528
7336, 4613, 4494, 4610
7337, 4486, 4491, 4487
7338, 4485, 4484, 4469
7339, 4487, 4484, 4482
7340, 1990, 4520, 4511
7341, 4489, 4491, 4488
7342, 4498, 4496, 4501
7343, 4499, 4488, 4491
7344, 4490, 4483, 4424
7345, 4490, 4437, 4489
7346, 4489, 4483, 4490
7347, 4437, 4490, 4440
7348, 4491, 4489, 4492
7349, 4461, 4487, 4492
7350, 4493, 4491, 4486
7351, 4491, 4492, 4487
7352, 4437, 4492, 4489
7353, 4505, 4606, 4605
7354, 4499, 4493, 1989
7355, 4521, 4509, 4522
7356, 4582, 4588, 4557
7357, 4501, 4503, 4506
7358, 1989, 4496, 4498
7359, 4496, 1989, 4493
7360, 4546, 4516, 4513
7361, 4521, 4507, 4514
7362, 4493, 4499, 4491
7363, 4485, 4510, 4507
7364, 4512, 4486, 4502
7365, 4529, 4538, 4530
7366, 4486, 4544, 4502
7367, 4526, 4530, 4508
7368, 4521, 4514, 4520
7369, 4501, 4506, 4498
7370, 4518, 4512, 4502
7371, 4550, 4605, 4608
7372, 4501, 4496, 4512
7373, 4497, 4503, 4519
7374, 4507, 4508, 4516
7375, 4503, 4497, 4506
7376, 4540, 4517, 4537
7377, 4530, 4538, 4541
7378, 4513, 4541, 4545
7379, 4486, 4512, 4496
7380, 4507, 4510, 4514
7381, 4481, 4510, 4485
7382, 4511, 4510, 4477
7383, 4478, 4511, 4477
7384, 4503, 4540, 4519
7385, 4527, 4534, 4523
7386, 4544, 4545, 4541
7387, 4511, 4514, 4510
7388, 4511, 4520, 4514
7389, 4503, 4501, 4518
7390, 4540, 4503, 4518
7391, 4530, 4516, 4508
7392, 4513, 4545, 4546
7393, 4526, 4528, 4524
7394, 4518, 4501, 4512
7395, 4515, 4607, 4606
7396, 1990, 4509, 4520
7397, 4505, 4519, 4515
7398, 4521, 4520, 4509
7399, 4522, 4509, 4500
7400, 4521, 4508, 4507
7401, 4522, 4500, 4524
7402, 4521, 4522, 4528
7403, 4523, 4524, 4527
7404, 4535, 4534, 4527
7405, 4535, 4527, 4525
7406, 4524, 4523, 4526
7407, 4523, 4529, 4526
7408, 4531, 4525, 4527
7409, 4513, 4516, 4530
7410, 4531, 4524, 4500
7411, 4535, 4504, 4532
7412, 4521, 4528, 4508
7413, 4524, 4528, 4522
7414, 4536, 4523, 4533
7415, 4538, 4517, 4518
7416, 4526, 4529, 4530
7417, 4538, 4529, 4517
7418, 4553, 4548, 4554
7419, 4524, 4531, 4527
7420, 4529, 4536, 4517
7421, 4543, 4548, 4542
7422, 4517, 4536, 4537
7423, 4549, 4534, 4532
7424, 4533, 4523, 4534
7425, 4504, 4535, 4525
7426, 4534, 4535, 4532
7427, 4523, 4536, 4529
7428, 4537, 4536, 4533
7429, 4537, 4533, 4543
7430, 4517, 4540, 4518
7431, 4518, 4502, 4538
7432, 4541, 4538, 4502
7433, 4548, 4547, 4542
7434, 4556, 4558, 4539
7435, 4607, 4540, 4537
7436, 4519, 4540, 4515
7437, 4544, 4541, 4502
7438, 4530, 4541, 4513
7439, 4534, 4549, 4533
7440, 4539, 4564, 4542
7441, 4548, 4543, 4533
7442, 4607, 4543, 4542
7443, 4487, 4544, 4486
7444, 4544, 4482, 4545
7445, 4485, 4546, 4482
7446, 4546, 4485, 4507
7447, 4516, 4546, 4507
7448, 4482, 4546, 4545
7449, 4552, 5336, 4566
7450, 4547, 4539, 4542
7451, 4554, 4549, 4532
7452, 4548, 4553, 4547
7453, 4562, 4576, 4570
7454, 4533, 4549, 4548
7455, 4563, 4567, 4558
7456, 4604, 4495, 4605
7457, 4568, 4566, 4561
7458, 4555, 4556, 4553
7459, 4548, 4549, 4554
7460, 4547, 4556, 4539
7461, 4553, 4552, 4555
7462, 4504, 4554, 4532
7463, 5336, 4554, 4504
7464, 4554, 4552, 4553
7465, 4556, 4563, 4558
7466, 4553, 4556, 4547
7467, 4565, 4577, 4576
7468, 4573, 4584, 4578
7469, 4579, 4581, 4567
7470, 4563, 4556, 4555
7471, 4562, 4563, 4565
7472, 4617, 4596, 4602
7473, 4574, 4581, 4579
7474, 4567, 4559, 4579
7475, 4565, 4563, 4555
7476, 4576, 4577, 4569
7477, 4570, 4572, 4559
7478, 4567, 4563, 4562
7479, 4574, 4609, 4581
7480, 4580, 4601, 4557
7481, 4552, 4554, 5336
7482, 4542, 4564, 4550
7483, 4539, 4558, 4581
7484, 4555, 4552, 4566
7485, 4565, 4555, 4566
7486, 4561, 4551, 4568
7487, 4580, 4574, 4579
7488, 4569, 4568, 4551
7489, 4566, 4568, 4577
7490, 4575, 4585, 4578
7491, 4569, 4560, 4576
7492, 4572, 4570, 4560
7493, 4559, 4567, 4570
7494, 4573, 4571, 4572
7495, 4573, 4592, 4594
7496, 4572, 4560, 4584
7497, 4572, 4571, 4615
7498, 4578, 4560, 4569
7499, 4585, 4590, 4573
7500, 4730, 4743, 4738
7501, 4581, 4558, 4567
7502, 4570, 4576, 4560
7503, 4569, 4551, 4583
7504, 4565, 4576, 4562
7505, 4566, 4577, 4565
7506, 4568, 4569, 4577
7507, 4583, 4578, 4569
7508, 4585, 4575, 4480
7509, 4580, 4579, 4559
7510, 4574, 4588, 4582
7511, 4615, 4617, 4614
7512, 4589, 4603, 4604
7513, 4588, 4580, 4557
7514, 4539, 4581, 4564
7515, 4610, 4602, 4596
7516, 4604, 4564, 4589
7517, 4551, 4575, 4583
7518, 4578, 4583, 4575
7519, 4572, 4584, 4573
7520, 4560, 4578, 4584
7521, 4634, 4585, 4480
7522, 4573, 4578, 4585
7523, 4598, 4616, 4594
7524, 4573, 4590, 4592
7525, 4574, 4582, 4589
7526, 4495, 4604, 4603
7527, 4574, 4580, 4588
7528, 4609, 4564, 4581
7529, 4595, 4619, 4599
7530, 4587, 4592, 4595
7531, 4595, 4592, 4624
7532, 4625, 4627, 4599
7533, 4594, 4592, 4587
7534, 4632, 4631, 4618
7535, 4587, 4627, 4598
7536, 4598, 4594, 4587
7537, 4573, 4594, 4571
7538, 4624, 4592, 4590
7539, 4595, 4632, 4619
7540, 4587, 4595, 4599
7541, 4612, 4602, 4610
7542, 4657, 4656, 4662
7543, 7225, 4664, 4494
7544, 4619, 4625, 4599
7545, 4615, 4616, 4617
7546, 4631, 4633, 4618
7547, 4618, 4620, 4619
7548, 4621, 4628, 4620
7549, 4613, 4610, 4596
7550, 4614, 4580, 4559
7551, 4586, 4557, 4601
7552, 4586, 4601, 4602
7553, 4601, 4580, 4614
7554, 4605, 4495, 4505
7555, 4589, 4582, 4603
7556, 4564, 4604, 4550
7557, 4606, 4505, 4515
7558, 4550, 4604, 4605
7559, 4515, 4540, 4607
7560, 4605, 4606, 4608
7561, 4543, 4607, 4537
7562, 4608, 4542, 4550
7563, 4606, 4607, 4608
7564, 4542, 4608, 4607
7565, 4574, 4589, 4609
7566, 4564, 4609, 4589
7567, 4613, 4643, 7225
7568, 4602, 4612, 4586
7569, 4618, 4611, 4620
7570, 4620, 4611, 4636
7571, 4598, 4627, 4596
7572, 4610, 4494, 4612
7573, 4597, 4613, 4596
7574, 4615, 4614, 4559
7575, 4601, 4614, 4602
7576, 4572, 4615, 4559
7577, 4616, 4615, 4571
7578, 4594, 4616, 4571
7579, 4617, 4598, 4596
7580, 4617, 4602, 4614
7581, 4598, 4617, 4616
7582, 4637, 4640, 4636
7583, 4630, 4632, 4624
7584, 4636, 4621, 4620
7585, 4625, 4622, 4644
7586, 4596, 4627, 4597
7587, 4628, 4625, 4619
7588, 4641, 4637, 4635
7589, 4599, 4627, 4587
7590, 7226, 4644, 4660
7591, 4618, 4633, 4611
7592, 4633, 4631, 4623
7593, 4624, 4634, 4630
7594, 4631, 4630, 4623
7595, 4622, 4625, 4628
7596, 4628, 4619, 4620
7597, 4621, 4647, 4651
7598, 4597, 4627, 4625
7599, 4647, 4621, 4640
7600, 4651, 4628, 4621
7601, 7225, 4643, 7226
7602, 4659, 4658, 4662
7603, 4634, 4624, 4590
7604, 4623, 4593, 4633
7605, 4630, 4480, 4623
7606, 4632, 4630, 4631
7607, 4619, 4632, 4618
7608, 4632, 4595, 4624
7609, 4611, 4633, 4593
7610, 4585, 4634, 4590
7611, 4480, 4630, 4634
7612, 4611, 4637, 4636
7613, 4638, 4635, 4637
7614, 4641, 4640, 4637
7615, 4638, 4611, 4593
7616, 4591, 4639, 4641
7617, 4677, 4682, 4678
7618, 4611, 4638, 4637
7619, 4621, 4636, 4640
7620, 4650, 4646, 4647
7621, 4640, 4650, 4647
7622, 4591, 4641, 4635
7623, 4640, 4641, 4639
7624, 4643, 4613, 4597
7625, 4629, 5000, 5030
7626, 4644, 4643, 4597
7627, 4663, 4642, 7226
7628, 4625, 4644, 4597
7629, 4658, 4660, 4622
7630, 4652, 4678, 4682
7631, 4674, 4667, 4670
7632, 4646, 4653, 4655
7633, 4628, 4651, 4622
7634, 4650, 4639, 4648
7635, 4651, 4647, 4657
7636, 4683, 4682, 4681
7637, 4677, 4676, 4648
7638, 4656, 4657, 4655
7639, 4644, 4622, 4660
7640, 4639, 4650, 4640
7641, 4646, 4650, 4648
7642, 4657, 4647, 4646
7643, 4651, 4649, 4658
7644, 4684, 4687, 4691
7645, 4680, 4685, 4673
7646, 4670, 4655, 4653
7647, 4646, 4648, 4653
7648, 4668, 4666, 4600
7649, 4668, 4661, 4665
7650, 4670, 4653, 4645
7651, 4655, 4654, 4656
7652, 4629, 5337, 5000
7653, 4658, 4659, 4660
7654, 4651, 4657, 4649
7655, 4655, 4657, 4646
7656, 4659, 4662, 4672
7657, 4669, 4672, 4661
7658, 4663, 4659, 4626
7659, 4657, 4662, 4649
7660, 5375, 5378, 5379
7661, 4664, 7226, 4642
7662, 4665, 4672, 4656
7663, 4651, 4658, 4622
7664, 4662, 4658, 4649
7665, 4654, 4665, 4656
7666, 5003, 5396, 4975
7667, 4663, 4626, 4642
7668, 4660, 4659, 4663
7669, 4665, 4654, 4666
7670, 4655, 4670, 4654
7671, 4670, 4667, 4654
7672, 4654, 4667, 4773
7673, 4680, 4676, 4678
7674, 4671, 4720, 4715
7675, 4626, 4659, 4669
7676, 4666, 4668, 4665
7677, 4662, 4656, 4672
7678, 4674, 4670, 4645
7679, 4694, 4671, 4692
7680, 4715, 4720, 4731
7681, 4661, 4672, 4665
7682, 4669, 4659, 4672
7683, 4676, 4653, 4648
7684, 4720, 4671, 4694
7685, 4676, 4680, 4645
7686, 4743, 4771, 4740
7687, 4674, 4645, 4680
7688, 4676, 4645, 4653
7689, 4673, 4781, 4718
7690, 4676, 4677, 4678
7691, 4681, 4648, 4639
7692, 4677, 4681, 4682
7693, 4688, 4675, 4687
7694, 4678, 4652, 4680
7695, 4688, 4682, 4679
7696, 4680, 4652, 4686
7697, 4674, 4680, 4673
7698, 4648, 4681, 4677
7699, 4591, 4681, 4639
7700, 4683, 4681, 4591
7701, 4591, 4679, 4683
7702, 4679, 4682, 4683
7703, 4687, 4684, 4686
7704, 4687, 4675, 4695
7705, 4686, 4685, 4680
7706, 4684, 4692, 4781
7707, 4687, 4686, 4652
7708, 4685, 4686, 4684
7709, 4688, 4687, 4652
7710, 4699, 4696, 4698
7711, 4682, 4688, 4652
7712, 4675, 4688, 4679
7713, 4704, 4700, 4701
7714, 4690, 4691, 4695
7715, 4691, 4692, 4684
7716, 4695, 4691, 4687
7717, 4692, 4691, 4690
7718, 4710, 4722, 4717
7719, 4692, 4671, 4781
7720, 4711, 4696, 4704
7721, 4728, 4721, 4749
7722, 4699, 4692, 4690
7723, 4694, 4698, 4703
7724, 4675, 4689, 4695
7725, 4700, 4695, 4689
7726, 4696, 4699, 4700
7727, 4960, 4943, 4945
7728, 4698, 4696, 4711
7729, 4667, 4732, 4739
7730, 4699, 4698, 4694
7731, 4721, 4728, 4750
7732, 4692, 4699, 4694
7733, 4700, 4699, 4690
7734, 4695, 4700, 4690
7735, 4701, 797, 4704
7736, 4953, 4944, 4950
7737, 4700, 4689, 4701
7738, 4852, 4853, 4854
7739, 4718, 4733, 4740
7740, 4742, 4730, 4738
7741, 4704, 4696, 4700
7742, 4713, 4698, 4711
7743, 4704, 797, 4709
7744, 4704, 4709, 4711
7745, 4712, 4716, 4722
7746, 4709, 4708, 4712
7747, 797, 4708, 4709
7748, 4754, 4697, 4752
7749, 4712, 4711, 4709
7750, 4698, 4713, 4703
7751, 4716, 4712, 4708
7752, 4714, 4713, 4711
7753, 4714, 4711, 4712
7754, 4726, 4724, 4719
7755, 4712, 4710, 4714
7756, 4714, 4710, 4724
7757, 4718, 4715, 4733
7758, 4771, 4718, 4740
7759, 4708, 4707, 4716
7760, 4716, 4707, 4717
7761, 4745, 4747, 4736
7762, 4729, 4723, 4736
7763, 4780, 4776, 4736
7764, 4748, 4747, 4745
7765, 4714, 4726, 4713
7766, 4778, 4769, 4770
7767, 4703, 4720, 4694
7768, 4749, 4720, 4703
7769, 4732, 4667, 4674
7770, 4718, 4781, 4715
7771, 4712, 4722, 4710
7772, 4716, 4717, 4722
7773, 4752, 4697, 4738
7774, 4717, 4707, 4729
7775, 4776, 4777, 4717
7776, 4756, 4751, 1289
7777, 4600, 4666, 4773
7778, 4724, 4726, 4714
7779, 4719, 4713, 4726
7780, 4774, 4724, 4710
7781, 4720, 4749, 4731
7782, 4703, 4719, 4728
7783, 4727, 4728, 4719
7784, 4707, 4723, 4729
7785, 4733, 4715, 4731
7786, 4793, 4806, 4799
7787, 4821, 4830, 4819
7788, 4750, 4753, 4721
7789, 4733, 4752, 4738
7790, 4717, 4729, 4776
7791, 4654, 4773, 4666
7792, 4769, 4779, 4767
7793, 4728, 4727, 4750
7794, 4673, 4685, 4781
7795, 4797, 4801, 4802
7796, 4745, 4736, 4723
7797, 4780, 4775, 4776
7798, 4757, 4721, 4753
7799, 4771, 4743, 4732
7800, 4771, 4674, 4673
7801, 4760, 4761, 4759
7802, 4733, 4731, 4752
7803, 4732, 4743, 4739
7804, 4600, 4739, 4772
7805, 4738, 4740, 4733
7806, 4743, 4730, 4739
7807, 4740, 4738, 4743
7808, 4738, 4697, 4742
7809, 4759, 4761, 4770
7810, 4758, 1289, 4751
7811, 4723, 4706, 4745
7812, 4745, 4706, 4748
7813, 4810, 4792, 4809
7814, 4785, 4793, 4799
7815, 4798, 4747, 4746
7816, 4780, 4747, 4734
7817, 4787, 4706, 4786
7818, 4747, 4748, 4746
7819, 4728, 4749, 4703
7820, 4731, 4749, 4721
7821, 4727, 4751, 4750
7822, 4840, 4766, 4763
7823, 4760, 4762, 4764
7824, 4741, 4754, 4757
7825, 4753, 4756, 4741
7826, 4756, 4750, 4751
7827, 4754, 4752, 4757
7828, 4741, 4756, 1289
7829, 4755, 1289, 4758
7830, 4750, 4756, 4753
7831, 4721, 4757, 4731
7832, 4757, 4753, 4741
7833, 4727, 4761, 4751
7834, 4719, 4724, 4778
7835, 4766, 4762, 4759
7836, 4755, 4758, 4760
7837, 4761, 4760, 4758
7838, 4762, 4760, 4759
7839, 4751, 4761, 4758
7840, 4761, 4727, 4770
7841, 4767, 4763, 4766
7842, 4760, 4764, 4755
7843, 4744, 4775, 4784
7844, 4766, 4840, 4762
7845, 4838, 4836, 4837
7846, 4762, 4737, 4764
7847, 4838, 4765, 4840
7848, 4767, 4766, 4759
7849, 4836, 4838, 4768
7850, 4769, 4767, 4759
7851, 4763, 4767, 4744
7852, 4784, 4763, 4744
7853, 4747, 4798, 4734
7854, 4769, 4724, 4774
7855, 4778, 4727, 4719
7856, 4759, 4770, 4769
7857, 4674, 4771, 4732
7858, 4718, 4771, 4673
7859, 4667, 4739, 4773
7860, 4739, 4730, 4772
7861, 4600, 4773, 4739
7862, 4777, 4710, 4717
7863, 4744, 4767, 4779
7864, 4784, 4734, 4783
7865, 4744, 4774, 4777
7866, 4736, 4776, 4729
7867, 4777, 4776, 4775
7868, 4744, 4777, 4775
7869, 4777, 4774, 4710
7870, 4769, 4778, 4724
7871, 4727, 4778, 4770
7872, 4769, 4774, 4779
7873, 4744, 4779, 4774
7874, 4747, 4780, 4736
7875, 4784, 4780, 4734
7876, 4684, 4781, 4685
7877, 4715, 4781, 4671
7878, 4734, 4798, 4797
7879, 4788, 4789, 4790
7880, 4763, 4783, 4802
7881, 4784, 4775, 4780
7882, 4763, 4784, 4783
7883, 4746, 4787, 4789
7884, 4793, 4795, 4789
7885, 4789, 4787, 4790
7886, 4706, 4787, 4748
7887, 4746, 4748, 4787
7888, 4788, 4790, 4792
7889, 4839, 4801, 4800
7890, 4790, 4787, 4786
7891, 4793, 4789, 4788
7892, 4782, 4792, 4791
7893, 4790, 4791, 4792
7894, 7543, 7544, 4735
7895, 4790, 4786, 4791
7896, 4794, 4808, 4829
7897, 4788, 4803, 4806
7898, 4795, 4793, 4785
7899, 4803, 4788, 4792
7900, 4806, 4829, 4796
7901, 4795, 4785, 4797
7902, 4789, 4795, 4746
7903, 4832, 4800, 4796
7904, 4799, 4800, 4785
7905, 4801, 4797, 4785
7906, 4783, 4734, 4797
7907, 4746, 4795, 4798
7908, 4797, 4798, 4795
7909, 4806, 4793, 4788
7910, 4800, 4799, 4796
7911, 4804, 4829, 4806
7912, 4831, 7543, 4832
7913, 4800, 4801, 4785
7914, 4802, 4801, 4768
7915, 4768, 4838, 4847
7916, 4797, 4802, 4783
7917, 4842, 4807, 4843
7918, 4829, 4804, 4794
7919, 4782, 4805, 4809
7920, 4792, 4782, 4809
7921, 4794, 4804, 4811
7922, 4806, 4803, 4804
7923, 4806, 4796, 4799
7924, 4808, 4794, 4823
7925, 7545, 4807, 4835
7926, 4804, 4803, 4810
7927, 4830, 4823, 4814
7928, 4811, 4810, 4813
7929, 4810, 4803, 4792
7930, 4809, 4805, 4815
7931, 4804, 4810, 4811
7932, 4813, 4810, 4815
7933, 4813, 4814, 4811
7934, 4816, 4815, 4805
7935, 4818, 4819, 4812
7936, 4815, 4810, 4809
7937, 4814, 4813, 4812
7938, 4812, 4816, 4818
7939, 4824, 4823, 4830
7940, 4816, 4805, 4705
7941, 4813, 4815, 4812
7942, 4854, 4821, 4819
7943, 4812, 4815, 4816
7944, 4934, 4931, 4933
7945, 4852, 4819, 4818
7946, 4705, 4818, 4816
7947, 4868, 4818, 4705
7948, 4852, 4854, 4819
7949, 4812, 4819, 4814
7950, 4855, 4826, 4821
7951, 4843, 4844, 4848
7952, 4873, 4858, 4861
7953, 4814, 4823, 4811
7954, 4867, 4866, 4859
7955, 4891, 4886, 4882
7956, 4832, 7543, 4839
7957, 4848, 4845, 4849
7958, 4824, 4830, 4826
7959, 4823, 4794, 4811
7960, 4817, 4865, 4866
7961, 4855, 4820, 4826
7962, 4855, 4853, 4857
7963, 4850, 4851, 4849
7964, 4857, 4853, 4858
7965, 4862, 4860, 4880
7966, 4876, 4826, 4820
7967, 4819, 4830, 4814
7968, 4843, 4807, 7545
7969, 4824, 4845, 4823
7970, 4826, 4830, 4821
7971, 4796, 4833, 4832
7972, 4836, 7543, 4735
7973, 4833, 4796, 4829
7974, 4834, 4831, 7545
7975, 4808, 4841, 4829
7976, 4843, 7545, 4841
7977, 7543, 4836, 4839
7978, 4833, 4841, 7545
7979, 4833, 4831, 4832
7980, 4831, 4833, 7545
7981, 4838, 4837, 4765
7982, 4839, 4836, 4768
7983, 4840, 4765, 4737
7984, 4836, 4735, 4837
7985, 4840, 4847, 4838
7986, 4801, 4839, 4768
7987, 4839, 4800, 4832
7988, 4840, 4737, 4762
7989, 4847, 4802, 4768
7990, 4829, 4841, 4833
7991, 4843, 4841, 4844
7992, 4848, 4844, 4845
7993, 4763, 4802, 4847
7994, 4844, 4841, 4808
7995, 4843, 4848, 4842
7996, 4823, 4844, 4808
7997, 4844, 4823, 4845
7998, 4826, 4845, 4824
7999, 4828, 4849, 4826
8000, 4840, 4763, 4847
8001, 4846, 4807, 4842
8002, 4871, 4876, 4820
8003, 4845, 4826, 4849
8004, 4846, 4842, 4848
8005, 4850, 4849, 4828
8006, 4846, 4848, 4849
8007, 4820, 4857, 4871
8008, 4849, 4851, 4846
8009, 4869, 4725, 4850
8010, 4850, 4725, 4851
8011, 4822, 4867, 4868
8012, 4854, 4855, 4821
8013, 4855, 4854, 4853
8014, 4853, 4861, 4858
8015, 4884, 4889, 4883
8016, 4855, 4857, 4820
8017, 4867, 4861, 4852
8018, 4828, 4876, 4850
8019, 4915, 4904, 4897
8020, 4860, 4858, 4873
8021, 4878, 4725, 4869
8022, 4869, 4876, 4877
8023, 4858, 4860, 4857
8024, 4889, 4893, 4875
8025, 4852, 4861, 4853
8026, 4873, 4865, 4881
8027, 4859, 4865, 4873
8028, 4862, 4857, 4860
8029, 4884, 4883, 4863
8030, 4908, 4907, 4879
8031, 4862, 4880, 4907
8032, 4884, 4881, 4874
8033, 4866, 4865, 4859
8034, 4865, 4817, 4872
8035, 4859, 4861, 4867
8036, 4817, 4866, 4822
8037, 4868, 4867, 4852
8038, 4822, 4866, 4867
8039, 4818, 4868, 4852
8040, 4822, 4868, 4705
8041, 4857, 4862, 4871
8042, 4862, 4914, 4877
8043, 4877, 4871, 4862
8044, 4876, 4869, 4850
8045, 4872, 4874, 4881
8046, 4825, 4882, 4887
8047, 4886, 4872, 4827
8048, 4859, 4873, 4861
8049, 4860, 4873, 4863
8050, 4876, 4828, 4826
8051, 4877, 4876, 4871
8052, 4914, 4862, 4907
8053, 4856, 4869, 4877
8054, 4863, 4883, 4860
8055, 4869, 4856, 4878
8056, 4875, 4900, 4909
8057, 4883, 4880, 4860
8058, 4907, 4880, 4879
8059, 4873, 4881, 4863
8060, 4872, 4881, 4865
8061, 4905, 4898, 4901
8062, 4890, 4889, 4884
8063, 4863, 4881, 4884
8064, 4880, 4883, 4879
8065, 4874, 4886, 4891
8066, 4879, 4889, 4875
8067, 4909, 4900, 4898
8068, 4908, 4912, 4907
8069, 4872, 4886, 4874
8070, 4887, 4886, 4827
8071, 4963, 4965, 4931
8072, 4886, 4887, 4882
8073, 4893, 4896, 4875
8074, 4883, 4889, 4879
8075, 4874, 4891, 4884
8076, 4915, 4899, 4904
8077, 4889, 4890, 4893
8078, 4895, 4891, 4882
8079, 4884, 4891, 4890
8080, 4928, 4922, 4925
8081, 4896, 4894, 4897
8082, 4891, 4895, 4890
8083, 4893, 4890, 4894
8084, 4901, 4900, 4896
8085, 4920, 4894, 4895
8086, 4924, 4923, 4922
8087, 4890, 4895, 4894
8088, 4911, 4910, 4898
8089, 4904, 4896, 4897
8090, 4916, 4924, 4920
8091, 4896, 4893, 4894
8092, 4875, 4896, 4900
8093, 4918, 4913, 4915
8094, 4915, 4926, 4899
8095, 4896, 4904, 4901
8096, 4902, 4910, 4911
8097, 4934, 4901, 4899
8098, 4898, 4900, 4901
8099, 4898, 4910, 4909
8100, 4902, 4912, 4910
8101, 4905, 4864, 4911
8102, 4934, 4926, 4927
8103, 4906, 4864, 4905
8104, 4901, 4904, 4899
8105, 4875, 4909, 4908
8106, 4933, 4906, 4905
8107, 4914, 4907, 4870
8108, 4875, 4908, 4879
8109, 4885, 4912, 4902
8110, 4907, 4912, 4870
8111, 4910, 4912, 4909
8112, 4909, 4912, 4908
8113, 4905, 4911, 4898
8114, 4902, 4911, 4864
8115, 4870, 4912, 4885
8116, 4963, 4927, 4917
8117, 4930, 4966, 4962
8118, 4870, 4856, 4914
8119, 4877, 4914, 4856
8120, 4919, 4918, 4915
8121, 4929, 4926, 4915
8122, 4919, 4897, 4920
8123, 4921, 4918, 4928
8124, 4921, 4938, 4913
8125, 4964, 4963, 4917
8126, 4919, 4915, 4897
8127, 4924, 4916, 4923
8128, 4897, 4894, 4920
8129, 4919, 4920, 4924
8130, 4895, 4882, 4916
8131, 4937, 4942, 4935
8132, 4920, 4895, 4916
8133, 4918, 4921, 4913
8134, 4916, 4882, 4825
8135, 4929, 4915, 4913
8136, 4919, 4924, 4918
8137, 4916, 4825, 4923
8138, 4921, 4928, 4892
8139, 4928, 4925, 4892
8140, 4926, 4917, 4927
8141, 4935, 4942, 4943
8142, 4892, 4932, 4936
8143, 4918, 4924, 4928
8144, 4922, 4928, 4924
8145, 4913, 4969, 4962
8146, 4926, 4929, 4962
8147, 4962, 4969, 4930
8148, 4958, 4960, 4945
8149, 4931, 4927, 4963
8150, 4888, 4906, 4933
8151, 4934, 4933, 4905
8152, 4927, 4931, 4934
8153, 4933, 4931, 4965
8154, 4901, 4934, 4905
8155, 4899, 4926, 4934
8156, 4892, 4936, 4921
8157, 4938, 4937, 4935
8158, 4937, 4936, 4932
8159, 4938, 4936, 4937
8160, 4932, 4939, 4937
8161, 4944, 4939, 4693
8162, 4938, 4935, 4969
8163, 4921, 4936, 4938
8164, 4932, 4693, 4939
8165, 4946, 4941, 4942
8166, 5372, 5391, 5367
8167, 4973, 4980, 4957
8168, 4937, 4946, 4942
8169, 4930, 4969, 4943
8170, 4946, 4937, 4939
8171, 4942, 4941, 4943
8172, 4953, 4954, 4944
8173, 4943, 4941, 4945
8174, 4693, 4949, 4950
8175, 5009, 4956, 4972
8176, 4970, 4953, 4950
8177, 4956, 4958, 4945
8178, 4939, 4944, 4946
8179, 4941, 4946, 4944
8180, 4952, 4953, 4970
8181, 4945, 4954, 4956
8182, 4944, 4693, 4950
8183, 4976, 4971, 4970
8184, 4996, 4997, 4998
8185, 4957, 4984, 4973
8186, 4956, 4952, 4972
8187, 4941, 4954, 4945
8188, 4970, 4950, 4949
8189, 4953, 4952, 4954
8190, 4954, 4941, 4944
8191, 4971, 4972, 4952
8192, 4702, 4980, 4985
8193, 4981, 4985, 4983
8194, 4952, 4956, 4954
8195, 4980, 4702, 4979
8196, 4957, 4980, 4979
8197, 4930, 4943, 4961
8198, 5006, 4986, 4991
8199, 4960, 4958, 4978
8200, 4968, 4967, 4977
8201, 4959, 4964, 4966
8202, 4978, 4958, 4957
8203, 4960, 4959, 4961
8204, 4960, 4961, 4943
8205, 4966, 4961, 4959
8206, 4926, 4962, 4917
8207, 4913, 4962, 4929
8208, 4917, 4966, 4964
8209, 4965, 4963, 4903
8210, 4959, 4978, 4977
8211, 4964, 4959, 4977
8212, 4903, 4888, 4965
8213, 4965, 4888, 4933
8214, 4962, 4966, 4917
8215, 4966, 4930, 4961
8216, 4963, 4967, 4903
8217, 4963, 4964, 4967
8218, 4702, 4968, 4979
8219, 4979, 4978, 4957
8220, 4938, 4969, 4913
8221, 4943, 4969, 4935
8222, 4949, 4974, 4970
8223, 5023, 5018, 4948
8224, 4976, 5005, 4971
8225, 4952, 4970, 4971
8226, 4973, 4955, 4983
8227, 4984, 4957, 4958
8228, 4951, 4981, 4987
8229, 5001, 5003, 4997
8230, 4949, 4948, 4974
8231, 5021, 5024, 4947
8232, 5003, 4975, 4997
8233, 4991, 4989, 4988
8234, 5018, 4970, 4974
8235, 4958, 4956, 4984
8236, 4968, 4903, 4967
8237, 4960, 4978, 4959
8238, 4968, 4977, 4979
8239, 4967, 4964, 4977
8240, 4979, 4977, 4978
8241, 5006, 5007, 5004
8242, 5009, 4984, 4956
8243, 4973, 4983, 4985
8244, 4981, 4983, 4987
8245, 4985, 4980, 4973
8246, 5339, 5388, 5387
8247, 4973, 4984, 4955
8248, 4981, 4702, 4985
8249, 5006, 5011, 4986
8250, 4987, 4989, 4951
8251, 4990, 4987, 4983
8252, 4990, 4989, 4987
8253, 4988, 5008, 5007
8254, 5005, 5007, 5009
8255, 4993, 4996, 4992
8256, 4993, 4951, 4989
8257, 5008, 4983, 4955
8258, 4989, 4990, 4988
8259, 5006, 4991, 4988
8260, 4986, 5016, 4995
8261, 4989, 4991, 4995
8262, 4996, 4989, 4995
8263, 4992, 4951, 4993
8264, 5031, 5015, 5014
8265, 4996, 4998, 4992
8266, 4986, 4995, 4991
8267, 4995, 4994, 4996
8268, 4996, 4993, 4989
8269, 4996, 4994, 4997
8270, 5032, 5011, 5010
8271, 4997, 4994, 5001
8272, 5029, 5031, 5028
8273, 4997, 4975, 4998
8274, 5002, 5340, 5345
8275, 5016, 5014, 5015
8276, 4999, 4629, 5030
8277, 5016, 4994, 4995
8278, 5000, 5337, 5003
8279, 5349, 5343, 5350
8280, 5025, 5338, 5379
8281, 5000, 5003, 5001
8282, 5337, 5002, 5397
8283, 5005, 4972, 4971
8284, 5012, 5011, 5004
8285, 5005, 4976, 5012
8286, 5005, 5004, 5007
8287, 5007, 5006, 4988
8288, 5011, 5006, 5004
8289, 5008, 4988, 4990
8290, 5009, 5007, 4955
8291, 4983, 5008, 4990
8292, 4955, 5007, 5008
8293, 4984, 5009, 4955
8294, 5005, 5009, 4972
8295, 5018, 5022, 4976
8296, 5014, 5017, 5032
8297, 5004, 5005, 5012
8298, 5032, 5017, 5011
8299, 5013, 5020, 5019
8300, 5011, 5012, 5022
8301, 5013, 5021, 5020
8302, 4948, 5019, 5023
8303, 5010, 5020, 5021
8304, 5000, 5001, 5015
8305, 4994, 5015, 5001
8306, 5015, 5031, 5030
8307, 4986, 5011, 5017
8308, 4994, 5016, 5015
8309, 5014, 5016, 5017
8310, 4986, 5017, 5016
8311, 4970, 5018, 4976
8312, 4948, 5018, 4974
8313, 5018, 5023, 5022
8314, 5020, 5010, 5022
8315, 5021, 4947, 5026
8316, 5010, 5021, 5027
8317, 5011, 5022, 5010
8318, 5022, 5012, 4976
8319, 5019, 5020, 5023
8320, 5022, 5023, 5020
8321, 5025, 5360, 5338
8322, 5021, 5013, 5024
8323, 5340, 5025, 5345
8324, 4947, 5348, 5344
8325, 4999, 5350, 5351
8326, 5028, 5021, 5026
8327, 5352, 5349, 5344
8328, 5026, 4947, 5344
8329, 5021, 5028, 5027
8330, 5030, 5029, 4999
8331, 5031, 5027, 5028
8332, 4999, 5340, 4629
8333, 5015, 5030, 5000
8334, 5027, 5031, 5014
8335, 5029, 5030, 5031
8336, 5010, 5027, 5032
8337, 5014, 5032, 5027
8338, 5178, 5511, 1073
8339, 5090, 427, 5088
8340, 428, 5507, 5508
8341, 1074, 5179, 5178
8342, 5157, 432, 5160
8343, 5162, 5170, 1076
8344, 5159, 5163, 5164
8345, 5167, 5164, 5165
8346, 5165, 5166, 5168
8347, 5631, 5629, 5630
8348, 5113, 5038, 5117
8349, 1087, 5098, 5104
8350, 5120, 1083, 5121
8351, 5112, 5110, 5039
8352, 5577, 5569, 5574
8353, 5516, 846, 5520
8354, 5042, 5522, 5528
8355, 5208, 5203, 5210
8356, 5535, 205, 5536
8357, 5522, 847, 5523
8358, 5538, 198, 5542
8359, 5043, 5543, 5548
8360, 5224, 5225, 5230
8361, 5582, 5547, 5545
8362, 5205, 5207, 5203
8363, 5200, 5201, 852
8364, 5270, 5265, 5268
8365, 5046, 5263, 5264
8366, 5620, 5621, 5622
8367, 5589, 5592, 5588
8368, 39, 5584, 5585
8369, 5590, 676, 5591
8370, 5587, 675, 5588
8371, 5254, 5255, 5253
8372, 324, 323, 5052
8373, 5054, 968, 969
8374, 326, 5051, 1296
8375, 324, 5051, 325
8376, 5053, 5052, 1297
8377, 324, 5052, 5050
8378, 968, 5053, 967
8379, 5052, 5053, 5050
8380, 5051, 5054, 1296
8381, 5054, 5050, 5053
8382, 321, 320, 5057
8383, 5058, 965, 966
8384, 323, 5056, 1297
8385, 321, 5056, 322
8386, 964, 5057, 1299
8387, 321, 5057, 5055
8388, 5056, 5058, 1297
8389, 965, 5058, 5055
8390, 5062, 1131, 1132
8391, 5059, 5062, 5063
8392, 5061, 5060, 1309
8393, 483, 5060, 5059
8394, 1131, 5061, 1130
8395, 5060, 5061, 5059
8396, 5063, 5062, 1310
8397, 5062, 5059, 5061
8398, 485, 5063, 1310
8399, 483, 5063, 484
8400, 480, 479, 5066
8401, 5067, 1128, 1129
8402, 482, 5065, 1309
8403, 480, 5065, 481
8404, 1127, 5066, 1311
8405, 480, 5066, 5064
8406, 5065, 5067, 1309
8407, 1128, 5067, 5064
8408, 639, 640, 5069
8409, 2, 5068, 3
8410, 4, 5069, 1318
8411, 639, 5069, 5068
8412, 5073, 642, 643
8413, 5070, 5073, 5074
8414, 5072, 5071, 1318
8415, 6, 5071, 5070
8416, 642, 5072, 641
8417, 5071, 5072, 5070
8418, 5074, 5073, 1319
8419, 5073, 5070, 5072
8420, 8, 5074, 1319
8421, 6, 5074, 7
8422, 5075, 5077, 5078
8423, 5079, 156, 155
8424, 1502, 5076, 1364
8425, 792, 5076, 791
8426, 5078, 5077, 1317
8427, 5077, 5075, 5076
8428, 1317, 157, 5078
8429, 156, 5078, 157
8430, 5076, 5079, 1364
8431, 156, 5079, 5075
8432, 5083, 5091, 5092
8433, 5084, 425, 2418
8434, 3008, 5081, 2032
8435, 5082, 5081, 1069
8436, 5083, 5088, 5086
8437, 5081, 5082, 5080
8438, 5080, 5085, 5084
8439, 5080, 5091, 5085
8440, 425, 5084, 5087
8441, 5086, 5085, 5083
8442, 5087, 5085, 5086
8443, 5083, 5505, 5088
8444, 5089, 426, 5086
8445, 425, 5087, 426
8446, 5084, 5085, 5087
8447, 5090, 5088, 5033
8448, 427, 5086, 5088
8449, 5033, 5510, 5507
8450, 5086, 427, 5089
8451, 427, 5090, 428
8452, 5092, 5091, 1070
8453, 5085, 5091, 5083
8454, 1070, 1071, 5092
8455, 1071, 5504, 5505
8456, 3073, 5093, 2034
8457, 5095, 5093, 2432
8458, 5097, 2432, 3074
8459, 5093, 1088, 5094
8460, 5098, 1088, 5095
8461, 5109, 5102, 5105
8462, 5100, 5104, 5099
8463, 3074, 444, 5097
8464, 5101, 5097, 444
8465, 5099, 5096, 5100
8466, 5104, 5098, 5095
8467, 2432, 5099, 5095
8468, 5102, 5100, 5096
8469, 1086, 1087, 5103
8470, 444, 443, 5101
8471, 5101, 443, 5105
8472, 5105, 5102, 5096
8473, 5113, 5102, 5038
8474, 1087, 5100, 5103
8475, 5102, 5103, 5100
8476, 5099, 5104, 5095
8477, 1087, 5104, 5100
8478, 5101, 5105, 5096
8479, 5105, 443, 5106
8480, 443, 442, 5106
8481, 5106, 442, 5107
8482, 441, 5108, 442
8483, 5107, 442, 5108
8484, 5110, 441, 5111
8485, 441, 5110, 5108
8486, 5102, 5109, 5038
8487, 5105, 5106, 5109
8488, 5039, 5119, 5112
8489, 5112, 1084, 5116
8490, 441, 440, 5111
8491, 5111, 440, 5122
8492, 5118, 5116, 1085
8493, 5115, 5117, 5038
8494, 5112, 5118, 5115
8495, 5103, 5113, 1086
8496, 5118, 5112, 5116
8497, 1086, 5113, 5114
8498, 5107, 5115, 5038
8499, 5110, 5115, 5108
8500, 1085, 5114, 5117
8501, 5114, 5113, 5117
8502, 1085, 5117, 5118
8503, 5115, 5118, 5117
8504, 5120, 5119, 5039
8505, 5121, 1084, 5119
8506, 5039, 5122, 5120
8507, 5123, 5127, 5122
8508, 5111, 5122, 5039
8509, 5120, 5121, 5119
8510, 5123, 5122, 440
8511, 440, 439, 5123
8512, 439, 5125, 5123
8513, 5126, 5125, 439
8514, 5126, 5132, 5124
8515, 5126, 439, 438
8516, 5127, 5125, 5124
8517, 5134, 438, 437
8518, 5124, 5125, 5126
8519, 5120, 5130, 1083
8520, 5127, 5120, 5122
8521, 5134, 5133, 438
8522, 5140, 5134, 5138
8523, 5129, 1083, 5130
8524, 5127, 5131, 5130
8525, 5131, 5127, 5124
8526, 5128, 5142, 5132
8527, 1082, 5129, 5131
8528, 5133, 5126, 438
8529, 5139, 437, 436
8530, 5128, 5132, 5133
8531, 5126, 5133, 5132
8532, 5134, 437, 5138
8533, 5128, 5133, 5134
8534, 5135, 1082, 5136
8535, 5136, 1082, 5131
8536, 5132, 5136, 5124
8537, 5136, 5132, 5142
8538, 5139, 5138, 437
8539, 436, 5146, 5139
8540, 5140, 5138, 5137
8541, 5147, 5143, 5146
8542, 5137, 5138, 5139
8543, 5137, 5629, 5632
8544, 5134, 5140, 5128
8545, 5145, 1081, 5142
8546, 5128, 5145, 5142
8547, 1081, 5135, 5142
8548, 5136, 5142, 5135
8549, 5168, 5630, 5150
8550, 5146, 5633, 5139
8551, 5145, 5141, 1081
8552, 5140, 5144, 5145
8553, 5145, 5144, 5141
8554, 5147, 5146, 436
8555, 5143, 5629, 5633
8556, 436, 435, 5147
8557, 5147, 435, 5148
8558, 5149, 435, 434
8559, 5148, 5149, 5167
8560, 434, 5151, 5149
8561, 5036, 5164, 5167
8562, 5143, 5147, 5150
8563, 5148, 5150, 5147
8564, 5152, 434, 433
8565, 5167, 5151, 5036
8566, 5155, 5154, 433
8567, 5151, 5152, 5156
8568, 1076, 5158, 5181
8569, 5159, 5156, 5181
8570, 5155, 433, 432
8571, 5156, 5154, 5153
8572, 5157, 5155, 432
8573, 5153, 5154, 5155
8574, 5162, 1076, 5181
8575, 5156, 5036, 5151
8576, 5160, 432, 431
8577, 5161, 5157, 5035
8578, 5153, 5161, 5162
8579, 5159, 5181, 1077
8580, 5164, 5163, 1078
8581, 5036, 5156, 5159
8582, 5171, 5160, 431
8583, 5157, 5160, 5174
8584, 5161, 5035, 5162
8585, 5155, 5161, 5153
8586, 5170, 5162, 5035
8587, 5156, 5153, 5181
8588, 5165, 5164, 1078
8589, 5159, 1077, 5163
8590, 5159, 5164, 5036
8591, 5168, 5166, 1079
8592, 5165, 5037, 5167
8593, 5148, 5167, 5037
8594, 5165, 1078, 5166
8595, 5151, 5167, 5149
8596, 5168, 1079, 5630
8597, 5165, 5168, 5037
8598, 431, 5173, 5171
8599, 5177, 5179, 5169
8600, 5172, 5170, 5035
8601, 1076, 5170, 1075
8602, 5173, 431, 430
8603, 5171, 5169, 5172
8604, 5172, 5035, 5174
8605, 5172, 5169, 5179
8606, 5175, 5173, 430
8607, 5169, 5171, 5173
8608, 5157, 5174, 5035
8609, 5171, 5174, 5160
8610, 5176, 5175, 430
8611, 5175, 5034, 5177
8612, 430, 429, 5176
8613, 5508, 5509, 429
8614, 5178, 5177, 5034
8615, 5177, 5178, 5179
8616, 5034, 5509, 5511
8617, 1074, 5178, 1073
8618, 1075, 5172, 5180
8619, 5179, 5180, 5172
8620, 5162, 5181, 5153
8621, 5179, 1074, 5180
8622, 5185, 5182, 907
8623, 5187, 267, 5190
8624, 5183, 2043, 3079
8625, 5184, 5183, 906
8626, 5186, 5185, 907
8627, 5183, 5184, 5182
8628, 5187, 5185, 3379
8629, 907, 908, 5186
8630, 908, 3381, 5188
8631, 5189, 5187, 3379
8632, 267, 266, 5190
8633, 5185, 5188, 3379
8634, 908, 5188, 5186
8635, 3380, 5189, 3379
8636, 267, 5189, 268
8637, 266, 2455, 5191
8638, 5192, 5190, 5191
8639, 5191, 2043, 5183
8640, 266, 5191, 5190
8641, 5185, 5192, 5182
8642, 5187, 5190, 5192
8643, 5198, 5197, 5193
8644, 2506, 5195, 854
8645, 5196, 5194, 214
8646, 5194, 5193, 5195
8647, 5197, 5195, 5193
8648, 5215, 854, 5195
8649, 214, 213, 5196
8650, 5196, 213, 5198
8651, 5198, 5193, 5196
8652, 853, 5197, 5199
8653, 213, 5216, 5198
8654, 212, 5214, 5213
8655, 5198, 5202, 5197
8656, 5213, 5200, 5202
8657, 852, 5199, 5200
8658, 5202, 5200, 5199
8659, 5204, 5201, 5205
8660, 852, 5201, 851
8661, 5197, 5202, 5199
8662, 5202, 5198, 5213
8663, 5203, 5204, 5205
8664, 5217, 5218, 5219
8665, 5205, 5201, 5045
8666, 5208, 5204, 5203
8667, 5206, 5205, 5045
8668, 5205, 5206, 5207
8669, 5213, 5206, 5045
8670, 5214, 211, 5206
8671, 211, 210, 5207
8672, 5217, 5207, 210
8673, 5210, 5203, 5209
8674, 851, 5208, 850
8675, 5209, 5203, 5217
8676, 5211, 849, 5212
8677, 5211, 5210, 5209
8678, 5212, 850, 5210
8679, 5209, 5041, 5211
8680, 5524, 848, 5525
8681, 5213, 5045, 5200
8682, 5211, 5212, 5210
8683, 5216, 5213, 5198
8684, 213, 212, 5216
8685, 5213, 5214, 5206
8686, 5197, 5215, 5195
8687, 5213, 5216, 212
8688, 5207, 5217, 5203
8689, 5218, 5217, 210
8690, 210, 209, 5218
8691, 5218, 209, 5219
8692, 5041, 5209, 5219
8693, 5219, 5209, 5217
8694, 209, 208, 5220
8695, 5220, 208, 5527
8696, 5224, 5221, 835
8697, 5234, 5221, 5224
8698, 834, 5222, 2525
8699, 5234, 5222, 5221
8700, 836, 5230, 5225
8701, 5221, 834, 5223
8702, 5044, 5231, 5235
8703, 5228, 5224, 5230
8704, 5224, 835, 5225
8705, 5229, 5231, 196
8706, 2529, 5227, 2531
8707, 5229, 5227, 5226
8708, 5226, 5227, 5228
8709, 2529, 5228, 5227
8710, 5231, 5229, 5226
8711, 195, 5229, 196
8712, 840, 5550, 5549
8713, 5226, 5228, 5230
8714, 5230, 836, 5236
8715, 5044, 5545, 5540
8716, 5235, 5232, 837
8717, 836, 5232, 5236
8718, 197, 196, 5233
8719, 196, 5231, 5233
8720, 2530, 5234, 2529
8721, 5222, 5234, 2064
8722, 5226, 5235, 5231
8723, 5232, 5235, 5236
8724, 5226, 5236, 5235
8725, 2597, 5237, 2082
8726, 5240, 5237, 2596
8727, 2082, 5239, 2598
8728, 5237, 1251, 5238
8729, 5238, 5239, 5237
8730, 5241, 5240, 2596
8731, 5244, 1251, 5240
8732, 2596, 3093, 5242
8733, 5245, 3897, 3899
8734, 5243, 603, 602
8735, 2596, 5242, 5241
8736, 5246, 602, 3901
8737, 5241, 5242, 5243
8738, 5245, 1250, 5244
8739, 5245, 5244, 5240
8740, 3897, 5245, 5241
8741, 5241, 5243, 5246
8742, 5246, 5243, 602
8743, 5250, 5247, 672
8744, 2649, 5247, 2647
8745, 671, 5248, 2650
8746, 5247, 2098, 5248
8747, 673, 5256, 5251
8748, 5247, 671, 5249
8749, 5256, 5049, 5252
8750, 36, 5253, 5255
8751, 5250, 672, 5251
8752, 2647, 5250, 5252
8753, 2647, 5253, 3316
8754, 5253, 5252, 5254
8755, 5252, 5049, 5254
8756, 5622, 5254, 5049
8757, 5251, 5256, 5250
8758, 5254, 37, 5255
8759, 673, 5625, 5256
8760, 420, 5257, 421
8761, 5257, 2316, 2024
8762, 360, 5259, 2407
8763, 2407, 5259, 2393
8764, 5258, 2393, 5259
8765, 5266, 2540, 5261
8766, 5267, 5260, 5261
8767, 5262, 5261, 1163
8768, 5266, 5261, 5260
8769, 1163, 1164, 5262
8770, 5263, 5262, 1164
8771, 5264, 5263, 1164
8772, 5263, 5046, 5265
8773, 1164, 1165, 5264
8774, 5264, 1165, 5275
8775, 5268, 5265, 5046
8776, 5273, 5265, 515
8777, 5274, 5260, 514
8778, 2540, 5266, 2538
8779, 5262, 5267, 5261
8780, 5265, 5267, 5263
8781, 5046, 5269, 5271
8782, 5265, 5270, 515
8783, 5046, 5275, 5269
8784, 5278, 5280, 5276
8785, 5046, 5271, 5268
8786, 5268, 516, 5270
8787, 5269, 5281, 5272
8788, 514, 5273, 515
8789, 5269, 5272, 5271
8790, 5267, 5273, 5260
8791, 2538, 5274, 2542
8792, 5260, 5274, 5266
8793, 5264, 5275, 5046
8794, 5276, 5275, 1165
8795, 1165, 1166, 5276
8796, 5276, 1166, 5278
8797, 5278, 1166, 5279
8798, 5284, 5281, 5277
8799, 5279, 1166, 1167
8800, 5280, 5278, 5277
8801, 5289, 5286, 5283
8802, 5277, 5278, 5279
8803, 5281, 5280, 5277
8804, 5275, 5280, 5269
8805, 5282, 5281, 5284
8806, 5281, 517, 5272
8807, 5277, 5285, 5284
8808, 517, 5281, 5282
8809, 5279, 1167, 5290
8810, 5291, 5288, 5292
8811, 5286, 5284, 5285
8812, 5290, 5285, 5279
8813, 5286, 5285, 5283
8814, 5287, 5286, 5289
8815, 518, 5284, 5286
8816, 5292, 5290, 5291
8817, 518, 5286, 5287
8818, 5295, 1169, 5301
8819, 5299, 5297, 5298
8820, 5297, 520, 5298
8821, 5290, 1167, 5291
8822, 5285, 5290, 5283
8823, 1167, 1168, 5291
8824, 5294, 5291, 1168
8825, 5289, 5292, 5288
8826, 5290, 5292, 5283
8827, 5301, 5300, 5293
8828, 5304, 5300, 5297
8829, 5291, 5294, 5288
8830, 5295, 5294, 1168
8831, 5302, 5301, 1169
8832, 5294, 5295, 5293
8833, 5328, 1171, 5324
8834, 5298, 519, 5299
8835, 5304, 5297, 5299
8836, 5288, 5304, 5299
8837, 519, 5289, 5299
8838, 5288, 5299, 5289
8839, 5293, 5295, 5301
8840, 5327, 5325, 5326
8841, 5302, 1169, 1170
8842, 5296, 5300, 5301
8843, 5321, 1170, 5320
8844, 5296, 5301, 5302
8845, 521, 520, 5303
8846, 5305, 5303, 520
8847, 5294, 5304, 5288
8848, 5300, 5304, 5293
8849, 520, 5297, 5305
8850, 5300, 5305, 5297
8851, 3387, 5307, 2879
8852, 2878, 5306, 5307
8853, 3423, 5309, 2939
8854, 2938, 5308, 5309
8855, 3459, 5311, 2997
8856, 2996, 5310, 5311
8857, 3498, 5312, 2015
8858, 3505, 5312, 3506
8859, 3540, 3602, 5313
8860, 3605, 5313, 3602
8861, 3631, 3693, 5314
8862, 3696, 5314, 3693
8863, 3723, 3785, 5315
8864, 3788, 5315, 3785
8865, 5615, 5317, 5618
8866, 3912, 5316, 3908
8867, 43, 5609, 5611
8868, 682, 5636, 5634
8869, 45, 5318, 5316
8870, 5636, 5637, 5634
8871, 5323, 522, 5322
8872, 4145, 5319, 4141
8873, 4141, 5319, 5323
8874, 1170, 5321, 5302
8875, 5323, 5320, 4141
8876, 5296, 5302, 5321
8877, 521, 5326, 522
8878, 5296, 5327, 5303
8879, 522, 5323, 5319
8880, 5320, 5323, 5322
8881, 4141, 5324, 4147
8882, 5328, 5324, 5320
8883, 5321, 5322, 5325
8884, 5326, 5325, 5322
8885, 522, 5326, 5322
8886, 5327, 521, 5303
8887, 5325, 5327, 5296
8888, 521, 5327, 5326
8889, 5665, 5657, 5650
8890, 5320, 1170, 5328
8891, 4247, 5659, 4251
8892, 6308, 6300, 6293
8893, 4306, 6302, 4310
8894, 6925, 6917, 6910
8895, 4365, 6919, 4369
8896, 5664, 5638, 5329
8897, 5658, 5646, 5669
8898, 6307, 6281, 5330
8899, 6301, 6289, 6312
8900, 6924, 6898, 5331
8901, 6918, 6906, 6929
8902, 4130, 4435, 5335
8903, 4417, 5335, 4435
8904, 4504, 4561, 5336
8905, 4566, 5336, 4561
8906, 5338, 5360, 5364
8907, 5369, 5375, 5338
8908, 5355, 5351, 5343
8909, 5355, 5359, 5351
8910, 5351, 5340, 4999
8911, 5397, 5417, 5396
8912, 5002, 5345, 5347
8913, 5417, 5397, 5002
8914, 5337, 4629, 5002
8915, 5029, 5350, 4999
8916, 5352, 5348, 5353
8917, 5002, 4629, 5340
8918, 5349, 5029, 5028
8919, 5347, 5345, 5341
8920, 5344, 5349, 5026
8921, 5025, 5341, 5345
8922, 5341, 5379, 5378
8923, 5388, 5389, 5347
8924, 5026, 5349, 5028
8925, 5348, 5352, 5344
8926, 5350, 5343, 5351
8927, 5349, 5350, 5029
8928, 5356, 5355, 5353
8929, 5025, 5340, 5351
8930, 5353, 5348, 5346
8931, 5349, 5352, 5343
8932, 5346, 5356, 5353
8933, 5343, 5352, 5353
8934, 5354, 5365, 5360
8935, 5359, 5360, 5025
8936, 5353, 5355, 5343
8937, 5359, 5355, 5354
8938, 5358, 5346, 5357
8939, 5355, 5356, 5354
8940, 5346, 5358, 5356
8941, 5356, 5358, 5354
8942, 5362, 5363, 5361
8943, 5359, 5354, 5360
8944, 5351, 5359, 5025
8945, 5362, 5365, 5358
8946, 5362, 5358, 5357
8947, 5370, 5364, 5361
8948, 5365, 5364, 5360
8949, 5363, 5362, 5357
8950, 5361, 5364, 5365
8951, 5357, 4940, 5363
8952, 5363, 4940, 5371
8953, 5398, 5373, 5367
8954, 5338, 5364, 5369
8955, 5358, 5365, 5354
8956, 5361, 5365, 5362
8957, 5479, 5426, 5458
8958, 5400, 5399, 5391
8959, 5374, 5372, 5369
8960, 5371, 5394, 5368
8961, 5371, 5370, 5361
8962, 5369, 5372, 5367
8963, 5364, 5370, 5374
8964, 5376, 5375, 5369
8965, 5371, 5361, 5363
8966, 5368, 5372, 5374
8967, 5364, 5374, 5369
8968, 5370, 5371, 5368
8969, 5501, 5429, 5427
8970, 5430, 5431, 5494
8971, 5400, 5391, 5395
8972, 5383, 5376, 5373
8973, 5376, 5369, 5367
8974, 5368, 5374, 5370
8975, 5383, 5375, 5376
8976, 5383, 5386, 5377
8977, 5376, 5367, 5373
8978, 5386, 5383, 5373
8979, 5383, 5378, 5375
8980, 5398, 5404, 5416
8981, 5347, 5341, 5378
8982, 5025, 5379, 5341
8983, 5338, 5375, 5379
8984, 5373, 5416, 4982
8985, 5388, 5378, 5387
8986, 5425, 5423, 5424
8987, 5373, 4982, 5382
8988, 5387, 5390, 5339
8989, 5368, 5394, 5392
8990, 5398, 5367, 5391
8991, 5424, 5402, 5419
8992, 5372, 5395, 5391
8993, 5373, 5382, 5386
8994, 5377, 5386, 5382
8995, 5378, 5383, 5387
8996, 5377, 5387, 5383
8997, 5389, 5342, 5417
8998, 5378, 5388, 5347
8999, 5368, 5392, 5372
9000, 5388, 5339, 5389
9001, 5387, 5377, 5390
9002, 5418, 5392, 5394
9003, 5399, 5398, 5391
9004, 5372, 5392, 5395
9005, 5403, 5405, 5407
9006, 5410, 5400, 5402
9007, 5371, 4940, 5421
9008, 4940, 5385, 5421
9009, 5003, 5337, 5397
9010, 5399, 5404, 5398
9011, 5342, 4975, 5396
9012, 5417, 5002, 5347
9013, 5003, 5397, 5396
9014, 5418, 5424, 5419
9015, 5419, 5400, 5395
9016, 5405, 5404, 5399
9017, 5384, 5399, 5400
9018, 5435, 5437, 5434
9019, 5431, 5488, 5489
9020, 5395, 5392, 5418
9021, 5412, 5410, 5402
9022, 5405, 5399, 5384
9023, 5405, 5406, 5407
9024, 5416, 5415, 4982
9025, 5405, 5384, 5406
9026, 5403, 5404, 5405
9027, 5410, 5408, 5409
9028, 5406, 5384, 5409
9029, 5437, 5401, 5423
9030, 5406, 5380, 5407
9031, 5414, 5409, 5413
9032, 5410, 5409, 5384
9033, 5411, 5413, 5430
9034, 5400, 5410, 5384
9035, 5402, 5401, 5412
9036, 5408, 5488, 5409
9037, 5414, 5380, 5406
9038, 5489, 5412, 5401
9039, 5408, 5410, 5412
9040, 5380, 5414, 5411
9041, 5409, 5414, 5406
9042, 5411, 5414, 5413
9043, 5398, 5416, 5373
9044, 5404, 5403, 5415
9045, 5415, 5416, 5404
9046, 5389, 5417, 5347
9047, 5396, 5417, 5342
9048, 5394, 5420, 5418
9049, 5420, 5385, 5422
9050, 5400, 5419, 5402
9051, 5395, 5418, 5419
9052, 5394, 5371, 5421
9053, 5422, 5385, 5381
9054, 5385, 5420, 5421
9055, 5421, 5420, 5394
9056, 5423, 5422, 5381
9057, 5420, 5422, 5425
9058, 5439, 5473, 5436
9059, 5401, 5402, 5424
9060, 5425, 5424, 5418
9061, 5401, 5424, 5423
9062, 5420, 5425, 5418
9063, 5423, 5425, 5422
9064, 5444, 5445, 5439
9065, 5449, 5442, 5448
9066, 5431, 5413, 5488
9067, 5426, 5446, 5458
9068, 5393, 5411, 5429
9069, 5423, 5381, 5434
9070, 5430, 5429, 5411
9071, 5431, 5430, 5413
9072, 5429, 5430, 5427
9073, 5408, 5412, 5489
9074, 5474, 5427, 5494
9075, 5439, 5366, 5441
9076, 5456, 5450, 5460
9077, 5435, 5428, 5436
9078, 5490, 5495, 5489
9079, 5381, 5428, 5434
9080, 5435, 5434, 5428
9081, 5436, 5428, 5366
9082, 5437, 5435, 5433
9083, 5436, 5366, 5439
9084, 5435, 5436, 5473
9085, 5437, 5433, 5491
9086, 5423, 5434, 5437
9087, 5449, 5448, 5456
9088, 5444, 5439, 5441
9089, 5455, 5442, 5496
9090, 5498, 5455, 5496
9091, 5497, 5444, 5441
9092, 5366, 5440, 5441
9093, 5501, 5500, 5393
9094, 5475, 5454, 5453
9095, 5446, 5443, 5447
9096, 5445, 5443, 5446
9097, 5497, 5441, 5440
9098, 5445, 5444, 5443
9099, 5495, 5492, 5493
9100, 5401, 5491, 5489
9101, 5443, 5496, 5447
9102, 5492, 5446, 5426
9103, 5447, 5442, 5449
9104, 5446, 5447, 5458
9105, 5463, 5450, 5456
9106, 5453, 5455, 5475
9107, 5457, 5454, 5462
9108, 5448, 5454, 5465
9109, 5464, 5467, 5452
9110, 5460, 5449, 5456
9111, 7230, 5499, 5450
9112, 5458, 5447, 5449
9113, 5448, 5442, 5453
9114, 5503, 5455, 5438
9115, 5442, 5455, 5453
9116, 5483, 5482, 5462
9117, 5472, 5469, 5451
9118, 5449, 5460, 5458
9119, 5447, 5496, 5442
9120, 5448, 5465, 5463
9121, 5475, 5455, 5432
9122, 5478, 5466, 7227
9123, 5482, 5481, 5476
9124, 5454, 5448, 5453
9125, 5451, 5469, 5476
9126, 5463, 5464, 5450
9127, 5427, 5430, 5494
9128, 7230, 5461, 5499
9129, 5500, 5499, 5461
9130, 5501, 5502, 5500
9131, 5475, 5432, 5484
9132, 5482, 5487, 5481
9133, 5448, 5463, 5456
9134, 5464, 5463, 5459
9135, 5468, 5466, 5467
9136, 5464, 5452, 7230
9137, 5457, 5465, 5454
9138, 5463, 5465, 5459
9139, 5470, 5459, 5465
9140, 5468, 5464, 5459
9141, 5468, 5467, 5464
9142, 5472, 799, 5471
9143, 799, 5478, 5471
9144, 7229, 5471, 7227
9145, 5465, 5457, 5470
9146, 5476, 5470, 5457
9147, 5470, 5476, 5469
9148, 5468, 7227, 5466
9149, 7229, 7227, 7228
9150, 7228, 5459, 5470
9151, 5473, 5433, 5435
9152, 5439, 5445, 5473
9153, 5458, 5502, 5479
9154, 5499, 5460, 5450
9155, 5455, 5503, 5432
9156, 5454, 5475, 5462
9157, 5477, 5451, 5481
9158, 5476, 5481, 5451
9159, 5483, 5484, 5480
9160, 5486, 5483, 5485
9161, 5502, 5458, 5460
9162, 7227, 5468, 7228
9163, 5493, 5479, 5474
9164, 5468, 5459, 7228
9165, 5482, 5457, 5462
9166, 5484, 5462, 5475
9167, 5457, 5482, 5476
9168, 5485, 5483, 5480
9169, 5487, 5483, 5486
9170, 5484, 5432, 5503
9171, 5483, 5462, 5484
9172, 5480, 798, 5485
9173, 5486, 5477, 5487
9174, 5481, 5487, 5477
9175, 5485, 798, 5486
9176, 5482, 5483, 5487
9177, 5409, 5488, 5413
9178, 5489, 5488, 5408
9179, 5490, 5489, 5491
9180, 5433, 5473, 5490
9181, 5473, 5445, 5490
9182, 5492, 5490, 5445
9183, 5437, 5491, 5401
9184, 5433, 5490, 5491
9185, 5446, 5492, 5445
9186, 5493, 5492, 5426
9187, 5493, 5426, 5479
9188, 5495, 5431, 5489
9189, 5431, 5493, 5494
9190, 5474, 5494, 5493
9191, 5492, 5495, 5490
9192, 5431, 5495, 5493
9193, 5497, 5443, 5444
9194, 5496, 5497, 5498
9195, 5497, 5440, 5498
9196, 5497, 5496, 5443
9197, 5440, 5438, 5498
9198, 5438, 5455, 5498
9199, 5461, 5393, 5500
9200, 5499, 5500, 5502
9201, 5429, 5501, 5393
9202, 5427, 5474, 5501
9203, 5501, 5474, 5502
9204, 5479, 5502, 5474
9205, 5460, 5499, 5502
9206, 5438, 5480, 5503
9207, 5484, 5503, 5480
9208, 5510, 5506, 5507
9209, 5505, 5504, 5033
9210, 5088, 5505, 5033
9211, 5092, 5505, 5083
9212, 5033, 5504, 5510
9213, 5509, 5176, 429
9214, 5033, 5507, 5090
9215, 5508, 5507, 5506
9216, 5508, 5506, 5509
9217, 428, 5508, 429
9218, 5511, 5509, 5506
9219, 5034, 5176, 5509
9220, 5504, 1072, 5510
9221, 5510, 5512, 5511
9222, 5034, 5511, 5178
9223, 5510, 5511, 5506
9224, 1072, 1073, 5512
9225, 1073, 5511, 5512
9226, 5515, 5577, 5514
9227, 5513, 5040, 5536
9228, 5564, 5570, 5567
9229, 5514, 5575, 5579
9230, 204, 5515, 5513
9231, 5581, 5514, 5579
9232, 5517, 5040, 5518
9233, 5520, 5519, 5517
9234, 5530, 5519, 5522
9235, 5581, 5518, 5040
9236, 5516, 5518, 845
9237, 5522, 5521, 847
9238, 5531, 5526, 5530
9239, 5516, 5520, 5517
9240, 5521, 5520, 846
9241, 5523, 847, 848
9242, 5520, 5521, 5519
9243, 5530, 5522, 5042
9244, 5529, 849, 5211
9245, 5522, 5523, 5528
9246, 5041, 5527, 5524
9247, 5532, 207, 5533
9248, 5529, 5524, 5525
9249, 5535, 5526, 206
9250, 5530, 5537, 5519
9251, 5220, 5527, 5041
9252, 5534, 208, 207
9253, 5524, 5527, 5528
9254, 5528, 5534, 5532
9255, 5524, 5529, 5041
9256, 849, 5529, 5525
9257, 5531, 5530, 5042
9258, 5530, 5526, 5537
9259, 5532, 5531, 5042
9260, 5533, 206, 5531
9261, 5042, 5528, 5532
9262, 5534, 5528, 5527
9263, 208, 5534, 5527
9264, 5532, 5533, 5531
9265, 207, 5532, 5534
9266, 206, 205, 5535
9267, 5513, 5536, 205
9268, 5040, 5517, 5536
9269, 5537, 5536, 5517
9270, 5537, 5517, 5519
9271, 5535, 5537, 5526
9272, 199, 198, 5538
9273, 5542, 198, 5541
9274, 5541, 197, 5540
9275, 5544, 5539, 5545
9276, 5044, 5540, 5233
9277, 5541, 5540, 5539
9278, 5542, 5541, 5539
9279, 197, 5541, 198
9280, 5543, 5542, 5539
9281, 5538, 5542, 5043
9282, 5544, 5543, 5539
9283, 5543, 839, 5548
9284, 5539, 5540, 5545
9285, 5543, 5546, 839
9286, 5582, 837, 5547
9287, 838, 5544, 5545
9288, 838, 5545, 5547
9289, 5544, 838, 5546
9290, 5582, 5044, 5235
9291, 5548, 5549, 5550
9292, 5557, 5583, 841
9293, 5548, 839, 5549
9294, 5538, 5552, 199
9295, 5556, 5583, 5555
9296, 5553, 200, 199
9297, 5043, 5550, 5552
9298, 5554, 5551, 5583
9299, 5556, 5552, 5550
9300, 5553, 5556, 5555
9301, 5555, 5583, 5557
9302, 5554, 840, 5551
9303, 5583, 5551, 841
9304, 5555, 5559, 5572
9305, 5552, 5556, 5553
9306, 5554, 5556, 5550
9307, 841, 5558, 5557
9308, 200, 5555, 5572
9309, 841, 842, 5558
9310, 5559, 5560, 5562
9311, 5557, 5558, 5560
9312, 842, 5563, 5558
9313, 5563, 5562, 5560
9314, 5559, 5557, 5560
9315, 5563, 5565, 5571
9316, 5573, 5561, 5571
9317, 5563, 5560, 5558
9318, 5567, 5570, 5561
9319, 5578, 5571, 843
9320, 5561, 5562, 5563
9321, 5567, 202, 5564
9322, 201, 5566, 5564
9323, 5572, 5566, 201
9324, 5563, 842, 5565
9325, 5562, 5566, 5559
9326, 843, 5571, 5565
9327, 202, 5567, 5569
9328, 5578, 844, 5575
9329, 5514, 5577, 5574
9330, 5567, 5573, 5569
9331, 5569, 5573, 5574
9332, 5562, 5570, 5566
9333, 5573, 5571, 5568
9334, 5563, 5571, 5561
9335, 5566, 5572, 5559
9336, 201, 200, 5572
9337, 5561, 5573, 5567
9338, 5574, 5573, 5568
9339, 5575, 5574, 5568
9340, 5576, 5577, 5515
9341, 5578, 5575, 5568
9342, 5575, 844, 5579
9343, 5576, 5515, 204
9344, 5577, 203, 5569
9345, 203, 5577, 5576
9346, 5571, 5578, 5568
9347, 844, 5578, 843
9348, 5518, 5581, 845
9349, 5581, 5580, 845
9350, 5515, 5581, 5040
9351, 5579, 844, 5580
9352, 5580, 5581, 5579
9353, 5044, 5582, 5545
9354, 837, 5582, 5235
9355, 5556, 5554, 5583
9356, 5620, 5584, 38
9357, 5585, 5584, 5047
9358, 5592, 5589, 5590
9359, 5585, 5048, 5628
9360, 5047, 5584, 5620
9361, 5586, 5623, 5624
9362, 5589, 5588, 675
9363, 5586, 674, 5587
9364, 5047, 5586, 5588
9365, 675, 676, 5589
9366, 5589, 676, 5590
9367, 5591, 676, 677
9368, 5592, 5048, 5585
9369, 5595, 5594, 5591
9370, 5048, 5590, 5591
9371, 5592, 5047, 5588
9372, 5048, 5592, 5590
9373, 5610, 5595, 677
9374, 5597, 5599, 40
9375, 5595, 5591, 677
9376, 5597, 5594, 5593
9377, 678, 5598, 5610
9378, 5593, 5594, 5595
9379, 5599, 5597, 5593
9380, 677, 5596, 5610
9381, 5597, 40, 5628
9382, 5598, 5608, 5603
9383, 5600, 5599, 5593
9384, 5600, 5593, 5598
9385, 40, 5599, 41
9386, 678, 5608, 5598
9387, 42, 41, 5602
9388, 5607, 5606, 679
9389, 5603, 5605, 5602
9390, 41, 5600, 5602
9391, 5602, 5600, 5603
9392, 7231, 5609, 5605
9393, 5603, 5601, 5605
9394, 5604, 679, 5606
9395, 5601, 5608, 5606
9396, 42, 5602, 5605
9397, 5626, 680, 5627
9398, 5608, 5601, 5603
9399, 5612, 5614, 5607
9400, 43, 42, 5609
9401, 678, 5604, 5608
9402, 5606, 5608, 5604
9403, 7231, 5605, 5601
9404, 5609, 7231, 5611
9405, 678, 5610, 5596
9406, 5593, 5610, 5598
9407, 5607, 5627, 5612
9408, 44, 43, 5613
9409, 5619, 681, 5616
9410, 5615, 5613, 5614
9411, 43, 5611, 5613
9412, 5614, 5613, 5611
9413, 5607, 5614, 5611
9414, 5615, 5614, 5612
9415, 5616, 5615, 5612
9416, 5617, 5618, 5318
9417, 5619, 5616, 5612
9418, 3914, 5636, 682
9419, 5617, 5318, 45
9420, 5618, 44, 5613
9421, 5318, 5618, 5317
9422, 5627, 5619, 5612
9423, 681, 5619, 680
9424, 5621, 5620, 38
9425, 5620, 5622, 5623
9426, 38, 37, 5621
9427, 37, 5254, 5622
9428, 5622, 5049, 5623
9429, 37, 5622, 5621
9430, 5624, 5623, 5049
9431, 5620, 5623, 5586
9432, 5624, 5049, 5256
9433, 5586, 5624, 674
9434, 5626, 5627, 5607
9435, 5256, 5625, 5624
9436, 5607, 679, 5626
9437, 5619, 5627, 680
9438, 40, 39, 5628
9439, 5585, 5628, 39
9440, 5633, 5629, 5137
9441, 5150, 5630, 5143
9442, 5631, 1080, 5632
9443, 5143, 5630, 5629
9444, 5137, 5632, 5144
9445, 5630, 1079, 5631
9446, 5631, 5632, 5629
9447, 5139, 5633, 5137
9448, 5143, 5633, 5146
9449, 3908, 5636, 3914
9450, 681, 5634, 5637
9451, 5317, 5635, 5318
9452, 5616, 681, 5637
9453, 5637, 5635, 5317
9454, 5635, 5637, 5636
9455, 5317, 5616, 5637
9456, 4245, 5644, 5643
9457, 4198, 4219, 5660
9458, 4250, 5639, 4247
9459, 5643, 5639, 4245
9460, 5677, 5649, 5680
9461, 5643, 5640, 5657
9462, 5663, 5645, 5651
9463, 5663, 5666, 5650
9464, 5645, 5650, 5647
9465, 5665, 5664, 5329
9466, 4245, 4249, 5644
9467, 5657, 5640, 5647
9468, 5673, 5644, 4248
9469, 5640, 5643, 5644
9470, 5675, 5711, 5703
9471, 5676, 5640, 5672
9472, 5646, 5329, 5638
9473, 5651, 4060, 5663
9474, 5675, 5703, 5698
9475, 5664, 5662, 5642
9476, 5773, 5718, 5754
9477, 5652, 5705, 5720
9478, 5677, 5668, 5697
9479, 5650, 5657, 5647
9480, 5671, 5660, 5641
9481, 5641, 5669, 5661
9482, 5656, 5651, 5667
9483, 5677, 5667, 5649
9484, 5651, 5645, 5667
9485, 5700, 5704, 5699
9486, 5674, 5681, 5683
9487, 5654, 4060, 5655
9488, 5656, 5655, 5651
9489, 5694, 5696, 5668
9490, 5656, 5697, 5699
9491, 5643, 5657, 5329
9492, 5669, 5646, 5638
9493, 5659, 5658, 5641
9494, 5660, 5659, 5641
9495, 4251, 5659, 4219
9496, 5688, 5671, 5661
9497, 4198, 5660, 4207
9498, 5689, 5642, 5688
9499, 5689, 5638, 5642
9500, 4060, 5332, 5663
9501, 5642, 5662, 5687
9502, 5663, 5332, 5666
9503, 5665, 5329, 5657
9504, 5660, 5671, 5686
9505, 5666, 5665, 5650
9506, 5664, 5665, 5662
9507, 5687, 5666, 5332
9508, 5665, 5666, 5662
9509, 5647, 5667, 5645
9510, 5678, 5832, 5677
9511, 5832, 5690, 5694
9512, 5667, 5677, 5656
9513, 5661, 5671, 5641
9514, 5671, 4061, 5686
9515, 5680, 5672, 5684
9516, 5677, 5697, 5656
9517, 5688, 5661, 5689
9518, 5658, 5669, 5641
9519, 5673, 5640, 5644
9520, 4248, 5674, 5673
9521, 4248, 4253, 5674
9522, 5640, 5673, 5672
9523, 5697, 5668, 5696
9524, 5674, 5683, 5685
9525, 5649, 5676, 5680
9526, 5680, 5676, 5672
9527, 5667, 5676, 5649
9528, 5640, 5676, 5647
9529, 5690, 5675, 5694
9530, 5683, 5681, 5682
9531, 5672, 5685, 5684
9532, 5674, 4068, 5681
9533, 5677, 5680, 5678
9534, 4068, 5679, 5681
9535, 5681, 5679, 5682
9536, 5679, 5691, 5682
9537, 5833, 5690, 5832
9538, 5684, 5683, 5682
9539, 5673, 5685, 5672
9540, 5833, 5684, 5682
9541, 5680, 5684, 5678
9542, 5674, 5685, 5673
9543, 5684, 5685, 5683
9544, 5660, 5686, 4207
9545, 4061, 5671, 5688
9546, 5642, 5638, 5664
9547, 5666, 5687, 5662
9548, 5661, 5669, 5689
9549, 5638, 5689, 5669
9550, 5693, 5833, 5682
9551, 5682, 5691, 5693
9552, 5679, 5648, 5691
9553, 5691, 5648, 5692
9554, 5713, 5711, 5725
9555, 5690, 5692, 5712
9556, 5691, 5692, 5693
9557, 5833, 5692, 5690
9558, 5696, 5694, 5698
9559, 5832, 5694, 5668
9560, 5698, 5695, 5696
9561, 5707, 5700, 5702
9562, 5698, 5694, 5675
9563, 5704, 5654, 5699
9564, 5696, 5695, 5702
9565, 5655, 5699, 5654
9566, 5711, 5713, 5721
9567, 5708, 5726, 5720
9568, 5656, 5699, 5655
9569, 5699, 5697, 5700
9570, 5702, 5697, 5696
9571, 5695, 5707, 5702
9572, 5733, 5735, 5724
9573, 5700, 5707, 5653
9574, 5710, 5705, 5709
9575, 5697, 5702, 5700
9576, 5715, 5834, 5714
9577, 5710, 5695, 5708
9578, 5648, 5706, 5834
9579, 5700, 5653, 5704
9580, 5742, 5721, 5713
9581, 5716, 5698, 5703
9582, 5720, 5705, 5708
9583, 5709, 5653, 5707
9584, 5716, 5695, 5698
9585, 5716, 5703, 5717
9586, 5695, 5710, 5707
9587, 5710, 5709, 5707
9588, 5705, 5710, 5708
9589, 5712, 5711, 5675
9590, 5692, 5715, 5712
9591, 5690, 5712, 5675
9592, 5723, 5714, 5706
9593, 5711, 5712, 5714
9594, 5713, 5725, 5722
9595, 5703, 5721, 5717
9596, 5692, 5648, 5834
9597, 5723, 5724, 5722
9598, 5714, 5712, 5715
9599, 5695, 5716, 5708
9600, 5717, 5701, 5719
9601, 5716, 5717, 5726
9602, 5738, 5742, 5736
9603, 5921, 5922, 5932
9604, 5735, 5733, 5734
9605, 5726, 5727, 5720
9606, 5708, 5716, 5726
9607, 5729, 5727, 5726
9608, 5717, 5721, 5701
9609, 5711, 5721, 5703
9610, 5872, 5836, 5869
9611, 5736, 5735, 5734
9612, 5706, 5670, 5723
9613, 5723, 5670, 5724
9614, 5717, 5729, 5726
9615, 5713, 5722, 5724
9616, 5711, 5714, 5725
9617, 5714, 5723, 5722
9618, 5719, 5729, 5717
9619, 5719, 5727, 5729
9620, 5871, 5870, 5737
9621, 5652, 5720, 5727
9622, 5734, 5835, 5748
9623, 5714, 5722, 5725
9624, 5748, 5757, 5750
9625, 5719, 5737, 5727
9626, 5803, 5798, 5791
9627, 5738, 5719, 5701
9628, 5724, 5670, 5733
9629, 5839, 5801, 5793
9630, 5670, 5731, 5733
9631, 5734, 5733, 5731
9632, 5835, 5734, 5731
9633, 5736, 5740, 5741
9634, 5740, 5736, 5734
9635, 5724, 5735, 5742
9636, 5738, 5732, 5737
9637, 5701, 5721, 5742
9638, 5738, 5737, 5719
9639, 5745, 5871, 5732
9640, 5742, 5738, 5701
9641, 5741, 5738, 5736
9642, 5873, 5747, 5749
9643, 5727, 5869, 5652
9644, 5748, 5740, 5734
9645, 5741, 5740, 5730
9646, 5745, 5741, 5730
9647, 5738, 5741, 5732
9648, 5724, 5742, 5713
9649, 5735, 5736, 5742
9650, 5732, 5741, 5745
9651, 5743, 5787, 5791
9652, 5873, 5749, 5843
9653, 5773, 5795, 5718
9654, 5747, 5745, 5730
9655, 5793, 5800, 5794
9656, 5747, 5750, 5746
9657, 5801, 5779, 5800
9658, 5748, 5747, 5730
9659, 5749, 5747, 5746
9660, 5748, 5730, 5740
9661, 5746, 5750, 5752
9662, 5771, 5774, 5769
9663, 5754, 5772, 5773
9664, 5747, 5748, 5750
9665, 5757, 5751, 5752
9666, 5751, 5758, 5752
9667, 5750, 5757, 5752
9668, 5752, 5758, 5760
9669, 5761, 5758, 1123
9670, 5718, 5777, 5754
9671, 5773, 5785, 5784
9672, 5826, 5812, 5811
9673, 5746, 5756, 5749
9674, 5761, 5765, 5760
9675, 5746, 5752, 5760
9676, 5842, 5756, 5755
9677, 5748, 5728, 5757
9678, 5728, 5751, 5757
9679, 5751, 1123, 5758
9680, 5761, 5760, 5758
9681, 6034, 6036, 6023
9682, 5766, 5760, 5765
9683, 5898, 5924, 5910
9684, 5746, 5760, 5756
9685, 5779, 5718, 5778
9686, 6015, 6018, 6014
9687, 5776, 5755, 5766
9688, 5771, 5770, 5767
9689, 1123, 5767, 5768
9690, 5765, 5768, 5770
9691, 5765, 5761, 5768
9692, 5777, 5776, 5766
9693, 5761, 1123, 5768
9694, 5768, 5767, 5770
9695, 5831, 5826, 5809
9696, 5840, 5786, 5838
9697, 5771, 5767, 5762
9698, 5765, 5770, 5769
9699, 5777, 5718, 5776
9700, 5769, 5770, 5771
9701, 5851, 5891, 5821
9702, 5769, 5754, 5765
9703, 5811, 5796, 5808
9704, 5776, 5718, 5779
9705, 5829, 5762, 5828
9706, 5819, 5775, 5799
9707, 5769, 5774, 5772
9708, 5815, 5806, 5807
9709, 5777, 5766, 5765
9710, 5739, 1291, 5794
9711, 5754, 5769, 5772
9712, 5765, 5754, 5777
9713, 5817, 5798, 5825
9714, 5739, 5800, 5779
9715, 5788, 5795, 5784
9716, 5792, 5785, 5772
9717, 5778, 5739, 5779
9718, 5784, 5785, 5789
9719, 5773, 5772, 5785
9720, 5781, 5789, 5785
9721, 5743, 5784, 5787
9722, 5828, 5762, 5809
9723, 5816, 5805, 5804
9724, 5772, 5774, 5792
9725, 5784, 5743, 5788
9726, 5787, 5803, 5791
9727, 5816, 5795, 5788
9728, 5875, 5885, 5880
9729, 5790, 5814, 5791
9730, 5782, 5787, 5789
9731, 5789, 5787, 5784
9732, 5790, 5791, 5798
9733, 5824, 5783, 5814
9734, 5803, 5787, 5782
9735, 5799, 5818, 5819
9736, 5829, 5792, 5774
9737, 5785, 5792, 5781
9738, 5838, 5744, 5841
9739, 5776, 5801, 5755
9740, 1291, 5786, 5794
9741, 5794, 5786, 5840
9742, 5718, 5795, 5778
9743, 5784, 5795, 5773
9744, 5804, 1291, 5739
9745, 5802, 1291, 5804
9746, 5806, 5783, 5802
9747, 5743, 5807, 5788
9748, 5827, 5782, 5789
9749, 5798, 5782, 5808
9750, 5778, 5816, 5739
9751, 5796, 5812, 5881
9752, 5794, 5800, 5739
9753, 5801, 5800, 5793
9754, 5779, 5801, 5776
9755, 5841, 5847, 5840
9756, 5802, 5804, 5805
9757, 5782, 5798, 5803
9758, 5849, 5856, 5860
9759, 5808, 5813, 5825
9760, 5816, 5778, 5795
9761, 5743, 5815, 5807
9762, 5802, 5805, 5806
9763, 5807, 5806, 5805
9764, 5788, 5807, 5805
9765, 5815, 5791, 5814
9766, 5781, 5827, 5789
9767, 5813, 5808, 5796
9768, 5830, 5781, 5792
9769, 5855, 5976, 5853
9770, 5881, 5812, 5764
9771, 5817, 5790, 5798
9772, 5782, 5811, 5808
9773, 5831, 5764, 5812
9774, 5817, 5822, 5790
9775, 5812, 5796, 5811
9776, 5813, 5796, 5875
9777, 5813, 5810, 5825
9778, 5818, 5814, 5790
9779, 5783, 5806, 5815
9780, 5791, 5815, 5743
9781, 5815, 5814, 5783
9782, 5805, 5816, 5788
9783, 5739, 5816, 5804
9784, 5797, 5823, 5810
9785, 5823, 5851, 5822
9786, 5822, 5818, 5790
9787, 5824, 5818, 5799
9788, 5810, 5875, 5880
9789, 5852, 5851, 5797
9790, 5775, 5819, 5821
9791, 5822, 5821, 5819
9792, 5891, 5775, 5821
9793, 5822, 5819, 5818
9794, 5822, 5817, 5823
9795, 5810, 5823, 5817
9796, 5857, 5850, 5854
9797, 5825, 5798, 5808
9798, 5818, 5824, 5814
9799, 5810, 5817, 5825
9800, 5811, 5827, 5826
9801, 5829, 5774, 5771
9802, 5782, 5827, 5811
9803, 5829, 5830, 5792
9804, 5809, 5826, 5828
9805, 5830, 5826, 5827
9806, 5762, 5829, 5771
9807, 5829, 5828, 5830
9808, 5826, 5830, 5828
9809, 5781, 5830, 5827
9810, 5677, 5832, 5668
9811, 5826, 5831, 5812
9812, 5833, 5832, 5678
9813, 5833, 5678, 5684
9814, 5692, 5833, 5693
9815, 5714, 5834, 5706
9816, 5692, 5834, 5715
9817, 5731, 5728, 5835
9818, 5748, 5835, 5728
9819, 5756, 5842, 5749
9820, 5727, 5870, 5869
9821, 5846, 5844, 5837
9822, 5841, 5844, 5846
9823, 5801, 5839, 5755
9824, 5838, 5841, 5840
9825, 5839, 5843, 5842
9826, 5794, 5840, 5793
9827, 5841, 5744, 5844
9828, 5846, 5847, 5841
9829, 5755, 5839, 5842
9830, 5839, 5846, 5843
9831, 5837, 5871, 5873
9832, 5749, 5842, 5843
9833, 5836, 5872, 5845
9834, 5872, 5869, 5870
9835, 5843, 5846, 5837
9836, 5844, 5744, 5845
9837, 5847, 5846, 5839
9838, 5839, 5793, 5847
9839, 5840, 5847, 5793
9840, 5868, 5878, 5867
9841, 5855, 5856, 5849
9842, 5821, 5822, 5851
9843, 5797, 5976, 5855
9844, 5852, 5855, 5849
9845, 5823, 5797, 5851
9846, 5852, 5854, 5851
9847, 5854, 5852, 5849
9848, 5856, 5853, 5868
9849, 5859, 5820, 5857
9850, 5857, 5854, 5849
9851, 5854, 5850, 5891
9852, 5797, 5855, 5852
9853, 5856, 5855, 5853
9854, 5877, 5853, 5976
9855, 5868, 5867, 5856
9856, 5974, 5975, 5867
9857, 5850, 5857, 5820
9858, 5864, 5865, 5858
9859, 5862, 5820, 5859
9860, 5860, 5857, 5849
9861, 5856, 5975, 5860
9862, 5859, 5860, 5863
9863, 5860, 5859, 5857
9864, 5865, 5892, 5858
9865, 5951, 5961, 5950
9866, 5864, 5859, 5863
9867, 5862, 5864, 5858
9868, 5859, 5864, 5862
9869, 5864, 5863, 5865
9870, 5863, 5893, 5865
9871, 5865, 5893, 5895
9872, 5889, 5938, 5939
9873, 5974, 5861, 5893
9874, 5861, 5912, 5896
9875, 5886, 5885, 5881
9876, 5848, 5878, 5890
9877, 5877, 5868, 5853
9878, 5727, 5737, 5870
9879, 5836, 5652, 5869
9880, 5737, 5732, 5871
9881, 5844, 5872, 5837
9882, 5873, 5871, 5745
9883, 5872, 5871, 5837
9884, 5872, 5844, 5845
9885, 5871, 5872, 5870
9886, 5873, 5745, 5747
9887, 5837, 5873, 5843
9888, 5810, 5813, 5875
9889, 5881, 5875, 5796
9890, 5879, 5886, 5883
9891, 5884, 5888, 5876
9892, 5876, 5878, 5877
9893, 5877, 5866, 5884
9894, 5877, 5878, 5868
9895, 5890, 5878, 5876
9896, 5867, 5878, 5848
9897, 5888, 5882, 5887
9898, 5884, 5882, 5888
9899, 5976, 5880, 5866
9900, 5797, 5810, 5880
9901, 5886, 5882, 5885
9902, 5884, 5885, 5882
9903, 5887, 5882, 5879
9904, 5877, 5884, 5876
9905, 5881, 5764, 5883
9906, 5885, 5884, 5866
9907, 5880, 5885, 5866
9908, 5881, 5885, 5875
9909, 5883, 5886, 5881
9910, 5879, 5882, 5886
9911, 5879, 5874, 5887
9912, 5887, 5874, 5888
9913, 5904, 5780, 5978
9914, 5876, 5888, 5890
9915, 5763, 5920, 5938
9916, 5899, 5913, 5927
9917, 7232, 5888, 5874
9918, 7232, 5890, 5888
9919, 5854, 5891, 5851
9920, 5850, 5775, 5891
9921, 5974, 5893, 5863
9922, 5865, 5780, 5892
9923, 5896, 5898, 5861
9924, 5907, 5925, 5921
9925, 5914, 5977, 5917
9926, 5861, 5895, 5893
9927, 5923, 5950, 5961
9928, 5913, 5899, 5912
9929, 5906, 5907, 5903
9930, 5924, 5896, 5908
9931, 5895, 5898, 5910
9932, 5861, 5898, 5895
9933, 5929, 5941, 5940
9934, 5927, 5848, 5916
9935, 5928, 5903, 5932
9936, 5909, 5908, 5915
9937, 5928, 5932, 5929
9938, 5923, 5940, 5945
9939, 5915, 5908, 5919
9940, 5932, 5907, 5921
9941, 5928, 5940, 5923
9942, 5955, 5962, 5949
9943, 5908, 5914, 5924
9944, 5929, 5932, 5905
9945, 5930, 5944, 5902
9946, 5929, 5940, 5928
9947, 5925, 5907, 5977
9948, 5914, 5909, 5977
9949, 5977, 5906, 5917
9950, 5945, 5940, 5946
9951, 5896, 5912, 5919
9952, 5958, 5949, 5969
9953, 5932, 5922, 5905
9954, 5921, 5925, 5936
9955, 5918, 5930, 5902
9956, 5865, 5931, 5780
9957, 5895, 5931, 5865
9958, 5913, 5912, 5861
9959, 5912, 5899, 5919
9960, 5974, 5913, 5861
9961, 5913, 5867, 5927
9962, 5904, 6064, 5901
9963, 5908, 5909, 5914
9964, 5920, 5915, 5899
9965, 5848, 5890, 5939
9966, 5763, 5933, 5935
9967, 5925, 5909, 5936
9968, 5941, 5897, 5940
9969, 5923, 5945, 5950
9970, 5979, 5895, 5910
9971, 5946, 5981, 5945
9972, 5919, 5908, 5896
9973, 5899, 5915, 5919
9974, 5916, 5920, 5899
9975, 5938, 5920, 5939
9976, 5900, 5918, 5922
9977, 5921, 5900, 5922
9978, 5929, 5905, 5902
9979, 5903, 5928, 5923
9980, 5932, 5903, 5907
9981, 5903, 5923, 5906
9982, 5980, 5924, 5951
9983, 5934, 5915, 5935
9984, 5909, 5934, 5936
9985, 5934, 5926, 5936
9986, 5848, 5927, 5867
9987, 5899, 5927, 5916
9988, 5969, 5972, 5985
9989, 5961, 5917, 5906
9990, 5896, 5924, 5898
9991, 5981, 5968, 5942
9992, 5914, 5917, 5924
9993, 6065, 5978, 5979
9994, 5918, 5902, 5905
9995, 5918, 5905, 5922
9996, 5926, 5934, 5933
9997, 5915, 5920, 5935
9998, 5909, 5915, 5934
9999, 5763, 5935, 5920
10000, 5933, 5934, 5935
10001, 5900, 5921, 5937
10002, 5936, 5937, 5921
10003, 5939, 5920, 5916
10004, 5936, 5926, 5937
10005, 5889, 5763, 5938
10006, 5848, 5939, 5916
10007, 7232, 5939, 5890
10008, 5941, 5929, 5960
10009, 5902, 5944, 5960
10010, 5981, 5953, 5968
10011, 5947, 5952, 5982
10012, 5962, 5964, 5949
10013, 5948, 5954, 5955
10014, 5894, 5944, 5930
10015, 5944, 5943, 5960
10016, 5946, 5940, 5897
10017, 5981, 5952, 5945
10018, 5954, 5946, 5897
10019, 5982, 5952, 5981
10020, 5910, 5980, 5979
10021, 5951, 5924, 5961
10022, 5962, 5897, 5941
10023, 5948, 5955, 5958
10024, 5948, 5953, 5954
10025, 5988, 5972, 5989
10026, 5952, 5950, 5945
10027, 5950, 5947, 5951
10028, 5931, 5895, 5979
10029, 5901, 6064, 5947
10030, 5949, 5958, 5955
10031, 5950, 5952, 5947
10032, 5946, 5954, 5953
10033, 5897, 5955, 5954
10034, 5897, 5962, 5955
10035, 5959, 5948, 5958
10036, 5948, 5959, 6066
10037, 5944, 5894, 5984
10038, 6068, 6123, 5959
10039, 5953, 5948, 6066
10040, 5956, 5969, 5971
10041, 6068, 5958, 5956
10042, 6011, 6123, 5983
10043, 6066, 5911, 5953
10044, 5960, 5929, 5902
10045, 5960, 5943, 5965
10046, 5917, 5961, 5924
10047, 5923, 5961, 5906
10048, 5965, 5941, 5960
10049, 5894, 5966, 5984
10050, 5991, 5985, 5987
10051, 5969, 5956, 5958
10052, 5965, 5964, 5962
10053, 5994, 5984, 5966
10054, 5965, 5962, 5941
10055, 5943, 5963, 5965
10056, 5963, 5989, 5973
10057, 5964, 5963, 5973
10058, 5959, 5958, 6068
10059, 6066, 6067, 5911
10060, 5949, 5964, 5973
10061, 5953, 5911, 5968
10062, 5985, 5971, 5969
10063, 5971, 5985, 5991
10064, 6004, 5996, 6013
10065, 5963, 5964, 5965
10066, 5969, 5949, 5973
10067, 5972, 5987, 5985
10068, 5943, 5984, 5963
10069, 5973, 5972, 5969
10070, 5863, 5860, 5975
10071, 5913, 5974, 5867
10072, 5867, 5975, 5856
10073, 5863, 5975, 5974
10074, 5880, 5976, 5797
10075, 5877, 5976, 5866
10076, 5925, 5977, 5909
10077, 5906, 5977, 5907
10078, 5978, 5780, 5931
10079, 5979, 5978, 5931
10080, 5924, 5980, 5910
10081, 6064, 6065, 5980
10082, 5951, 5947, 6064
10083, 5953, 5981, 5946
10084, 5982, 5981, 5942
10085, 5942, 5901, 5982
10086, 5982, 5901, 5947
10087, 6002, 6007, 5971
10088, 5971, 5990, 6002
10089, 5966, 5970, 5992
10090, 5943, 5944, 5984
10091, 5998, 5993, 5999
10092, 5970, 5997, 6000
10093, 6001, 5990, 5986
10094, 5988, 5987, 5972
10095, 5987, 5986, 5990
10096, 5973, 5989, 5972
10097, 5992, 5994, 5966
10098, 5994, 5963, 5984
10099, 5989, 5994, 5992
10100, 6008, 5998, 5999
10101, 6007, 6002, 6004
10102, 5987, 5990, 5991
10103, 5971, 5991, 5990
10104, 5970, 5988, 5992
10105, 5989, 5992, 5988
10106, 6021, 6044, 6058
10107, 5987, 5988, 6000
10108, 5963, 5994, 5989
10109, 6077, 6053, 6026
10110, 6005, 5996, 6002
10111, 6010, 6005, 6002
10112, 6014, 6016, 5996
10113, 5997, 5993, 5998
10114, 5998, 6000, 5997
10115, 6000, 5998, 5986
10116, 6069, 5753, 5999
10117, 6075, 6032, 6031
10118, 5987, 6000, 5986
10119, 6000, 5988, 5970
10120, 6008, 6001, 5986
10121, 6010, 6001, 6020
10122, 6010, 5990, 6001
10123, 6004, 6002, 5996
10124, 6012, 6006, 6013
10125, 6011, 6013, 6006
10126, 6012, 6013, 6016
10127, 6004, 5983, 6007
10128, 6010, 6002, 5990
10129, 6015, 6005, 6003
10130, 6011, 6004, 6013
10131, 6006, 5957, 6011
10132, 6068, 6007, 5983
10133, 5956, 5971, 6007
10134, 5998, 6008, 5986
10135, 6009, 6008, 5999
10136, 5995, 6001, 6009
10137, 6008, 6009, 6001
10138, 6020, 6001, 5995
10139, 6005, 6010, 6003
10140, 6123, 6011, 5957
10141, 6004, 6011, 5983
10142, 6016, 5759, 6012
10143, 6003, 6019, 6015
10144, 6015, 5996, 6005
10145, 6018, 6015, 6019
10146, 6126, 6125, 6124
10147, 5996, 6015, 6014
10148, 5996, 6016, 6013
10149, 6016, 6014, 6024
10150, 6039, 6142, 6150
10151, 6057, 6049, 6060
10152, 6070, 6021, 6035
10153, 6036, 6027, 6033
10154, 6020, 6019, 6003
10155, 6020, 6022, 6019
10156, 6010, 6020, 6003
10157, 6072, 6095, 6055
10158, 5995, 6022, 6020
10159, 6143, 6129, 6130
10160, 6028, 6031, 6032
10161, 6024, 6025, 5759
10162, 6024, 6014, 6028
10163, 6016, 6024, 5759
10164, 6028, 6014, 6018
10165, 6033, 6028, 6032
10166, 6025, 6027, 5759
10167, 6018, 6031, 6028
10168, 6054, 6079, 6081
10169, 6019, 6022, 6092
10170, 6024, 6028, 6025
10171, 6033, 6027, 6025
10172, 6151, 6062, 6038
10173, 6074, 6041, 6075
10174, 6019, 6092, 6018
10175, 6035, 6029, 6070
10176, 6032, 6029, 6036
10177, 6085, 6125, 6126
10178, 6028, 6033, 6025
10179, 6047, 6029, 6032
10180, 6056, 6057, 6060
10181, 6048, 6078, 6052
10182, 6029, 6051, 6036
10183, 6027, 6036, 6034
10184, 6032, 6036, 6033
10185, 6072, 6055, 6058
10186, 6040, 6051, 6035
10187, 6036, 6051, 6023
10188, 6041, 6070, 6047
10189, 6048, 6052, 6053
10190, 6079, 6078, 6048
10191, 6063, 6038, 6062
10192, 6029, 6047, 6070
10193, 6056, 6089, 6030
10194, 6037, 6040, 6046
10195, 6040, 6042, 6051
10196, 6061, 6021, 6058
10197, 7233, 6117, 6095
10198, 6044, 6072, 6058
10199, 6051, 6029, 6035
10200, 6049, 6061, 6060
10201, 6021, 6061, 6049
10202, 6127, 6041, 6074
10203, 6041, 6045, 6070
10204, 6048, 6053, 6077
10205, 6086, 6083, 6050
10206, 6023, 6051, 6042
10207, 6046, 6077, 6026
10208, 6175, 6176, 6087
10209, 6037, 6042, 6040
10210, 6127, 6038, 6041
10211, 6063, 6062, 6124
10212, 6076, 6037, 6046
10213, 6021, 6070, 6045
10214, 6035, 6021, 6049
10215, 6090, 6088, 6060
10216, 6072, 6125, 6095
10217, 6040, 6049, 6046
10218, 6049, 6040, 6035
10219, 6045, 6041, 6038
10220, 6091, 6056, 6030
10221, 6089, 6056, 6103
10222, 6121, 6099, 6115
10223, 6125, 6063, 6124
10224, 6088, 6055, 6059
10225, 6143, 5753, 6154
10226, 6046, 6049, 6057
10227, 6143, 6009, 5999
10228, 6044, 6021, 6045
10229, 6060, 6088, 6103
10230, 6086, 6052, 6078
10231, 6093, 6081, 6082
10232, 6056, 6077, 6057
10233, 6065, 6064, 5904
10234, 5951, 6064, 5980
10235, 5978, 6065, 5904
10236, 5980, 6065, 5979
10237, 6007, 6068, 5956
10238, 6067, 5959, 5967
10239, 5959, 6067, 6066
10240, 6068, 5983, 6123
10241, 6090, 6058, 6055
10242, 5999, 5993, 6069
10243, 6128, 6074, 6092
10244, 6151, 6153, 6145
10245, 6044, 6045, 6038
10246, 6092, 6031, 6018
10247, 6151, 6071, 6129
10248, 7233, 6085, 6043
10249, 6038, 6071, 6151
10250, 6075, 6041, 6047
10251, 6032, 6075, 6047
10252, 6031, 6074, 6075
10253, 6057, 6077, 6046
10254, 6046, 6026, 6076
10255, 6091, 6077, 6056
10256, 6079, 6048, 6030
10257, 6078, 6054, 6083
10258, 6030, 6104, 6081
10259, 6054, 6078, 6079
10260, 6119, 6115, 6117
10261, 6164, 6087, 6187
10262, 6030, 6081, 6079
10263, 6081, 6080, 6111
10264, 6099, 6098, 6101
10265, 6072, 6044, 6063
10266, 6179, 6177, 6190
10267, 6050, 6083, 6164
10268, 6081, 6093, 6054
10269, 6082, 6113, 6175
10270, 6083, 6054, 6093
10271, 6059, 6089, 6088
10272, 6112, 6131, 6113
10273, 6083, 6086, 6078
10274, 6055, 6096, 6059
10275, 6090, 6060, 6061
10276, 6059, 6096, 6116
10277, 6081, 6104, 6080
10278, 6058, 6090, 6061
10279, 6055, 6088, 6090
10280, 6030, 6048, 6091
10281, 6077, 6091, 6048
10282, 6128, 6092, 6022
10283, 6031, 6092, 6074
10284, 6082, 6087, 6093
10285, 6093, 6087, 6164
10286, 6161, 6234, 6210
10287, 6240, 6149, 6241
10288, 6022, 6130, 6128
10289, 6038, 6063, 6044
10290, 6101, 6104, 6089
10291, 6120, 6107, 6118
10292, 6131, 6094, 6190
10293, 6098, 6080, 6104
10294, 6102, 6098, 6107
10295, 6107, 6120, 6097
10296, 6096, 6095, 6117
10297, 6107, 6098, 6099
10298, 6111, 6108, 6082
10299, 6059, 6101, 6089
10300, 6102, 6097, 6108
10301, 6106, 6118, 6114
10302, 6115, 6099, 6101
10303, 6102, 6108, 6111
10304, 6060, 6103, 6056
10305, 6088, 6089, 6103
10306, 6030, 6089, 6104
10307, 6104, 6101, 6098
10308, 6102, 6080, 6098
10309, 6179, 6094, 6166
10310, 6110, 6135, 6122
10311, 6107, 6097, 6102
10312, 6099, 6121, 6118
10313, 6109, 6108, 6097
10314, 6105, 6176, 6175
10315, 6121, 6114, 6118
10316, 6113, 6109, 6112
10317, 6141, 6136, 6137
10318, 6109, 6097, 6134
10319, 6081, 6111, 6082
10320, 6102, 6111, 6080
10321, 6120, 6134, 6097
10322, 6094, 6131, 6132
10323, 6082, 6108, 6113
10324, 6113, 6108, 6109
10325, 6116, 6101, 6059
10326, 6118, 6106, 6120
10327, 6117, 6116, 6096
10328, 6116, 6117, 6115
10329, 6101, 6116, 6115
10330, 6095, 6096, 6055
10331, 6119, 6100, 6115
10332, 6099, 6118, 6107
10333, 6135, 6133, 6134
10334, 6117, 6043, 6119
10335, 6115, 6100, 6121
10336, 6114, 6121, 6100
10337, 5957, 5967, 6123
10338, 6120, 6106, 6122
10339, 6123, 5967, 5959
10340, 7233, 6125, 6085
10341, 6125, 6072, 6063
10342, 6128, 6127, 6074
10343, 6124, 6073, 6126
10344, 6038, 6127, 6071
10345, 6130, 6022, 5995
10346, 6127, 6128, 6071
10347, 6143, 5995, 6009
10348, 6144, 6073, 6145
10349, 6143, 6130, 5995
10350, 6154, 6129, 6143
10351, 6113, 6131, 6105
10352, 6131, 6112, 6141
10353, 6109, 6134, 6112
10354, 6159, 6188, 6155
10355, 6133, 6135, 6136
10356, 6131, 6141, 6132
10357, 6135, 6134, 6120
10358, 6134, 6133, 6112
10359, 6122, 6135, 6120
10360, 6136, 6135, 6110
10361, 6110, 6039, 6136
10362, 6137, 6136, 6039
10363, 6181, 6201, 6182
10364, 6137, 6132, 6141
10365, 6137, 6139, 6132
10366, 6139, 6146, 6132
10367, 5753, 6143, 5999
10368, 6146, 6139, 6149
10369, 6150, 6137, 6039
10370, 6112, 6133, 6141
10371, 6141, 6133, 6136
10372, 6094, 6132, 6146
10373, 6152, 6153, 6129
10374, 6151, 6129, 6153
10375, 6145, 6124, 6062
10376, 6145, 6062, 6151
10377, 6152, 6144, 6153
10378, 6160, 6158, 6147
10379, 6159, 6140, 6162
10380, 6210, 6171, 6202
10381, 6146, 6166, 6094
10382, 6156, 6155, 6149
10383, 6189, 6240, 6241
10384, 6149, 6139, 6156
10385, 6191, 6179, 6166
10386, 6156, 6150, 6142
10387, 6137, 6150, 6139
10388, 6128, 6129, 6071
10389, 6124, 6145, 6073
10390, 6129, 6128, 6130
10391, 6153, 6144, 6145
10392, 5753, 6152, 6154
10393, 6152, 6129, 6154
10394, 6140, 6159, 6157
10395, 6206, 6216, 6203
10396, 6150, 6156, 6139
10397, 6157, 6156, 6142
10398, 6159, 6155, 6157
10399, 6156, 6157, 6155
10400, 6183, 6200, 6184
10401, 6177, 6173, 6176
10402, 6155, 6188, 6241
10403, 6232, 6238, 6231
10404, 6140, 6160, 6162
10405, 6087, 6176, 6187
10406, 6160, 6180, 6158
10407, 6207, 6147, 6193
10408, 6185, 6177, 6179
10409, 6240, 6166, 6149
10410, 6105, 6177, 6176
10411, 6200, 6161, 6202
10412, 6165, 6188, 6159
10413, 6189, 6188, 6165
10414, 6149, 6166, 6146
10415, 6162, 6147, 6165
10416, 6168, 6191, 6148
10417, 6050, 6164, 6084
10418, 6184, 6192, 6199
10419, 6082, 6175, 6087
10420, 6158, 6178, 6193
10421, 6190, 6105, 6131
10422, 6209, 6211, 6193
10423, 6203, 6177, 6185
10424, 6164, 6083, 6093
10425, 6173, 6203, 6017
10426, 6160, 6147, 6162
10427, 6236, 6238, 6232
10428, 6200, 6202, 6181
10429, 6197, 6084, 6173
10430, 6193, 6147, 6158
10431, 6168, 6179, 6191
10432, 6247, 6192, 6214
10433, 6172, 6244, 6274
10434, 6105, 6190, 6177
10435, 6173, 6187, 6176
10436, 6194, 6186, 6192
10437, 6212, 6207, 6196
10438, 6216, 6206, 6217
10439, 6178, 6209, 6193
10440, 6167, 6228, 6230
10441, 6201, 6181, 6202
10442, 6219, 6218, 6174
10443, 6204, 6205, 6195
10444, 6168, 6185, 6179
10445, 6167, 6225, 6228
10446, 6184, 6181, 6194
10447, 6194, 6192, 6184
10448, 6216, 6017, 6203
10449, 6191, 6166, 6240
10450, 6178, 6158, 6180
10451, 6276, 6204, 6148
10452, 6215, 6226, 6205
10453, 6179, 6190, 6094
10454, 6206, 6169, 6217
10455, 6169, 6220, 6221
10456, 6159, 6162, 6165
10457, 6204, 6168, 6148
10458, 6243, 6250, 6248
10459, 6182, 6194, 6181
10460, 6084, 6164, 6187
10461, 6178, 6180, 6138
10462, 6189, 6165, 6212
10463, 6187, 6173, 6084
10464, 6105, 6175, 6113
10465, 6138, 6171, 6178
10466, 6252, 6249, 6255
10467, 6182, 6186, 6194
10468, 6192, 6186, 6214
10469, 6196, 6170, 6215
10470, 6213, 6266, 6265
10471, 6173, 6017, 6197
10472, 6242, 6163, 6246
10473, 6192, 6247, 6199
10474, 6184, 6199, 6183
10475, 6184, 6200, 6181
10476, 6200, 6183, 6253
10477, 6171, 6138, 6201
10478, 6138, 6182, 6201
10479, 6202, 6161, 6210
10480, 6201, 6202, 6171
10481, 6177, 6203, 6173
10482, 6206, 6185, 6168
10483, 6204, 6276, 6205
10484, 6217, 6017, 6216
10485, 6276, 6212, 6205
10486, 6226, 6170, 6224
10487, 6204, 6220, 6168
10488, 6168, 6220, 6206
10489, 6147, 6207, 6165
10490, 6211, 6207, 6193
10491, 6232, 6235, 6239
10492, 6211, 6278, 6196
10493, 6171, 6209, 6178
10494, 6211, 6209, 6208
10495, 6208, 6209, 6210
10496, 6210, 6209, 6171
10497, 6279, 6278, 6208
10498, 6211, 6196, 6207
10499, 6207, 6212, 6165
10500, 6212, 6196, 6215
10501, 6243, 6247, 6261
10502, 6214, 6172, 6261
10503, 6186, 6172, 6214
10504, 6251, 6265, 6266
10505, 6226, 6215, 6170
10506, 6212, 6215, 6205
10507, 6195, 6221, 6220
10508, 6217, 6169, 6174
10509, 6223, 6218, 6219
10510, 6220, 6169, 6206
10511, 6221, 6174, 6169
10512, 6203, 6185, 6206
10513, 6224, 6222, 6223
10514, 6195, 6220, 6204
10515, 6224, 6221, 6195
10516, 6219, 6174, 6221
10517, 6208, 6234, 6279
10518, 6223, 6225, 6218
10519, 6224, 6223, 6219
10520, 6225, 6223, 6222
10521, 6224, 6219, 6221
10522, 6224, 6170, 6277
10523, 6210, 6234, 6208
10524, 6218, 6225, 6167
10525, 6224, 6195, 6226
10526, 6195, 6205, 6226
10527, 6235, 6232, 6264
10528, 6262, 6235, 6264
10529, 6222, 6228, 6225
10530, 6229, 6230, 6239
10531, 6229, 6167, 6230
10532, 6232, 6230, 6228
10533, 6231, 6238, 6237
10534, 6237, 6200, 6253
10535, 6277, 6236, 6222
10536, 6231, 6264, 6232
10537, 6228, 6236, 6232
10538, 6277, 6222, 6224
10539, 6234, 6161, 6237
10540, 6234, 6233, 6279
10541, 6231, 6237, 6246
10542, 6227, 6229, 6280
10543, 6222, 6236, 6228
10544, 6236, 6233, 6238
10545, 6200, 6237, 6161
10546, 6199, 6242, 6183
10547, 6233, 6234, 6238
10548, 6237, 6238, 6234
10549, 6232, 6239, 6230
10550, 6280, 6239, 6235
10551, 6276, 6240, 6189
10552, 6191, 6240, 6148
10553, 6155, 6241, 6149
10554, 6189, 6241, 6188
10555, 6252, 6255, 6256
10556, 1124, 6268, 6274
10557, 6198, 6267, 6268
10558, 6242, 6199, 6248
10559, 6246, 6237, 6253
10560, 6199, 6247, 6248
10561, 6246, 6163, 6262
10562, 6247, 6214, 6261
10563, 6247, 6243, 6248
10564, 6245, 6267, 6251
10565, 6242, 6248, 6252
10566, 6256, 6257, 6262
10567, 6250, 6252, 6248
10568, 6251, 6243, 6245
10569, 6252, 6250, 6249
10570, 6249, 6250, 6251
10571, 6251, 6250, 6243
10572, 1125, 6260, 6270
10573, 6252, 6163, 6242
10574, 6183, 6242, 6253
10575, 6246, 6253, 6242
10576, 6272, 6275, 6259
10577, 6163, 6252, 6256
10578, 6258, 6254, 6259
10579, 6266, 6258, 6259
10580, 6272, 6254, 6269
10581, 6275, 6256, 6255
10582, 6259, 6254, 6272
10583, 6263, 6235, 6262
10584, 6249, 6266, 6259
10585, 6249, 6259, 6255
10586, 6263, 6271, 6227
10587, 6275, 6272, 6273
10588, 6274, 6261, 6172
10589, 6261, 6245, 6243
10590, 6256, 6262, 6163
10591, 6263, 6262, 6257
10592, 6273, 6272, 6270
10593, 6263, 6227, 6280
10594, 6231, 6246, 6264
10595, 6262, 6264, 6246
10596, 6266, 6213, 6258
10597, 6251, 6198, 6265
10598, 6249, 6251, 6266
10599, 6274, 6245, 6261
10600, 6198, 6251, 6267
10601, 6273, 6260, 6271
10602, 6267, 6245, 6274
10603, 6270, 6269, 1125
10604, 6257, 6271, 6263
10605, 6260, 6227, 6271
10606, 6269, 6270, 6272
10607, 6260, 6273, 6270
10608, 6271, 6257, 6273
10609, 6275, 6273, 6257
10610, 1124, 6274, 6244
10611, 6267, 6274, 6268
10612, 6256, 6275, 6257
10613, 6259, 6275, 6255
10614, 6240, 6276, 6148
10615, 6212, 6276, 6189
10616, 6277, 6170, 6278
10617, 6236, 6277, 6233
10618, 6196, 6278, 6170
10619, 6208, 6278, 6211
10620, 6233, 6277, 6279
10621, 6278, 6279, 6277
10622, 6239, 6280, 6229
10623, 6263, 6280, 6235
10624, 4304, 6287, 6286
10625, 4390, 4278, 6303
10626, 4309, 6282, 4306
10627, 6286, 6282, 4304
10628, 6320, 6292, 6323
10629, 6286, 6283, 6300
10630, 6306, 6288, 6294
10631, 6306, 6309, 6293
10632, 6288, 6293, 6290
10633, 6308, 6307, 5330
10634, 4304, 4308, 6287
10635, 6300, 6283, 6290
10636, 6316, 6287, 4307
10637, 6283, 6286, 6287
10638, 6318, 6354, 6346
10639, 6319, 6283, 6315
10640, 6289, 5330, 6281
10641, 6294, 4082, 6306
10642, 6318, 6346, 6341
10643, 6307, 6305, 6285
10644, 6387, 6542, 6375
10645, 6295, 6348, 6363
10646, 6320, 6311, 6340
10647, 6293, 6300, 6290
10648, 6314, 6303, 6284
10649, 6284, 6312, 6304
10650, 6299, 6294, 6310
10651, 6320, 6310, 6292
10652, 6294, 6288, 6310
10653, 6343, 6347, 6342
10654, 6317, 6324, 6326
10655, 6297, 4082, 6298
10656, 6299, 6298, 6294
10657, 6337, 6339, 6311
10658, 6299, 6340, 6342
10659, 6286, 6300, 5330
10660, 6312, 6289, 6281
10661, 6302, 6301, 6284
10662, 6303, 6302, 6284
10663, 4310, 6302, 4278
10664, 6331, 6314, 6304
10665, 4390, 6303, 4266
10666, 6332, 6285, 6331
10667, 6332, 6281, 6285
10668, 4082, 5333, 6306
10669, 6285, 6305, 6330
10670, 6306, 5333, 6309
10671, 6308, 5330, 6300
10672, 6303, 6314, 6329
10673, 6309, 6308, 6293
10674, 6307, 6308, 6305
10675, 6330, 6309, 5333
10676, 6308, 6309, 6305
10677, 6290, 6310, 6288
10678, 6321, 6475, 6320
10679, 6475, 6333, 6337
10680, 6310, 6320, 6299
10681, 6304, 6314, 6284
10682, 6314, 4083, 6329
10683, 6323, 6315, 6327
10684, 6320, 6340, 6299
10685, 6331, 6304, 6332
10686, 6301, 6312, 6284
10687, 6316, 6283, 6287
10688, 4307, 6317, 6316
10689, 4307, 4312, 6317
10690, 6283, 6316, 6315
10691, 6340, 6311, 6339
10692, 6317, 6326, 6328
10693, 6292, 6319, 6323
10694, 6323, 6319, 6315
10695, 6310, 6319, 6292
10696, 6283, 6319, 6290
10697, 6333, 6318, 6337
10698, 6326, 6324, 6325
10699, 6315, 6328, 6327
10700, 6317, 4090, 6324
10701, 6320, 6323, 6321
10702, 4090, 6322, 6324
10703, 6324, 6322, 6325
10704, 6322, 6334, 6325
10705, 6476, 6333, 6475
10706, 6327, 6326, 6325
10707, 6316, 6328, 6315
10708, 6476, 6327, 6325
10709, 6323, 6327, 6321
10710, 6317, 6328, 6316
10711, 6327, 6328, 6326
10712, 6303, 6329, 4266
10713, 4083, 6314, 6331
10714, 6285, 6281, 6307
10715, 6309, 6330, 6305
10716, 6304, 6312, 6332
10717, 6281, 6332, 6312
10718, 6336, 6476, 6325
10719, 6325, 6334, 6336
10720, 6322, 6291, 6334
10721, 6334, 6291, 6335
10722, 6356, 6354, 6368
10723, 6333, 6335, 6355
10724, 6334, 6335, 6336
10725, 6476, 6335, 6333
10726, 6339, 6337, 6341
10727, 6475, 6337, 6311
10728, 6341, 6338, 6339
10729, 6350, 6343, 6345
10730, 6341, 6337, 6318
10731, 6347, 6297, 6342
10732, 6339, 6338, 6345
10733, 6298, 6342, 6297
10734, 6354, 6356, 6364
10735, 6351, 6369, 6363
10736, 6299, 6342, 6298
10737, 6342, 6340, 6343
10738, 6345, 6340, 6339
10739, 6338, 6350, 6345
10740, 6376, 6378, 6367
10741, 6343, 6350, 6296
10742, 6353, 6348, 6352
10743, 6340, 6345, 6343
10744, 6358, 6477, 6357
10745, 6353, 6338, 6351
10746, 6291, 6349, 6477
10747, 6343, 6296, 6347
10748, 6385, 6364, 6356
10749, 6359, 6341, 6346
10750, 6363, 6348, 6351
10751, 6352, 6296, 6350
10752, 6359, 6338, 6341
10753, 6359, 6346, 6360
10754, 6338, 6353, 6350
10755, 6353, 6352, 6350
10756, 6348, 6353, 6351
10757, 6355, 6354, 6318
10758, 6335, 6358, 6355
10759, 6333, 6355, 6318
10760, 6366, 6357, 6349
10761, 6354, 6355, 6357
10762, 6356, 6368, 6365
10763, 6346, 6364, 6360
10764, 6335, 6291, 6477
10765, 6366, 6367, 6365
10766, 6357, 6355, 6358
10767, 6338, 6359, 6351
10768, 6360, 6344, 6362
10769, 6359, 6360, 6369
10770, 6381, 6385, 6379
10771, 6415, 6422, 6386
10772, 6378, 6376, 6377
10773, 6369, 6370, 6363
10774, 6351, 6359, 6369
10775, 6372, 6370, 6369
10776, 6360, 6364, 6344
10777, 6354, 6364, 6346
10778, 6540, 6543, 6479
10779, 6379, 6378, 6377
10780, 6349, 6313, 6366
10781, 6366, 6313, 6367
10782, 6360, 6372, 6369
10783, 6356, 6365, 6367
10784, 6354, 6357, 6368
10785, 6357, 6366, 6365
10786, 6362, 6372, 6360
10787, 6362, 6370, 6372
10788, 6380, 6542, 6541
10789, 6295, 6363, 6370
10790, 6377, 6478, 6390
10791, 6357, 6365, 6368
10792, 6390, 6399, 6392
10793, 6362, 6380, 6370
10794, 6570, 6537, 6565
10795, 6381, 6362, 6344
10796, 6367, 6313, 6376
10797, 6482, 6444, 6436
10798, 6313, 6374, 6376
10799, 6377, 6376, 6374
10800, 6478, 6377, 6374
10801, 6379, 6383, 6384
10802, 6383, 6379, 6377
10803, 6367, 6378, 6385
10804, 6381, 6375, 6380
10805, 6344, 6364, 6385
10806, 6381, 6380, 6362
10807, 6486, 6544, 6391
10808, 6385, 6381, 6344
10809, 6384, 6381, 6379
10810, 6544, 6389, 6391
10811, 6370, 6540, 6295
10812, 6390, 6383, 6377
10813, 6384, 6383, 6373
10814, 6387, 6384, 6373
10815, 6381, 6384, 6375
10816, 6367, 6385, 6356
10817, 6378, 6379, 6385
10818, 6375, 6384, 6387
10819, 6469, 6455, 6454
10820, 6389, 6387, 6373
10821, 6436, 6443, 6437
10822, 6389, 6392, 6388
10823, 6444, 6421, 6443
10824, 6390, 6389, 6373
10825, 6391, 6389, 6388
10826, 6390, 6373, 6383
10827, 6388, 6392, 6394
10828, 6413, 6416, 6411
10829, 6415, 6438, 6422
10830, 6389, 6390, 6392
10831, 6399, 6393, 6394
10832, 6393, 6400, 6394
10833, 6392, 6399, 6394
10834, 6394, 6400, 6402
10835, 6403, 6400, 960
10836, 6422, 6419, 6386
10837, 6435, 6428, 6414
10838, 6446, 6441, 6434
10839, 6388, 6398, 6391
10840, 6403, 6407, 6402
10841, 6388, 6394, 6402
10842, 6485, 6398, 6397
10843, 6390, 6371, 6399
10844, 6371, 6393, 6399
10845, 6393, 960, 6400
10846, 6403, 6402, 6400
10847, 6679, 6685, 6682
10848, 6408, 6402, 6407
10849, 6522, 6556, 6520
10850, 6388, 6402, 6398
10851, 6421, 6422, 6382
10852, 6630, 6872, 6644
10853, 6418, 6397, 6408
10854, 6413, 6412, 6409
10855, 960, 6409, 6410
10856, 6407, 6410, 6412
10857, 6407, 6403, 6410
10858, 6419, 6418, 6408
10859, 6403, 960, 6410
10860, 6410, 6409, 6412
10861, 6474, 6469, 6452
10862, 6483, 6429, 6481
10863, 6413, 6409, 6404
10864, 6407, 6412, 6411
10865, 6419, 6422, 6418
10866, 6411, 6412, 6413
10867, 6494, 6496, 6464
10868, 6411, 6386, 6407
10869, 6454, 6439, 6451
10870, 6418, 6422, 6421
10871, 6472, 6404, 6471
10872, 6462, 6417, 6442
10873, 6411, 6416, 6414
10874, 6450, 6458, 6449
10875, 6419, 6408, 6407
10876, 6427, 6428, 6432
10877, 6386, 6411, 6414
10878, 6407, 6386, 6419
10879, 6423, 1290, 6437
10880, 6423, 6443, 6421
10881, 6431, 6438, 6427
10882, 6386, 6414, 6415
10883, 6420, 6430, 6434
10884, 6415, 6428, 6427
10885, 6460, 6441, 6468
10886, 6382, 6423, 6421
10887, 6424, 6432, 6428
10888, 6415, 6414, 6428
10889, 6420, 6427, 6430
10890, 6471, 6404, 6452
10891, 6459, 6448, 6447
10892, 6414, 6416, 6435
10893, 6427, 6420, 6431
10894, 6430, 6446, 6434
10895, 6459, 6438, 6431
10896, 6507, 6519, 6531
10897, 6433, 6457, 6434
10898, 6425, 6430, 6432
10899, 6432, 6430, 6427
10900, 6433, 6434, 6441
10901, 6457, 6467, 6426
10902, 6446, 6430, 6425
10903, 6442, 6461, 6462
10904, 6472, 6435, 6416
10905, 6428, 6435, 6424
10906, 6481, 6361, 6484
10907, 6418, 6444, 6397
10908, 1290, 6429, 6437
10909, 6437, 6429, 6483
10910, 6422, 6438, 6382
10911, 6427, 6438, 6415
10912, 6447, 1290, 6423
10913, 6445, 1290, 6447
10914, 6449, 6426, 6445
10915, 6420, 6450, 6431
10916, 6470, 6425, 6432
10917, 6441, 6425, 6451
10918, 6382, 6459, 6423
10919, 6508, 6527, 6511
10920, 6437, 6443, 6423
10921, 6444, 6443, 6436
10922, 6421, 6444, 6418
10923, 6484, 6490, 6483
10924, 6445, 6447, 6448
10925, 6425, 6441, 6446
10926, 6512, 6551, 6501
10927, 6451, 6456, 6468
10928, 6459, 6382, 6438
10929, 6420, 6458, 6450
10930, 6445, 6448, 6449
10931, 6450, 6449, 6448
10932, 6431, 6450, 6448
10933, 6458, 6434, 6457
10934, 6424, 6470, 6432
10935, 6456, 6451, 6439
10936, 6473, 6424, 6435
10937, 6491, 6533, 6514
10938, 6508, 6515, 6491
10939, 6460, 6433, 6441
10940, 6425, 6454, 6451
10941, 6474, 6406, 6455
10942, 6460, 6465, 6433
10943, 6455, 6439, 6454
10944, 6456, 6439, 6507
10945, 6456, 6453, 6468
10946, 6461, 6457, 6433
10947, 6426, 6449, 6458
10948, 6434, 6458, 6420
10949, 6458, 6457, 6426
10950, 6448, 6459, 6431
10951, 6423, 6459, 6447
10952, 6466, 6453, 6528
10953, 6466, 6494, 6465
10954, 6465, 6461, 6433
10955, 6467, 6461, 6442
10956, 6497, 6496, 6494
10957, 6466, 6440, 6494
10958, 6417, 6462, 6464
10959, 6465, 6464, 6462
10960, 6417, 6464, 6496
10961, 6465, 6462, 6461
10962, 6465, 6460, 6466
10963, 6453, 6466, 6460
10964, 6504, 6495, 6440
10965, 6468, 6441, 6451
10966, 6461, 6467, 6457
10967, 6453, 6460, 6468
10968, 6454, 6470, 6469
10969, 6472, 6416, 6413
10970, 6425, 6470, 6454
10971, 6472, 6473, 6435
10972, 6452, 6469, 6471
10973, 6473, 6469, 6470
10974, 6404, 6472, 6413
10975, 6472, 6471, 6473
10976, 6469, 6473, 6471
10977, 6424, 6473, 6470
10978, 6320, 6475, 6311
10979, 6469, 6474, 6455
10980, 6476, 6475, 6321
10981, 6476, 6321, 6327
10982, 6335, 6476, 6336
10983, 6357, 6477, 6349
10984, 6335, 6477, 6358
10985, 6374, 6371, 6478
10986, 6390, 6478, 6371
10987, 6398, 6485, 6391
10988, 6370, 6541, 6540
10989, 6489, 6487, 6480
10990, 6484, 6487, 6489
10991, 6444, 6482, 6397
10992, 6481, 6484, 6483
10993, 6482, 6486, 6485
10994, 6437, 6483, 6436
10995, 6484, 6361, 6487
10996, 6489, 6490, 6484
10997, 6397, 6482, 6485
10998, 6482, 6489, 6486
10999, 6480, 6542, 6544
11000, 6391, 6485, 6486
11001, 6479, 6543, 6488
11002, 6543, 6540, 6541
11003, 6486, 6489, 6480
11004, 6487, 6361, 6488
11005, 6490, 6489, 6482
11006, 6482, 6436, 6490
11007, 6483, 6490, 6436
11008, 6514, 6525, 6491
11009, 6493, 6498, 6463
11010, 6464, 6465, 6494
11011, 6503, 6440, 6528
11012, 6520, 6502, 6522
11013, 6494, 6440, 6495
11014, 6502, 6512, 6509
11015, 6496, 6497, 6493
11016, 6497, 6494, 6495
11017, 6417, 6496, 6493
11018, 6492, 6499, 6495
11019, 6499, 6501, 6463
11020, 6493, 6497, 6498
11021, 6499, 6498, 6497
11022, 6495, 6499, 6497
11023, 6499, 6492, 6501
11024, 6545, 6513, 6500
11025, 6501, 6513, 6545
11026, 6492, 6509, 6512
11027, 6504, 6506, 6495
11028, 6495, 6506, 6492
11029, 6549, 6547, 6548
11030, 6453, 6507, 6503
11031, 6463, 6498, 6499
11032, 6504, 6440, 6503
11033, 6453, 6456, 6507
11034, 6491, 6515, 6517
11035, 6505, 6511, 6506
11036, 6492, 6506, 6509
11037, 6517, 6515, 6510
11038, 6516, 6527, 6539
11039, 6508, 6511, 6515
11040, 6505, 6506, 6504
11041, 6529, 6530, 6532
11042, 6503, 6510, 6505
11043, 6455, 6406, 6529
11044, 6491, 6517, 6533
11045, 6531, 6517, 6510
11046, 6505, 6504, 6503
11047, 6502, 6551, 6512
11048, 6492, 6512, 6501
11049, 6521, 6531, 6532
11050, 6500, 6513, 6546
11051, 6511, 6509, 6506
11052, 6503, 6507, 6510
11053, 6558, 6556, 6518
11054, 6515, 6505, 6510
11055, 6519, 6507, 6439
11056, 6522, 6516, 6556
11057, 6511, 6522, 6509
11058, 6524, 6508, 6491
11059, 6526, 6535, 6518
11060, 6511, 6516, 6522
11061, 6455, 6519, 6439
11062, 6539, 6526, 6518
11063, 6549, 6557, 6547
11064, 6500, 6546, 6396
11065, 6505, 6515, 6511
11066, 6502, 6509, 6522
11067, 6525, 6523, 6524
11068, 6524, 6523, 6526
11069, 6511, 6527, 6516
11070, 6405, 6535, 6534
11071, 6491, 6525, 6524
11072, 6526, 6534, 6535
11073, 6508, 6524, 6527
11074, 6539, 6524, 6526
11075, 6466, 6528, 6440
11076, 6453, 6503, 6528
11077, 6521, 6517, 6531
11078, 6519, 6455, 6529
11079, 6507, 6531, 6510
11080, 6529, 6406, 6530
11081, 6519, 6529, 6532
11082, 6521, 6532, 6530
11083, 6519, 6532, 6531
11084, 6868, 6615, 6554
11085, 6517, 6521, 6533
11086, 6526, 6523, 6534
11087, 6537, 6518, 6535
11088, 6552, 6396, 6546
11089, 6561, 6567, 6559
11090, 7237, 6548, 6547
11091, 6571, 6570, 6564
11092, 6574, 6582, 6586
11093, 6539, 6518, 6556
11094, 6524, 6539, 6527
11095, 6370, 6380, 6541
11096, 6479, 6295, 6540
11097, 6380, 6375, 6542
11098, 6487, 6543, 6480
11099, 6544, 6542, 6387
11100, 6543, 6542, 6480
11101, 6543, 6487, 6488
11102, 6542, 6543, 6541
11103, 6544, 6387, 6389
11104, 6480, 6544, 6486
11105, 6500, 6463, 6545
11106, 6463, 6501, 6545
11107, 6557, 6549, 6520
11108, 6546, 6513, 6548
11109, 6558, 6537, 6563
11110, 6594, 6593, 6574
11111, 6548, 6551, 6549
11112, 6558, 6555, 6557
11113, 6551, 6548, 6513
11114, 6502, 6520, 6549
11115, 7238, 6552, 7237
11116, 7236, 7238, 7239
11117, 6551, 6513, 6501
11118, 6502, 6549, 6551
11119, 6548, 6552, 6546
11120, 7235, 6598, 6553
11121, 7237, 6547, 6561
11122, 6539, 6556, 6516
11123, 6562, 6572, 6567
11124, 6547, 6557, 6561
11125, 6555, 6561, 6557
11126, 6560, 6572, 6568
11127, 6556, 6558, 6520
11128, 6520, 6558, 6557
11129, 6518, 6537, 6558
11130, 6555, 6563, 6562
11131, 6599, 6600, 6588
11132, 6569, 6560, 6568
11133, 6577, 6560, 6569
11134, 6567, 6561, 6555
11135, 6559, 7235, 7237
11136, 6535, 6405, 6565
11137, 6568, 6572, 6562
11138, 6558, 6563, 6555
11139, 6537, 6562, 6563
11140, 6570, 6565, 6564
11141, 6537, 6535, 6565
11142, 6569, 6568, 6571
11143, 6565, 6405, 6564
11144, 6577, 6592, 6560
11145, 6599, 6588, 6596
11146, 6562, 6567, 6555
11147, 6559, 6567, 6566
11148, 6570, 6562, 6537
11149, 6571, 6568, 6570
11150, 6582, 6578, 6580
11151, 6587, 6575, 6576
11152, 6570, 6568, 6562
11153, 6564, 6538, 6571
11154, 6569, 6571, 6538
11155, 6592, 6572, 6560
11156, 6567, 6572, 6566
11157, 6576, 6578, 6582
11158, 6569, 6538, 6575
11159, 6598, 6601, 6553
11160, 6538, 6573, 6575
11161, 6576, 6575, 6573
11162, 6578, 6576, 6573
11163, 6576, 6574, 6577
11164, 6569, 6575, 6587
11165, 6593, 6592, 6577
11166, 6573, 6536, 6578
11167, 6578, 6536, 6580
11168, 6627, 6661, 6610
11169, 6584, 6586, 6605
11170, 6603, 6585, 6583
11171, 6582, 6580, 6579
11172, 6591, 6605, 6606
11173, 6585, 6579, 6580
11174, 6576, 6582, 6574
11175, 6602, 6585, 6603
11176, 6589, 6583, 6585
11177, 6621, 6601, 6622
11178, 6589, 6580, 6536
11179, 6604, 6590, 6603
11180, 6606, 6582, 6579
11181, 6592, 6566, 6572
11182, 6576, 6577, 6587
11183, 6569, 6587, 6577
11184, 6594, 6588, 6593
11185, 6594, 6596, 6588
11186, 6395, 6877, 6894
11187, 6580, 6589, 6585
11188, 6608, 6615, 6868
11189, 6585, 6602, 6579
11190, 6612, 6610, 6614
11191, 6593, 6577, 6574
11192, 6592, 6588, 6600
11193, 6594, 6574, 6586
11194, 6588, 6592, 6593
11195, 6584, 6597, 6586
11196, 6601, 6550, 6553
11197, 6597, 6596, 6594
11198, 6597, 6635, 6634
11199, 6594, 6586, 6597
11200, 6596, 6634, 6599
11201, 6619, 6611, 6613
11202, 6622, 6595, 6621
11203, 6601, 6598, 6599
11204, 6600, 6559, 6566
11205, 6635, 6622, 6634
11206, 6600, 6599, 6598
11207, 6559, 6600, 6598
11208, 6600, 6566, 6592
11209, 6584, 6605, 6611
11210, 7239, 7234, 6620
11211, 6623, 6627, 6610
11212, 6606, 6609, 6591
11213, 6604, 6581, 6628
11214, 6602, 6603, 6590
11215, 6606, 6605, 6586
11216, 6603, 6583, 6604
11217, 6611, 6605, 6591
11218, 6582, 6606, 6586
11219, 6609, 6606, 6579
11220, 6609, 6610, 6612
11221, 6613, 6616, 6617
11222, 6619, 6635, 6584
11223, 6579, 6602, 6609
11224, 6590, 6623, 6602
11225, 6610, 6609, 6602
11226, 6602, 6623, 6610
11227, 6612, 6611, 6591
11228, 6614, 6611, 6612
11229, 6609, 6612, 6591
11230, 6627, 6623, 6629
11231, 6618, 6611, 6614
11232, 6619, 6613, 6608
11233, 6608, 6613, 6615
11234, 6641, 6625, 6639
11235, 6618, 6616, 6613
11236, 6616, 6663, 6617
11237, 6615, 6617, 6554
11238, 7240, 6662, 6616
11239, 6662, 6663, 6616
11240, 6611, 6618, 6613
11241, 6637, 6662, 6641
11242, 6619, 6608, 6635
11243, 6611, 6619, 6584
11244, 7234, 7235, 6553
11245, 6598, 7235, 6559
11246, 6595, 6550, 6621
11247, 6550, 6601, 6621
11248, 6622, 6601, 6634
11249, 6622, 6608, 6868
11250, 6628, 6624, 6626
11251, 6626, 6623, 6590
11252, 6629, 6624, 6632
11253, 6625, 6629, 6633
11254, 6627, 6629, 6625
11255, 6614, 6661, 6641
11256, 6628, 6626, 6590
11257, 6626, 6624, 6629
11258, 6629, 6623, 6626
11259, 6627, 6625, 6661
11260, 6604, 6628, 6590
11261, 6581, 6869, 6893
11262, 6875, 6876, 6874
11263, 6633, 6629, 6632
11264, 6685, 6659, 6676
11265, 6637, 6639, 6640
11266, 6896, 6632, 6624
11267, 6636, 6631, 6875
11268, 6581, 6893, 6628
11269, 6633, 6632, 6631
11270, 6633, 6631, 6636
11271, 7240, 6616, 6618
11272, 6599, 6634, 6601
11273, 6597, 6634, 6596
11274, 6635, 6597, 6584
11275, 6608, 6622, 6635
11276, 6642, 6636, 6644
11277, 6664, 6642, 6638
11278, 6625, 6633, 6639
11279, 6633, 6640, 6639
11280, 6673, 6671, 6643
11281, 6647, 6653, 6664
11282, 6640, 6633, 6636
11283, 6639, 6637, 6641
11284, 6636, 6642, 6640
11285, 6650, 6401, 6649
11286, 6637, 6666, 6662
11287, 6663, 6554, 6617
11288, 6644, 6636, 6630
11289, 6657, 6656, 6655
11290, 6638, 6650, 6664
11291, 6665, 6666, 6653
11292, 6732, 6749, 6774
11293, 6638, 6642, 6644
11294, 6737, 6745, 6732
11295, 6671, 6675, 6643
11296, 6722, 6746, 6686
11297, 6650, 6655, 6401
11298, 6650, 6649, 6664
11299, 6660, 6673, 6643
11300, 6673, 6657, 6671
11301, 6637, 6640, 6653
11302, 6642, 6653, 6640
11303, 6657, 6655, 6650
11304, 6401, 6655, 6648
11305, 6657, 6654, 6671
11306, 6648, 6655, 6656
11307, 6638, 6644, 6654
11308, 6654, 6871, 6675
11309, 6657, 6650, 6638
11310, 6658, 6648, 6656
11311, 6657, 6638, 6654
11312, 6666, 6665, 6607
11313, 6872, 6873, 6871
11314, 6683, 6674, 6680
11315, 6648, 6658, 6651
11316, 6870, 6678, 6677
11317, 6660, 6643, 6676
11318, 6643, 6675, 6667
11319, 6675, 6680, 6667
11320, 6661, 6614, 6610
11321, 6625, 6641, 6661
11322, 7241, 6663, 6662
11323, 6614, 7240, 6618
11324, 7240, 6614, 6641
11325, 6666, 6607, 6662
11326, 6647, 6664, 6649
11327, 6642, 6664, 6653
11328, 6617, 6615, 6613
11329, 6653, 6647, 6665
11330, 6637, 6653, 6666
11331, 6700, 6690, 6704
11332, 6643, 6667, 6676
11333, 6654, 6675, 6671
11334, 6673, 6658, 6656
11335, 6657, 6673, 6656
11336, 6754, 6748, 6677
11337, 6698, 6880, 6879
11338, 6660, 6658, 6673
11339, 6870, 6660, 6678
11340, 6651, 6658, 6660
11341, 6870, 6677, 6670
11342, 6652, 6682, 6697
11343, 6754, 6678, 6659
11344, 6695, 6713, 6750
11345, 6676, 6667, 6685
11346, 6659, 6687, 6754
11347, 6676, 6678, 6660
11348, 6669, 6691, 6693
11349, 6685, 6687, 6659
11350, 6659, 6678, 6676
11351, 6688, 6687, 6679
11352, 6667, 6680, 6682
11353, 6675, 6871, 6683
11354, 6680, 6674, 6682
11355, 6871, 6873, 6681
11356, 6880, 6681, 7244
11357, 6697, 6682, 6674
11358, 6652, 6679, 6682
11359, 6675, 6683, 6680
11360, 6878, 6681, 6873
11361, 6873, 6874, 6878
11362, 6879, 6669, 6698
11363, 6682, 6685, 6667
11364, 6687, 6685, 6679
11365, 6690, 6694, 6688
11366, 6692, 6695, 6686
11367, 6688, 6679, 6652
11368, 6695, 6750, 6686
11369, 6690, 6688, 6652
11370, 6690, 6692, 6694
11371, 6730, 6714, 6728
11372, 6668, 6700, 6704
11373, 6693, 6705, 6697
11374, 6692, 6690, 6689
11375, 6698, 6693, 6697
11376, 6668, 6704, 6882
11377, 6700, 6703, 6702
11378, 6694, 6692, 6686
11379, 6780, 6752, 6747
11380, 6886, 6645, 6744
11381, 6746, 6694, 6686
11382, 6688, 6694, 6687
11383, 6708, 6692, 6689
11384, 6702, 6689, 6700
11385, 6698, 6697, 6674
11386, 6652, 6704, 6690
11387, 6669, 6693, 6698
11388, 6683, 6880, 6674
11389, 6704, 6652, 6705
11390, 6710, 6695, 6708
11391, 6687, 6694, 6746
11392, 6752, 6733, 6736
11393, 6690, 6700, 6689
11394, 6707, 6696, 6715
11395, 6703, 6701, 6702
11396, 6689, 6702, 6708
11397, 6691, 6705, 6693
11398, 6700, 6668, 6703
11399, 6882, 6705, 6691
11400, 6697, 6705, 6652
11401, 6695, 6710, 6713
11402, 6726, 6712, 6714
11403, 6724, 6718, 6715
11404, 6708, 6695, 6692
11405, 6701, 6707, 6716
11406, 6718, 6710, 6711
11407, 6716, 6711, 6702
11408, 6724, 6723, 6718
11409, 6711, 6710, 6708
11410, 6713, 6710, 6730
11411, 6702, 6711, 6708
11412, 6715, 6711, 6716
11413, 6696, 6724, 6715
11414, 6772, 6773, 6743
11415, 6730, 6710, 6709
11416, 6780, 6729, 6752
11417, 6750, 6722, 6686
11418, 6758, 6740, 6885
11419, 6710, 6718, 6709
11420, 6701, 6716, 6702
11421, 6707, 6715, 6716
11422, 6723, 6709, 6718
11423, 6726, 6709, 6723
11424, 6711, 6715, 6718
11425, 6724, 6756, 6735
11426, 6729, 6737, 6731
11427, 6728, 6714, 6775
11428, 6730, 6726, 6714
11429, 6774, 6720, 6763
11430, 6714, 6712, 6725
11431, 6722, 6750, 6885
11432, 6757, 6762, 6760
11433, 6713, 6758, 6750
11434, 6735, 6756, 6719
11435, 6727, 6726, 6717
11436, 6717, 6723, 6724
11437, 6727, 6734, 6712
11438, 6762, 6757, 6742
11439, 6717, 6726, 6723
11440, 6734, 6742, 6757
11441, 6717, 6733, 6731
11442, 6727, 6717, 6731
11443, 6775, 6714, 6725
11444, 6744, 6748, 6721
11445, 6733, 6752, 6729
11446, 6757, 6712, 6734
11447, 6761, 6646, 6759
11448, 6726, 6730, 6709
11449, 6724, 6735, 6717
11450, 6737, 6734, 6727
11451, 6745, 6737, 6741
11452, 6758, 6730, 6728
11453, 6752, 6736, 6672
11454, 6729, 6731, 6733
11455, 6737, 6727, 6731
11456, 6757, 6760, 6725
11457, 6719, 6733, 6735
11458, 6717, 6735, 6733
11459, 6741, 6737, 6729
11460, 6733, 6719, 6736
11461, 6732, 6734, 6737
11462, 6725, 6760, 6764
11463, 6728, 6740, 6758
11464, 6754, 6677, 6678
11465, 6779, 6767, 6751
11466, 6742, 6734, 6732
11467, 6744, 6670, 6748
11468, 6732, 6774, 6742
11469, 6778, 6782, 6783
11470, 6722, 6721, 6746
11471, 6887, 6720, 6749
11472, 6720, 6743, 6763
11473, 6752, 6672, 6747
11474, 6863, 6816, 6812
11475, 6776, 6767, 6768
11476, 6670, 6677, 6748
11477, 6732, 6745, 6749
11478, 6687, 6746, 6754
11479, 6741, 6779, 6745
11480, 6887, 6749, 6745
11481, 6780, 6767, 6779
11482, 6743, 6770, 6763
11483, 6887, 6786, 6766
11484, 6786, 6785, 6766
11485, 6789, 6795, 6792
11486, 6754, 6746, 6748
11487, 6726, 6727, 6712
11488, 6672, 6768, 6747
11489, 6725, 6712, 6757
11490, 6763, 6770, 6646
11491, 6760, 6762, 6761
11492, 6822, 6816, 6817
11493, 6886, 6883, 6645
11494, 6670, 6744, 6645
11495, 6885, 6740, 6884
11496, 6769, 6792, 6795
11497, 6748, 6746, 6721
11498, 6764, 6760, 6759
11499, 6724, 6696, 6756
11500, 6761, 6759, 6760
11501, 6758, 6713, 6730
11502, 6765, 6884, 6740
11503, 6725, 6764, 6765
11504, 6762, 6742, 6774
11505, 6646, 6761, 6763
11506, 6763, 6761, 6762
11507, 6759, 6706, 6764
11508, 6764, 6706, 6765
11509, 6706, 6884, 6765
11510, 6740, 6728, 6775
11511, 6887, 6751, 6786
11512, 6699, 6773, 6771
11513, 6720, 6888, 6772
11514, 6769, 6771, 6773
11515, 6767, 6776, 6783
11516, 6767, 6747, 6768
11517, 6772, 6743, 6720
11518, 6743, 6699, 6770
11519, 6743, 6773, 6699
11520, 6888, 6792, 6772
11521, 6769, 6755, 6771
11522, 6769, 6773, 6772
11523, 6720, 6774, 6749
11524, 6762, 6774, 6763
11525, 6725, 6765, 6775
11526, 6740, 6775, 6765
11527, 6768, 6739, 6776
11528, 6739, 6778, 6776
11529, 6787, 6778, 6739
11530, 6791, 6790, 6784
11531, 6778, 6784, 6777
11532, 6782, 6778, 6777
11533, 6745, 6779, 6751
11534, 6741, 6729, 6780
11535, 6767, 6780, 6747
11536, 6780, 6779, 6741
11537, 6782, 6777, 6785
11538, 6787, 6781, 6784
11539, 6783, 6751, 6767
11540, 6778, 6783, 6776
11541, 6751, 6783, 6782
11542, 6738, 6788, 6889
11543, 6784, 6781, 6791
11544, 6790, 6777, 6784
11545, 6766, 6785, 6789
11546, 6751, 6782, 6786
11547, 6785, 6786, 6782
11548, 6800, 6788, 6804
11549, 6778, 6787, 6784
11550, 6796, 6785, 6797
11551, 6802, 6797, 6790
11552, 6795, 6755, 6769
11553, 6790, 6800, 6802
11554, 6821, 6789, 6796
11555, 6889, 6791, 6781
11556, 6790, 6791, 6788
11557, 6772, 6792, 6769
11558, 6766, 6789, 6792
11559, 6789, 6785, 6796
11560, 6831, 6825, 6827
11561, 6800, 6790, 6788
11562, 6817, 6814, 6851
11563, 6821, 6795, 6789
11564, 6821, 6851, 7243
11565, 6797, 6785, 6777
11566, 6794, 6817, 6821
11567, 6790, 6797, 6777
11568, 6794, 6796, 6797
11569, 6808, 6805, 6799
11570, 6825, 6832, 6827
11571, 6804, 6788, 6738
11572, 6803, 6802, 6799
11573, 6804, 6809, 6808
11574, 6802, 6800, 6799
11575, 6811, 6815, 6809
11576, 6804, 6799, 6800
11577, 6803, 6799, 6805
11578, 6802, 6794, 6797
11579, 6812, 6803, 6798
11580, 6803, 6812, 6816
11581, 6815, 6805, 6808
11582, 6808, 6799, 6804
11583, 6798, 6803, 6805
11584, 6801, 6811, 6807
11585, 6815, 6811, 6828
11586, 6811, 6806, 6807
11587, 6862, 6863, 6850
11588, 6810, 6806, 6809
11589, 6810, 6804, 6738
11590, 6826, 6828, 6793
11591, 6809, 6806, 6811
11592, 6804, 6810, 6809
11593, 6815, 6808, 6809
11594, 6833, 6818, 6830
11595, 6859, 6812, 6798
11596, 6798, 6815, 6819
11597, 6851, 6821, 6817
11598, 6891, 6892, 961
11599, 6802, 6803, 6822
11600, 6859, 6798, 6818
11601, 6819, 6826, 6830
11602, 6859, 6833, 6850
11603, 6817, 6816, 6814
11604, 6851, 6814, 6852
11605, 6822, 6794, 6802
11606, 6805, 6815, 6798
11607, 6819, 6818, 6798
11608, 6793, 6811, 6801
11609, 6826, 6819, 6828
11610, 6837, 6827, 6835
11611, 6794, 6821, 6796
11612, 6816, 6822, 6803
11613, 6794, 6822, 6817
11614, 6836, 6838, 6830
11615, 6845, 6833, 6844
11616, 6819, 6830, 6818
11617, 6853, 6844, 6840
11618, 6795, 7242, 6755
11619, 6829, 6834, 6835
11620, 6831, 6793, 6801
11621, 6823, 6829, 6897
11622, 6815, 6828, 6819
11623, 6793, 6828, 6811
11624, 6841, 6829, 6823
11625, 6848, 6844, 6853
11626, 6827, 6832, 6835
11627, 6826, 6793, 6837
11628, 6833, 6830, 6838
11629, 6793, 6831, 6827
11630, 6834, 6840, 6838
11631, 6836, 6830, 6826
11632, 6845, 6850, 6833
11633, 6835, 6832, 6890
11634, 6890, 6829, 6835
11635, 6836, 6826, 6837
11636, 6835, 6834, 6836
11637, 6836, 6834, 6838
11638, 6827, 6837, 6793
11639, 6836, 6837, 6835
11640, 6847, 6839, 6846
11641, 6838, 6844, 6833
11642, 6824, 6862, 6861
11643, 6854, 6855, 6848
11644, 6841, 6840, 6834
11645, 6840, 6841, 6846
11646, 6897, 6890, 6843
11647, 6840, 6844, 6838
11648, 6849, 6866, 6839
11649, 6845, 6844, 6848
11650, 6843, 6890, 6891
11651, 6829, 6841, 6834
11652, 6841, 6847, 6846
11653, 6846, 6839, 6866
11654, 6824, 6861, 6860
11655, 6847, 6841, 6823
11656, 6842, 6858, 6857
11657, 6855, 6854, 6813
11658, 6857, 6856, 962
11659, 6858, 6842, 6854
11660, 6864, 6855, 6813
11661, 6861, 6862, 6850
11662, 6865, 6814, 6863
11663, 6820, 7242, 7243
11664, 6753, 6820, 6852
11665, 6820, 6851, 6852
11666, 6866, 6840, 6846
11667, 6853, 6866, 6858
11668, 6753, 6865, 6867
11669, 6858, 6854, 6848
11670, 6845, 6848, 6855
11671, 6853, 6858, 6848
11672, 6849, 6839, 6856
11673, 6856, 6857, 6849
11674, 6857, 6858, 6849
11675, 6833, 6859, 6818
11676, 6863, 6859, 6850
11677, 6813, 6860, 6864
11678, 6845, 6855, 6864
11679, 6845, 6861, 6850
11680, 6852, 6865, 6753
11681, 6816, 6863, 6814
11682, 6863, 6812, 6859
11683, 6863, 6862, 6865
11684, 6860, 6861, 6864
11685, 6845, 6864, 6861
11686, 6814, 6865, 6852
11687, 6867, 6865, 6862
11688, 6858, 6866, 6849
11689, 6840, 6866, 6853
11690, 6554, 6595, 6868
11691, 6862, 6824, 6867
11692, 6622, 6868, 6595
11693, 6896, 6869, 6894
11694, 6877, 6395, 6881
11695, 6670, 6651, 6870
11696, 6660, 6870, 6651
11697, 6654, 6644, 6872
11698, 6683, 6871, 6681
11699, 6872, 6630, 6873
11700, 6654, 6872, 6871
11701, 6630, 6874, 6873
11702, 6895, 6874, 6876
11703, 6875, 6874, 6630
11704, 6395, 6894, 6869
11705, 6636, 6875, 6630
11706, 6876, 6875, 6631
11707, 6632, 6876, 6631
11708, 6624, 6893, 6896
11709, 6881, 6878, 6877
11710, 6874, 6877, 6878
11711, 6674, 6880, 6698
11712, 7244, 6879, 6880
11713, 6684, 6669, 6879
11714, 6683, 6681, 6880
11715, 7244, 6681, 6878
11716, 6395, 6684, 6881
11717, 6881, 6684, 7244
11718, 6706, 6883, 6884
11719, 6705, 6882, 6704
11720, 6721, 6885, 6886
11721, 6885, 6884, 6883
11722, 6722, 6885, 6721
11723, 6885, 6750, 6758
11724, 6721, 6886, 6744
11725, 6883, 6886, 6885
11726, 6888, 6887, 6766
11727, 6745, 6751, 6887
11728, 6792, 6888, 6766
11729, 6720, 6887, 6888
11730, 6843, 6891, 961
11731, 6791, 6889, 6788
11732, 6890, 6832, 6891
11733, 6892, 6832, 6825
11734, 6877, 6895, 6894
11735, 6832, 6892, 6891
11736, 6624, 6628, 6893
11737, 6876, 6632, 6896
11738, 6874, 6895, 6877
11739, 6896, 6895, 6876
11740, 6869, 6896, 6893
11741, 6896, 6894, 6895
11742, 4363, 6904, 6903
11743, 6890, 6897, 6829
11744, 4400, 4337, 6920
11745, 4368, 6899, 4365
11746, 6903, 6899, 4363
11747, 6937, 6909, 6940
11748, 6903, 6900, 6917
11749, 6923, 6905, 6911
11750, 6923, 6926, 6910
11751, 6905, 6910, 6907
11752, 6925, 6924, 5331
11753, 4363, 4367, 6904
11754, 6917, 6900, 6907
11755, 6933, 6904, 4366
11756, 6900, 6903, 6904
11757, 6935, 6971, 6963
11758, 6936, 6900, 6932
11759, 6906, 5331, 6898
11760, 6911, 4104, 6923
11761, 6935, 6963, 6958
11762, 6924, 6922, 6902
11763, 7033, 6978, 7014
11764, 6912, 6965, 6980
11765, 6937, 6928, 6957
11766, 6910, 6917, 6907
11767, 6931, 6920, 6901
11768, 6901, 6929, 6921
11769, 6916, 6911, 6927
11770, 6937, 6927, 6909
11771, 6911, 6905, 6927
11772, 6960, 6964, 6959
11773, 6934, 6941, 6943
11774, 6914, 4104, 6915
11775, 6916, 6915, 6911
11776, 6954, 6956, 6928
11777, 6916, 6957, 6959
11778, 6903, 6917, 5331
11779, 6929, 6906, 6898
11780, 6919, 6918, 6901
11781, 6920, 6919, 6901
11782, 4369, 6919, 4337
11783, 6948, 6931, 6921
11784, 4400, 6920, 4325
11785, 6949, 6902, 6948
11786, 6949, 6898, 6902
11787, 4104, 5334, 6923
11788, 6902, 6922, 6947
11789, 6923, 5334, 6926
11790, 6925, 5331, 6917
11791, 6920, 6931, 6946
11792, 6926, 6925, 6910
11793, 6924, 6925, 6922
11794, 6947, 6926, 5334
11795, 6925, 6926, 6922
11796, 6907, 6927, 6905
11797, 6938, 7092, 6937
11798, 7092, 6950, 6954
11799, 6927, 6937, 6916
11800, 6921, 6931, 6901
11801, 6931, 4105, 6946
11802, 6940, 6932, 6944
11803, 6937, 6957, 6916
11804, 6948, 6921, 6949
11805, 6918, 6929, 6901
11806, 6933, 6900, 6904
11807, 4366, 6934, 6933
11808, 4366, 4371, 6934
11809, 6900, 6933, 6932
11810, 6957, 6928, 6956
11811, 6934, 6943, 6945
11812, 6909, 6936, 6940
11813, 6940, 6936, 6932
11814, 6927, 6936, 6909
11815, 6900, 6936, 6907
11816, 6950, 6935, 6954
11817, 6943, 6941, 6942
11818, 6932, 6945, 6944
11819, 6934, 4112, 6941
11820, 6937, 6940, 6938
11821, 4112, 6939, 6941
11822, 6941, 6939, 6942
11823, 6939, 6951, 6942
11824, 7093, 6950, 7092
11825, 6944, 6943, 6942
11826, 6933, 6945, 6932
11827, 7093, 6944, 6942
11828, 6940, 6944, 6938
11829, 6934, 6945, 6933
11830, 6944, 6945, 6943
11831, 6920, 6946, 4325
11832, 4105, 6931, 6948
11833, 6902, 6898, 6924
11834, 6926, 6947, 6922
11835, 6921, 6929, 6949
11836, 6898, 6949, 6929
11837, 6953, 7093, 6942
11838, 6942, 6951, 6953
11839, 6939, 6908, 6951
11840, 6951, 6908, 6952
11841, 6973, 6971, 6985
11842, 6950, 6952, 6972
11843, 6951, 6952, 6953
11844, 7093, 6952, 6950
11845, 6956, 6954, 6958
11846, 7092, 6954, 6928
11847, 6958, 6955, 6956
11848, 6967, 6960, 6962
11849, 6958, 6954, 6935
11850, 6964, 6914, 6959
11851, 6956, 6955, 6962
11852, 6915, 6959, 6914
11853, 6971, 6973, 6981
11854, 6968, 6986, 6980
11855, 6916, 6959, 6915
11856, 6959, 6957, 6960
11857, 6962, 6957, 6956
11858, 6955, 6967, 6962
11859, 6993, 6995, 6984
11860, 6960, 6967, 6913
11861, 6970, 6965, 6969
11862, 6957, 6962, 6960
11863, 6975, 7094, 6974
11864, 6970, 6955, 6968
11865, 6908, 6966, 7094
11866, 6960, 6913, 6964
11867, 7002, 6981, 6973
11868, 6976, 6958, 6963
11869, 6980, 6965, 6968
11870, 6969, 6913, 6967
11871, 6976, 6955, 6958
11872, 6976, 6963, 6977
11873, 6955, 6970, 6967
11874, 6970, 6969, 6967
11875, 6965, 6970, 6968
11876, 6972, 6971, 6935
11877, 6952, 6975, 6972
11878, 6950, 6972, 6935
11879, 6983, 6974, 6966
11880, 6971, 6972, 6974
11881, 6973, 6985, 6982
11882, 6963, 6981, 6977
11883, 6952, 6908, 7094
11884, 6983, 6984, 6982
11885, 6974, 6972, 6975
11886, 6955, 6976, 6968
11887, 6977, 6961, 6979
11888, 6976, 6977, 6986
11889, 6998, 7002, 6996
11890, 7144, 7188, 7151
11891, 6995, 6993, 6994
11892, 6986, 6987, 6980
11893, 6968, 6976, 6986
11894, 6989, 6987, 6986
11895, 6977, 6981, 6961
11896, 6971, 6981, 6963
11897, 7163, 7096, 7160
11898, 6996, 6995, 6994
11899, 6966, 6930, 6983
11900, 6983, 6930, 6984
11901, 6977, 6989, 6986
11902, 6973, 6982, 6984
11903, 6971, 6974, 6985
11904, 6974, 6983, 6982
11905, 6979, 6989, 6977
11906, 6979, 6987, 6989
11907, 7162, 7161, 6997
11908, 6912, 6980, 6987
11909, 6994, 7095, 7008
11910, 6974, 6982, 6985
11911, 7008, 7017, 7010
11912, 6979, 6997, 6987
11913, 7063, 7058, 7051
11914, 6998, 6979, 6961
11915, 6984, 6930, 6993
11916, 7054, 7053, 7060
11917, 6930, 6991, 6993
11918, 6994, 6993, 6991
11919, 7095, 6994, 6991
11920, 6996, 7000, 7001
11921, 7000, 6996, 6994
11922, 6984, 6995, 7002
11923, 6998, 6992, 6997
11924, 6961, 6981, 7002
11925, 6998, 6997, 6979
11926, 7005, 7162, 6992
11927, 7002, 6998, 6961
11928, 7001, 6998, 6996
11929, 7164, 7007, 7009
11930, 6987, 7160, 6912
11931, 7008, 7000, 6994
11932, 7001, 7000, 6990
11933, 7005, 7001, 6990
11934, 6998, 7001, 6992
11935, 6984, 7002, 6973
11936, 6995, 6996, 7002
11937, 7005, 6992, 7001
11938, 7003, 7047, 7051
11939, 7164, 7009, 7103
11940, 7033, 7055, 6978
11941, 7005, 6990, 7007
11942, 7099, 7061, 7053
11943, 7007, 7010, 7006
11944, 7061, 7039, 7060
11945, 7008, 7007, 6990
11946, 7009, 7007, 7006
11947, 7008, 6990, 7000
11948, 7006, 7010, 7012
11949, 7016, 7015, 7102
11950, 7014, 7032, 7033
11951, 7007, 7008, 7010
11952, 7017, 7011, 7012
11953, 7011, 7018, 7012
11954, 7010, 7017, 7012
11955, 7012, 7018, 7020
11956, 7021, 7018, 1286
11957, 6978, 7037, 7014
11958, 7033, 7045, 7044
11959, 7086, 7072, 7071
11960, 7016, 7009, 7006
11961, 7021, 7025, 7020
11962, 7020, 7006, 7012
11963, 7031, 7034, 7029
11964, 7008, 6988, 7017
11965, 6988, 7011, 7017
11966, 7011, 1286, 7018
11967, 7021, 7020, 7018
11968, 7297, 7295, 7311
11969, 7026, 7020, 7025
11970, 7149, 7145, 7170
11971, 7006, 7020, 7016
11972, 7039, 6978, 7038
11973, 7292, 7296, 7019
11974, 7036, 7015, 7026
11975, 7031, 7030, 7027
11976, 1286, 7027, 7028
11977, 7025, 7028, 7030
11978, 7025, 7021, 7028
11979, 7037, 7036, 7026
11980, 7021, 1286, 7028
11981, 7028, 7027, 7030
11982, 7069, 7072, 7086
11983, 7100, 7046, 7098
11984, 7031, 7027, 7022
11985, 7025, 7030, 7029
11986, 7037, 6978, 7036
11987, 7029, 7030, 7031
11988, 7111, 7109, 7081
11989, 7029, 7014, 7025
11990, 7071, 7056, 7068
11991, 7036, 6978, 7039
11992, 7089, 7022, 7088
11993, 7073, 7084, 7068
11994, 7029, 7034, 7032
11995, 7075, 7066, 7067
11996, 7037, 7026, 7025
11997, 6999, 1292, 7054
11998, 7014, 7029, 7032
11999, 7025, 7014, 7037
12000, 7077, 7058, 7084
12001, 6999, 7060, 7039
12002, 7048, 7055, 7044
12003, 7052, 7045, 7032
12004, 7038, 6999, 7039
12005, 7044, 7045, 7049
12006, 7033, 7032, 7045
12007, 7041, 7049, 7045
12008, 7003, 7044, 7047
12009, 7088, 7022, 7069
12010, 7076, 7065, 7064
12011, 7032, 7034, 7052
12012, 7044, 7003, 7048
12013, 7047, 7063, 7051
12014, 7076, 7055, 7048
12015, 7119, 7056, 7146
12016, 7050, 7074, 7051
12017, 7042, 7047, 7049
12018, 7049, 7047, 7044
12019, 7050, 7051, 7058
12020, 7083, 7043, 7074
12021, 7063, 7047, 7042
12022, 7059, 7078, 7079
12023, 7089, 7052, 7034
12024, 7045, 7052, 7041
12025, 7098, 7004, 7101
12026, 7036, 7061, 7015
12027, 1292, 7046, 7054
12028, 7054, 7046, 7100
12029, 6978, 7055, 7038
12030, 7044, 7055, 7033
12031, 7064, 1292, 6999
12032, 7062, 1292, 7064
12033, 7066, 7043, 7062
12034, 7003, 7067, 7048
12035, 7087, 7042, 7049
12036, 7042, 7068, 7058
12037, 7038, 7076, 6999
12038, 7119, 7070, 7073
12039, 7054, 7060, 6999
12040, 7061, 7060, 7053
12041, 7039, 7061, 7036
12042, 7101, 7107, 7100
12043, 7062, 7064, 7065
12044, 7042, 7058, 7063
12045, 7117, 7123, 7122
12046, 7079, 7035, 7059
12047, 7076, 7038, 7055
12048, 7003, 7075, 7067
12049, 7062, 7065, 7066
12050, 7067, 7066, 7065
12051, 7048, 7067, 7065
12052, 7075, 7051, 7074
12053, 7041, 7087, 7049
12054, 7073, 7068, 7056
12055, 7090, 7041, 7052
12056, 7072, 7146, 7056
12057, 7130, 7108, 7121
12058, 7077, 7050, 7058
12059, 7042, 7071, 7068
12060, 7091, 7024, 7072
12061, 7077, 7082, 7050
12062, 7072, 7056, 7071
12063, 7116, 7139, 7140
12064, 7073, 7070, 7084
12065, 7078, 7074, 7050
12066, 7043, 7066, 7075
12067, 7051, 7075, 7003
12068, 7075, 7074, 7043
12069, 7065, 7076, 7048
12070, 6999, 7076, 7064
12071, 7070, 7085, 7077
12072, 7111, 7082, 7085
12073, 7082, 7078, 7050
12074, 7083, 7078, 7059
12075, 7111, 7085, 7057
12076, 7110, 7109, 7113
12077, 7035, 7079, 7081
12078, 7082, 7081, 7079
12079, 7035, 7081, 7109
12080, 7082, 7079, 7078
12081, 7082, 7077, 7085
12082, 7084, 7058, 7068
12083, 7078, 7083, 7074
12084, 7070, 7077, 7084
12085, 7127, 7085, 7070
12086, 7110, 7113, 7115
12087, 7071, 7087, 7086
12088, 7089, 7034, 7031
12089, 7042, 7087, 7071
12090, 7089, 7090, 7052
12091, 7069, 7086, 7088
12092, 7090, 7086, 7087
12093, 7022, 7089, 7031
12094, 7089, 7088, 7090
12095, 7086, 7090, 7088
12096, 7041, 7090, 7087
12097, 6937, 7092, 6928
12098, 7072, 7069, 7091
12099, 7093, 7092, 6938
12100, 7093, 6938, 6944
12101, 6952, 7093, 6953
12102, 6974, 7094, 6966
12103, 6952, 7094, 6975
12104, 6991, 6988, 7095
12105, 7008, 7095, 6988
12106, 7016, 7102, 7009
12107, 6987, 7161, 7160
12108, 7106, 7104, 7097
12109, 7101, 7104, 7106
12110, 7061, 7099, 7015
12111, 7098, 7101, 7100
12112, 7099, 7103, 7102
12113, 7054, 7100, 7053
12114, 7101, 7004, 7104
12115, 7106, 7107, 7101
12116, 7015, 7099, 7102
12117, 7099, 7106, 7103
12118, 7097, 7162, 7164
12119, 7009, 7102, 7103
12120, 7096, 7163, 7105
12121, 7163, 7160, 7161
12122, 7103, 7106, 7097
12123, 7104, 7004, 7105
12124, 7107, 7106, 7099
12125, 7099, 7053, 7107
12126, 7100, 7107, 7053
12127, 7142, 7128, 7140
12128, 7120, 7123, 7126
12129, 7111, 7081, 7082
12130, 7139, 7127, 7138
12131, 7035, 7109, 7110
12132, 7114, 7113, 7109
12133, 7057, 7114, 7111
12134, 7118, 7112, 7114
12135, 7114, 7109, 7111
12136, 7115, 7113, 7112
12137, 7118, 7114, 7057
12138, 7112, 7113, 7114
12139, 7122, 7121, 7117
12140, 7110, 7115, 7080
12141, 7280, 7165, 7215
12142, 7123, 7125, 7122
12143, 7130, 7116, 7128
12144, 7126, 7040, 7120
12145, 7057, 7127, 7139
12146, 7118, 7116, 7130
12147, 7127, 7070, 7119
12148, 7134, 7144, 7133
12149, 7122, 7112, 7121
12150, 7080, 7115, 7122
12151, 7112, 7130, 7121
12152, 7138, 7127, 7119
12153, 7126, 7123, 7136
12154, 7122, 7115, 7112
12155, 7122, 7125, 7080
12156, 7134, 7117, 7121
12157, 7136, 7149, 7124
12158, 7136, 7123, 7117
12159, 7123, 7120, 7125
12160, 7126, 7124, 7175
12161, 7085, 7127, 7057
12162, 7119, 7073, 7056
12163, 7134, 7108, 7147
12164, 7116, 7140, 7128
12165, 7147, 7108, 7128
12166, 7128, 7108, 7130
12167, 7118, 7130, 7112
12168, 7157, 7119, 7146
12169, 7116, 7118, 7139
12170, 7149, 7136, 7133
12171, 7157, 7146, 7156
12172, 7145, 7193, 7176
12173, 7157, 7138, 7119
12174, 7217, 7216, 7023
12175, 7134, 7121, 7108
12176, 7117, 7134, 7133
12177, 7126, 7136, 7124
12178, 7144, 7134, 7147
12179, 7117, 7133, 7136
12180, 7204, 7198, 7206
12181, 7187, 7189, 7171
12182, 7139, 7138, 7129
12183, 7139, 7129, 7140
12184, 7139, 7118, 7057
12185, 7129, 7143, 7140
12186, 7147, 7135, 7144
12187, 7138, 7159, 7129
12188, 7141, 7280, 7215
12189, 7215, 7140, 7143
12190, 7135, 7142, 7165
12191, 7143, 7129, 7159
12192, 7143, 7141, 7215
12193, 7148, 7183, 7181
12194, 7150, 7145, 7149
12195, 7133, 7150, 7149
12196, 7219, 7282, 7283
12197, 7072, 7024, 7146
12198, 7157, 7156, 7132
12199, 7128, 7142, 7147
12200, 7135, 7147, 7142
12201, 7208, 7252, 7222
12202, 7218, 7195, 7166
12203, 7150, 7133, 7144
12204, 7208, 7178, 7174
12205, 7151, 7150, 7144
12206, 7183, 7180, 7179
12207, 7135, 7188, 7144
12208, 7165, 7217, 7135
12209, 7189, 7172, 7171
12210, 7145, 7181, 7170
12211, 7195, 7189, 7187
12212, 7181, 7145, 7176
12213, 7167, 7205, 7224
12214, 7193, 7145, 7150
12215, 7182, 7221, 7186
12216, 7158, 7157, 7132
12217, 7146, 7024, 7156
12218, 7157, 7159, 7138
12219, 7131, 7158, 7132
12220, 7141, 7143, 7159
12221, 7157, 7158, 7159
12222, 7159, 7158, 7141
12223, 6987, 6997, 7161
12224, 7096, 6912, 7160
12225, 6997, 6992, 7162
12226, 7104, 7163, 7097
12227, 7164, 7162, 7005
12228, 7163, 7162, 7097
12229, 7163, 7104, 7105
12230, 7162, 7163, 7161
12231, 7164, 7005, 7007
12232, 7097, 7164, 7103
12233, 7216, 7217, 7165
12234, 7142, 7215, 7165
12235, 7172, 7179, 7180
12236, 7170, 7124, 7149
12237, 7155, 7190, 7188
12238, 7184, 7040, 7175
12239, 7187, 7177, 7195
12240, 7200, 7204, 7192
12241, 7181, 7183, 7170
12242, 7137, 7183, 7179
12243, 7170, 7183, 7184
12244, 7205, 7254, 7282
12245, 7218, 7172, 7189
12246, 7171, 7172, 7152
12247, 7188, 7190, 7151
12248, 7281, 7286, 7224
12249, 7174, 7171, 7152
12250, 7152, 7192, 7174
12251, 7148, 7176, 7192
12252, 7126, 7175, 7040
12253, 7124, 7170, 7175
12254, 7263, 7247, 7355
12255, 7148, 7180, 7183
12256, 7262, 7263, 7355
12257, 7189, 7195, 7218
12258, 7171, 7178, 7187
12259, 7193, 7190, 7203
12260, 7172, 7180, 7152
12261, 7150, 7151, 7193
12262, 7193, 7151, 7190
12263, 7179, 7154, 7137
12264, 7193, 7203, 7200
12265, 7178, 7171, 7174
12266, 7166, 7195, 7194
12267, 7204, 7208, 7174
12268, 7170, 7184, 7175
12269, 7137, 7040, 7184
12270, 7137, 7184, 7183
12271, 7199, 7190, 7155
12272, 7198, 7203, 7211
12273, 7167, 7186, 7169
12274, 7186, 7187, 7182
12275, 7195, 7177, 7185
12276, 7204, 7174, 7192
12277, 7194, 7195, 7185
12278, 7217, 7188, 7135
12279, 7177, 7167, 7224
12280, 7187, 7186, 7177
12281, 7178, 7182, 7187
12282, 7167, 7177, 7186
12283, 7205, 7281, 7224
12284, 7199, 7202, 7211
12285, 7176, 7148, 7181
12286, 7172, 7154, 7179
12287, 7180, 7148, 7152
12288, 7148, 7192, 7152
12289, 7200, 7192, 7176
12290, 7153, 7166, 7194
12291, 7286, 7194, 7185
12292, 7213, 7167, 7169
12293, 7201, 7199, 7155
12294, 7197, 7199, 7201
12295, 7199, 7197, 7202
12296, 7193, 7200, 7176
12297, 7200, 7198, 7204
12298, 7155, 7023, 7201
12299, 7197, 7201, 7023
12300, 7173, 7207, 7210
12301, 7257, 7168, 7249
12302, 7190, 7199, 7211
12303, 7198, 7200, 7203
12304, 7258, 7169, 7246
12305, 7251, 7204, 7206
12306, 7256, 7212, 7248
12307, 7207, 7173, 7248
12308, 7207, 7198, 7202
12309, 7173, 7214, 7248
12310, 7198, 7207, 7206
12311, 7210, 7207, 7202
12312, 7209, 7245, 7272
12313, 7208, 7222, 7178
12314, 7267, 7268, 7266
12315, 7205, 7167, 7191
12316, 7198, 7211, 7202
12317, 7202, 7197, 7210
12318, 7190, 7211, 7203
12319, 7252, 7250, 7220
12320, 7220, 7246, 7221
12321, 7246, 7169, 7221
12322, 7281, 7205, 7282
12323, 7255, 7213, 7258
12324, 7204, 7251, 7208
12325, 7215, 7142, 7140
12326, 7141, 7131, 7280
12327, 7131, 7141, 7158
12328, 7023, 7155, 7217
12329, 7217, 7155, 7188
12330, 7166, 7154, 7218
12331, 7172, 7218, 7154
12332, 7253, 7255, 7258
12333, 7285, 7286, 7281
12334, 7220, 7221, 7222
12335, 7252, 7251, 7212
12336, 7186, 7221, 7169
12337, 7222, 7221, 7182
12338, 7178, 7222, 7182
12339, 7206, 7207, 7212
12340, 7185, 7177, 7224
12341, 7254, 7267, 7283
12342, 7213, 7191, 7167
12343, 7284, 7281, 7219
12344, 4613, 7225, 4494
12345, 4643, 4644, 7226
12346, 4663, 7226, 4660
12347, 4664, 7225, 7226
12348, 5478, 7227, 5471
12349, 5469, 7229, 5470
12350, 5472, 7229, 5469
12351, 5471, 7229, 5472
12352, 5470, 7229, 7228
12353, 5464, 7230, 5450
12354, 5452, 5461, 7230
12355, 5606, 7231, 5601
12356, 5611, 7231, 5607
12357, 5874, 5889, 7232
12358, 5939, 7232, 5889
12359, 6117, 7233, 6043
12360, 6125, 7233, 6095
12361, 6553, 6550, 7234
12362, 7237, 7235, 7238
12363, 6552, 7238, 6396
12364, 6548, 7237, 6552
12365, 6559, 7237, 6561
12366, 7238, 7236, 6396
12367, 7239, 7238, 7235
12368, 7234, 7239, 7235
12369, 7236, 7239, 6620
12370, 6662, 7240, 6641
12371, 6795, 6821, 7243
12372, 6662, 6607, 7241
12373, 6820, 6755, 7242
12374, 6820, 7243, 6851
12375, 6795, 7243, 7242
12376, 6881, 7244, 6878
12377, 6879, 7244, 6684
12378, 7262, 7249, 7168
12379, 7247, 7245, 7209
12380, 7246, 7250, 7253
12381, 7355, 7261, 7255
12382, 7267, 7254, 7260
12383, 7256, 7248, 7214
12384, 7207, 7248, 7212
12385, 7250, 7249, 7262
12386, 7251, 7252, 7208
12387, 7220, 7250, 7246
12388, 7355, 7209, 7261
12389, 7206, 7212, 7251
12390, 7212, 7256, 7252
12391, 7250, 7252, 7249
12392, 7222, 7252, 7220
12393, 7260, 7264, 7261
12394, 7284, 7196, 7223
12395, 7253, 7355, 7255
12396, 7205, 7191, 7254
12397, 7257, 7256, 7214
12398, 7213, 7255, 7264
12399, 7252, 7256, 7249
12400, 7169, 7258, 7213
12401, 7256, 7257, 7249
12402, 7253, 7258, 7246
12403, 7259, 7271, 7268
12404, 7191, 7260, 7254
12405, 7264, 7260, 7191
12406, 7290, 7270, 7265
12407, 7253, 7250, 7262
12408, 7260, 7261, 7259
12409, 7213, 7264, 7191
12410, 7209, 7259, 7261
12411, 7262, 7168, 7263
12412, 7261, 7264, 7255
12413, 7265, 7274, 7300
12414, 7291, 7288, 7293
12415, 7260, 7268, 7267
12416, 7289, 7283, 7266
12417, 7268, 7260, 7259
12418, 7283, 7267, 7266
12419, 7279, 7271, 7272
12420, 7266, 7268, 7270
12421, 7273, 7269, 7278
12422, 7277, 7269, 7270
12423, 7277, 7268, 7271
12424, 7269, 7273, 7274
12425, 7259, 7209, 7272
12426, 7275, 7269, 7279
12427, 7268, 7277, 7270
12428, 7259, 7272, 7271
12429, 7311, 7295, 7315
12430, 7265, 7270, 7274
12431, 7275, 7279, 7276
12432, 7300, 7299, 7301
12433, 7278, 7269, 7275
12434, 7269, 7274, 7270
12435, 7272, 7245, 7276
12436, 7279, 7277, 7271
12437, 7275, 7013, 7278
12438, 7312, 7278, 7013
12439, 7279, 7269, 7277
12440, 7272, 7276, 7279
12441, 7131, 7216, 7280
12442, 7165, 7280, 7216
12443, 7285, 7281, 7223
12444, 7283, 7282, 7254
12445, 7281, 7282, 7219
12446, 7290, 7287, 7289
12447, 7219, 7283, 7288
12448, 7284, 7219, 7291
12449, 7223, 7281, 7284
12450, 7223, 7153, 7285
12451, 7285, 7153, 7286
12452, 7194, 7286, 7153
12453, 7224, 7286, 7185
12454, 7287, 7298, 7297
12455, 7293, 7196, 7291
12456, 7289, 7288, 7283
12457, 7293, 7294, 7292
12458, 7290, 7289, 7266
12459, 7288, 7289, 7287
12460, 7270, 7290, 7266
12461, 7290, 7265, 7298
12462, 7284, 7291, 7196
12463, 7219, 7288, 7291
12464, 7294, 7288, 7287
12465, 7288, 7294, 7293
12466, 7292, 7196, 7293
12467, 7297, 7294, 7287
12468, 7292, 7294, 7296
12469, 7302, 7298, 7301
12470, 7329, 7338, 7307
12471, 7297, 7296, 7294
12472, 7303, 7295, 7302
12473, 7287, 7290, 7298
12474, 7311, 7296, 7297
12475, 7265, 7300, 7301
12476, 7297, 7298, 7302
12477, 7308, 7323, 7322
12478, 7312, 7013, 7346
12479, 7274, 7273, 7300
12480, 7375, 7404, 7368
12481, 7302, 7301, 7299
12482, 7265, 7301, 7298
12483, 7302, 7299, 7303
12484, 7302, 7295, 7297
12485, 7314, 7273, 7312
12486, 7315, 7295, 7303
12487, 7304, 7019, 7311
12488, 7296, 7311, 7019
12489, 7395, 7398, 7401
12490, 7317, 7321, 7323
12491, 7321, 7320, 7316
12492, 7398, 7397, 7432
12493, 7312, 7273, 7278
12494, 7300, 7273, 7314
12495, 7326, 7330, 7316
12496, 7330, 7328, 7350
12497, 7434, 7413, 7411
12498, 7316, 7320, 7326
12499, 7304, 7311, 7315
12500, 7338, 7329, 7336
12501, 7320, 7317, 7324
12502, 7345, 7300, 7314
12503, 7304, 7315, 7323
12504, 7315, 7303, 7317
12505, 7308, 7019, 7304
12506, 7344, 7320, 7324
12507, 7320, 7321, 7317
12508, 7339, 7346, 7332
12509, 7334, 7325, 7327
12510, 7352, 7349, 7348
12511, 7319, 7321, 7341
12512, 7324, 7317, 7303
12513, 7327, 7326, 7320
12514, 7341, 7321, 7316
12515, 7323, 7321, 7319
12516, 7306, 7308, 7322
12517, 7308, 7304, 7323
12518, 7317, 7323, 7315
12519, 7319, 7322, 7323
12520, 7303, 7299, 7324
12521, 7299, 7337, 7344
12522, 7325, 7326, 7327
12523, 7350, 7354, 7348
12524, 7327, 7320, 7318
12525, 7363, 7330, 7326
12526, 7318, 7329, 7327
12527, 7329, 7307, 7359
12528, 7362, 7353, 7361
12529, 7322, 7319, 7342
12530, 7336, 7329, 7318
12531, 7364, 7333, 7374
12532, 7363, 7326, 7325
12533, 7331, 7330, 7350
12534, 7337, 7318, 7344
12535, 7342, 7306, 7322
12536, 7339, 7314, 7346
12537, 7299, 7300, 7345
12538, 7357, 7360, 7333
12539, 7356, 7357, 7333
12540, 7329, 7334, 7327
12541, 7340, 7357, 7359
12542, 7341, 7330, 7331
12543, 7342, 7343, 7306
12544, 7338, 7339, 7332
12545, 7336, 7337, 7347
12546, 7336, 7318, 7337
12547, 7307, 7338, 7332
12548, 7347, 7338, 7336
12549, 7339, 7347, 7345
12550, 7357, 7356, 7334
12551, 7358, 7328, 7363
12552, 7330, 7341, 7316
12553, 7342, 7341, 7331
12554, 7341, 7342, 7319
12555, 7331, 7349, 7343
12556, 7320, 7344, 7318
12557, 7331, 7343, 7342
12558, 7299, 7344, 7324
12559, 7339, 7345, 7314
12560, 7299, 7345, 7337
12561, 7312, 7346, 7314
12562, 7332, 7346, 7013
12563, 7345, 7347, 7337
12564, 7338, 7347, 7339
12565, 7356, 7325, 7334
12566, 7372, 7371, 7348
12567, 7343, 7349, 7335
12568, 7350, 7349, 7331
12569, 7354, 7350, 7328
12570, 7349, 7350, 7348
12571, 7362, 7364, 7374
12572, 7424, 7410, 7414
12573, 7313, 7335, 7352
12574, 7349, 7352, 7335
12575, 7356, 7358, 7363
12576, 7367, 7369, 7353
12577, 7361, 7328, 7358
12578, 7417, 7369, 7416
12579, 7355, 7253, 7262
12580, 7209, 7355, 7247
12581, 7333, 7364, 7356
12582, 7359, 7357, 7334
12583, 7357, 7340, 7360
12584, 7364, 7361, 7358
12585, 7354, 7361, 7353
12586, 7329, 7359, 7334
12587, 7340, 7359, 7307
12588, 7340, 7310, 7360
12589, 7405, 7369, 7367
12590, 7328, 7361, 7354
12591, 7358, 7356, 7364
12592, 7360, 7310, 7366
12593, 7379, 7365, 7373
12594, 7330, 7363, 7328
12595, 7356, 7363, 7325
12596, 7366, 7374, 7333
12597, 7361, 7364, 7362
12598, 7419, 7313, 7371
12599, 7383, 7385, 7380
12600, 7379, 7380, 7385
12601, 7333, 7360, 7366
12602, 7418, 7405, 7375
12603, 7353, 7362, 7367
12604, 7367, 7362, 7376
12605, 7371, 7420, 7419
12606, 7381, 7362, 7374
12607, 7422, 7536, 7421
12608, 7352, 7371, 7313
12609, 7372, 7348, 7354
12610, 7348, 7371, 7352
12611, 7420, 7372, 7417
12612, 7417, 7354, 7353
12613, 7419, 7420, 7421
12614, 7365, 7366, 7310
12615, 7365, 7310, 7373
12616, 7374, 7366, 7365
12617, 7385, 7387, 7390
12618, 7375, 7387, 7404
12619, 7381, 7365, 7379
12620, 7376, 7390, 7405
12621, 7423, 7414, 7378
12622, 7389, 7388, 7423
12623, 7414, 7368, 7378
12624, 7380, 7379, 7373
12625, 7381, 7379, 7376
12626, 7373, 7351, 7380
12627, 7351, 7383, 7380
12628, 7362, 7381, 7376
12629, 7365, 7381, 7374
12630, 7388, 7389, 7406
12631, 7404, 7389, 7423
12632, 7386, 7351, 7384
12633, 7385, 7383, 7382
12634, 7387, 7385, 7382
12635, 7351, 7386, 7383
12636, 7379, 7385, 7376
12637, 7386, 7384, 7392
12638, 7382, 7383, 7386
12639, 7387, 7382, 7389
12640, 7390, 7387, 7375
12641, 7386, 7407, 7382
12642, 7402, 7408, 7395
12643, 7392, 7407, 7386
12644, 7423, 7388, 7425
12645, 7378, 7368, 7404
12646, 7376, 7385, 7390
12647, 7393, 7392, 7384
12648, 7393, 7395, 7391
12649, 7393, 7384, 7305
12650, 7392, 7391, 7407
12651, 7395, 7393, 7305
12652, 7391, 7392, 7393
12653, 7460, 7482, 7484
12654, 7437, 7443, 7445
12655, 7305, 7397, 7398
12656, 7411, 7413, 7402
12657, 7395, 7305, 7398
12658, 7401, 7432, 7400
12659, 7488, 7490, 7412
12660, 7431, 7518, 7466
12661, 7443, 7309, 7438
12662, 7400, 7411, 7402
12663, 7395, 7401, 7402
12664, 7397, 7517, 7432
12665, 7402, 7401, 7400
12666, 7409, 7446, 7435
12667, 7406, 7408, 7433
12668, 7428, 7424, 7414
12669, 7434, 7430, 7413
12670, 7389, 7404, 7387
12671, 7536, 7422, 7410
12672, 7376, 7405, 7367
12673, 7375, 7405, 7390
12674, 7407, 7389, 7382
12675, 7408, 7406, 7391
12676, 7391, 7406, 7407
12677, 7389, 7407, 7406
12678, 7395, 7408, 7391
12679, 7402, 7413, 7433
12680, 7409, 7442, 7448
12681, 7369, 7405, 7418
12682, 7413, 7415, 7433
12683, 7370, 7313, 7419
12684, 7439, 7436, 7400
12685, 7429, 7438, 7309
12686, 7479, 7450, 7462
12687, 7411, 7436, 7442
12688, 7441, 7437, 7445
12689, 7410, 7368, 7414
12690, 7418, 7368, 7416
12691, 7422, 7368, 7410
12692, 7433, 7415, 7388
12693, 7427, 7428, 7414
12694, 7368, 7418, 7375
12695, 7369, 7417, 7353
12696, 7354, 7417, 7372
12697, 7430, 7425, 7415
12698, 7369, 7418, 7416
12699, 7372, 7420, 7371
12700, 7420, 7416, 7421
12701, 7416, 7420, 7417
12702, 7422, 7421, 7416
12703, 7370, 7419, 7421
12704, 7368, 7422, 7416
12705, 7536, 7410, 7377
12706, 7388, 7415, 7425
12707, 7404, 7423, 7378
12708, 7427, 7403, 7429
12709, 7377, 7410, 7424
12710, 7429, 7426, 7428
12711, 7414, 7423, 7425
12712, 7425, 7430, 7427
12713, 7429, 7309, 7426
12714, 7426, 7377, 7424
12715, 7425, 7427, 7414
12716, 7427, 7429, 7428
12717, 7426, 7424, 7428
12718, 7438, 7429, 7403
12719, 7413, 7430, 7415
12720, 7403, 7427, 7430
12721, 7396, 7518, 7517
12722, 7399, 7466, 7463
12723, 7400, 7432, 7431
12724, 7401, 7398, 7432
12725, 7406, 7433, 7388
12726, 7402, 7433, 7408
12727, 7400, 7436, 7411
12728, 7430, 7434, 7403
12729, 7439, 7400, 7431
12730, 7435, 7438, 7403
12731, 7435, 7434, 7409
12732, 7443, 7438, 7435
12733, 7409, 7434, 7442
12734, 7309, 7443, 7437
12735, 7434, 7435, 7403
12736, 7466, 7518, 7440
12737, 7399, 7436, 7439
12738, 7475, 7473, 7474
12739, 7441, 7454, 7456
12740, 7442, 7434, 7411
12741, 7409, 7448, 7447
12742, 7448, 7436, 7399
12743, 7452, 7444, 7447
12744, 7447, 7446, 7409
12745, 7447, 7451, 7452
12746, 7446, 7443, 7435
12747, 7441, 7445, 7444
12748, 7444, 7445, 7446
12749, 7446, 7445, 7443
12750, 7448, 7451, 7447
12751, 7444, 7446, 7447
12752, 7436, 7448, 7442
12753, 7451, 7448, 7399
12754, 7461, 7450, 7479
12755, 7482, 7449, 7480
12756, 7463, 7462, 7450
12757, 7453, 7452, 7450
12758, 7451, 7399, 7463
12759, 7451, 7450, 7452
12760, 7453, 7450, 7461
12761, 7444, 7452, 7454
12762, 7459, 7455, 7457
12763, 7444, 7454, 7441
12764, 7453, 7458, 7452
12765, 7457, 7455, 7456
12766, 7454, 7452, 7458
12767, 7458, 7456, 7454
12768, 7455, 7441, 7456
12769, 7464, 7453, 7461
12770, 7455, 7459, 7412
12771, 7453, 7457, 7458
12772, 7456, 7458, 7457
12773, 7457, 7453, 7464
12774, 7459, 7457, 7460
12775, 7476, 7462, 7477
12776, 7488, 7460, 7484
12777, 7463, 7450, 7451
12778, 7464, 7461, 7449
12779, 7396, 7471, 7468
12780, 7469, 7467, 7468
12781, 7466, 7399, 7439
12782, 7467, 7463, 7466
12783, 7449, 7460, 7464
12784, 7457, 7464, 7460
12785, 7492, 7503, 7489
12786, 7490, 7492, 7489
12787, 7431, 7466, 7439
12788, 7467, 7466, 7440
12789, 7480, 7479, 7476
12790, 7462, 7463, 7467
12791, 7471, 7394, 7473
12792, 7468, 7440, 7518
12793, 7473, 7469, 7471
12794, 7475, 7476, 7477
12795, 7495, 7483, 7485
12796, 7528, 7529, 7527
12797, 7474, 7487, 7495
12798, 7440, 7468, 7467
12799, 7471, 7469, 7468
12800, 7469, 7477, 7467
12801, 7474, 7473, 7394
12802, 7467, 7477, 7462
12803, 7475, 7474, 7470
12804, 7475, 7470, 7476
12805, 7469, 7473, 7475
12806, 7478, 7476, 7470
12807, 7476, 7478, 7480
12808, 7394, 7481, 7487
12809, 7475, 7477, 7469
12810, 7479, 7480, 7449
12811, 7461, 7479, 7449
12812, 7462, 7476, 7479
12813, 7478, 7472, 7480
12814, 7482, 7480, 7472
12815, 7486, 7494, 7512
12816, 7478, 7470, 7485
12817, 7496, 7499, 7483
12818, 7449, 7482, 7460
12819, 7493, 7488, 7484
12820, 7491, 7492, 7493
12821, 7472, 7484, 7482
12822, 7481, 7496, 7483
12823, 7474, 7394, 7487
12824, 7478, 7485, 7505
12825, 7483, 7487, 7481
12826, 7488, 7459, 7460
12827, 7470, 7495, 7485
12828, 7412, 7459, 7488
12829, 7472, 7501, 7502
12830, 7492, 7494, 7503
12831, 7500, 7501, 7485
12832, 7489, 7412, 7490
12833, 7499, 7500, 7483
12834, 7493, 7492, 7490
12835, 7492, 7491, 7494
12836, 7488, 7493, 7490
12837, 7493, 7484, 7502
12838, 7483, 7500, 7485
12839, 7508, 7511, 7512
12840, 7474, 7495, 7470
12841, 7483, 7495, 7487
12842, 7481, 7465, 7496
12843, 7498, 7530, 7497
12844, 7510, 7508, 7491
12845, 7521, 7511, 7515
12846, 7377, 7370, 7536
12847, 7500, 7507, 7501
12848, 7531, 7496, 7465
12849, 7499, 7498, 7500
12850, 7497, 7507, 7498
12851, 7505, 7501, 7472
12852, 7500, 7498, 7507
12853, 7491, 7493, 7502
12854, 7472, 7502, 7484
12855, 7491, 7502, 7501
12856, 7510, 7506, 7516
12857, 7494, 7486, 7503
12858, 7521, 7522, 7511
12859, 7478, 7505, 7472
12860, 7485, 7501, 7505
12861, 7508, 7515, 7511
12862, 7501, 7506, 7510
12863, 7538, 7519, 7535
12864, 7501, 7507, 7506
12865, 7494, 7491, 7508
12866, 7501, 7510, 7491
12867, 7528, 7532, 7533
12868, 7497, 7532, 7516
12869, 7516, 7506, 7497
12870, 7507, 7497, 7506
12871, 7486, 7512, 7513
12872, 7508, 7512, 7494
12873, 7513, 7512, 7511
12874, 7521, 7524, 7522
12875, 7522, 7513, 7511
12876, 7508, 7510, 7516
12877, 7524, 7526, 7520
12878, 7514, 7515, 7516
12879, 7508, 7516, 7515
12880, 7517, 7518, 7431
12881, 7432, 7517, 7431
12882, 7468, 7518, 7396
12883, 7533, 7519, 7540
12884, 7531, 7519, 7530
12885, 7523, 7522, 7524
12886, 7523, 7525, 1288
12887, 7514, 7521, 7515
12888, 7509, 7520, 7526
12889, 1288, 7504, 7523
12890, 7522, 7504, 7513
12891, 7527, 7521, 7514
12892, 7522, 7523, 7504
12893, 7524, 7520, 7525
12894, 7524, 7527, 7526
12895, 7524, 7525, 7523
12896, 7527, 7532, 7528
12897, 7521, 7527, 7524
12898, 7527, 7514, 7532
12899, 7497, 7530, 7533
12900, 7509, 7526, 7529
12901, 7527, 7529, 7526
12902, 7539, 7528, 7533
12903, 7498, 7499, 7531
12904, 7534, 7535, 7519
12905, 7498, 7531, 7530
12906, 7496, 7531, 7499
12907, 7516, 7532, 7514
12908, 7533, 7532, 7497
12909, 7534, 7531, 7465
12910, 7529, 7542, 7509
12911, 7421, 7536, 7370
12912, 7538, 7540, 7519
12913, 7531, 7534, 7519
12914, 7533, 7530, 7519
12915, 7529, 7539, 7542
12916, 7539, 7533, 7540
12917, 7541, 7535, 1287
12918, 7540, 7541, 7537
12919, 7541, 7540, 7538
12920, 7539, 7529, 7528
12921, 7537, 7539, 7540
12922, 7535, 7541, 7538
12923, 7537, 7541, 1287
12924, 4831, 4834, 7544
12925, 7539, 7537, 7542
12926, 7545, 4835, 4834
12927, 4831, 7544, 7543
*NSET, NSET=LEFT
961, 962, 6823, 6839, 6843, 6847, 6856, 6897
*NSET, NSET=RIGHT
1287, 1288, 7509, 7520, 7525, 7537, 7542
*NSET, NSET=TOP
798, 799, 5451, 5472, 5477, 5486
*NSET, NSET=BOTTOM
1124, 1125, 6198, 6213, 6254, 6258, 6265, 6268, 6269
*ELSET, ELSET=FULLMESH
1, 2, 3, 4, 5, 6, 7, 8, 9, 10, 11, 12, 13, 14, 15, 16
17, 18, 19, 20, 21, 22, 23, 24, 25, 26, 27, 28, 29, 30, 31, 32
33, 34, 35, 36, 37, 38, 39, 40, 41, 42, 43, 44, 45, 46, 47, 48
49, 50, 51, 52, 53, 54, 55, 56, 57, 58, 59, 60, 61, 62, 63, 64
65, 66, 67, 68, 69, 70, 71, 72, 73, 74, 75, 76, 77, 78, 79, 80
81, 82, 83, 84, 85, 86, 87, 88, 89, 90, 91, 92, 93, 94, 95, 96
97, 98, 99, 100, 101, 102, 103, 104, 105, 106, 107, 108, 109, 110, 111, 112
113, 114, 115, 116, 117, 118, 119, 120, 121, 122, 123, 124, 125, 126, 127, 128
129, 130, 131, 132, 133, 134, 135, 136, 137, 138, 139, 140, 141, 142, 143, 144
145, 146, 147, 148, 149, 150, 151, 152, 153, 154, 155, 156, 157, 158, 159, 160
161, 162, 163, 164, 165, 166, 167, 168, 169, 170, 171, 172, 173, 174, 175, 176
177, 178, 179, 180, 181, 182, 183, 184, 185, 186, 187, 188, 189, 190, 191, 192
193, 194, 195, 196, 197, 198, 199, 200, 201, 202, 203, 204, 205, 206, 207, 208
209, 210, 211, 212, 213, 214, 215, 216, 217, 218, 219, 220, 221, 222, 223, 224
225, 226, 227, 228, 229, 230, 231, 232, 233, 234, 235, 236, 237, 238, 239, 240
241, 242, 243, 244, 245, 246, 247, 248, 249, 250, 251, 252, 253, 254, 255, 256
257, 258, 259, 260, 261, 262, 263, 264, 265, 266, 267, 268, 269, 270, 271, 272
273, 274, 275, 276, 277, 278, 279, 280, 281, 282, 283, 284, 285, 286, 287, 288
289, 290, 291, 292, 293, 294, 295, 296, 297, 298, 299, 300, 301, 302, 303, 304
305, 306, 307, 308, 309, 310, 311, 312, 313, 314, 315, 316, 317, 318, 319, 320
321, 322, 323, 324, 325, 326, 327, 328, 329, 330, 331, 332, 333, 334, 335, 336
337, 338, 339, 340, 341, 342, 343, 344, 345, 346, 347, 348, 349, 350, 351, 352
353, 354, 355, 356, 357, 358, 359, 360, 361, 362, 363, 364, 365, 366, 367, 368
369, 370, 371, 372, 373, 374, 375, 376, 377, 378, 379, 380, 381, 382, 383, 384
385, 386, 387, 388, 389, 390, 391, 392, 393, 394, 395, 396, 397, 398, 399, 400
401, 402, 403, 404, 405, 406, 407, 408, 409, 410, 411, 412, 413, 414, 415, 416
417, 418, 419, 420, 421, 422, 423, 424, 425, 426, 427, 428, 429, 430, 431, 432
433, 434, 435, 436, 437, 438, 439, 440, 441, 442, 443, 444, 445, 446, 447, 448
449, 450, 451, 452, 453, 454, 455, 456, 457, 458, 459, 460, 461, 462, 463, 464
465, 466, 467, 468, 469, 470, 471, 472, 473, 474, 475, 476, 477, 478, 479, 480
481, 482, 483, 484, 485, 486, 487, 488, 489, 490, 491, 492, 493, 494, 495, 496
497, 498, 499, 500, 501, 502, 503, 504, 505, 506, 507, 508, 509, 510, 511, 512
513, 514, 515, 516, 517, 518, 519, 520, 521, 522, 523, 524, 525, 526, 527, 528
529, 530, 531, 532, 533, 534, 535, 536, 537, 538, 539, 540, 541, 542, 543, 544
545, 546, 547, 548, 549, 550, 551, 552, 553, 554, 555, 556, 557, 558, 559, 560
561, 562, 563, 564, 565, 566, 567, 568, 569, 570, 571, 572, 573, 574, 575, 576
577, 578, 579, 580, 581, 582, 583, 584, 585, 586, 587, 588, 589, 590, 591, 592
593, 594, 595, 596, 597, 598, 599, 600, 601, 602, 603, 604, 605, 606, 607, 608
609, 610, 611, 612, 613, 614, 615, 616, 617, 618, 619, 620, 621, 622, 623, 624
625, 626, 627, 628, 629, 630, 631, 632, 633, 634, 635, 636, 637, 638, 639, 640
641, 642, 643, 644, 645, 646, 647, 648, 649, 650, 651, 652, 653, 654, 655, 656
657, 658, 659, 660, 661, 662, 663, 664, 665, 666, 667, 668, 669, 670, 671, 672
673, 674, 675, 676, 677, 678, 679, 680, 681, 682, 683, 684, 685, 686, 687, 688
689, 690, 691, 692, 693, 694, 695, 696, 697, 698, 699, 700, 701, 702, 703, 704
705, 706, 707, 708, 709, 710, 711, 712, 713, 714, 715, 716, 717, 718, 719, 720
721, 722, 723, 724, 725, 726, 727, 728, 729, 730, 731, 732, 733, 734, 735, 736
737, 738, 739, 740, 741, 742, 743, 744, 745, 746, 747, 748, 749, 750, 751, 752
753, 754, 755, 756, 757, 758, 759, 760, 761, 762, 763, 764, 765, 766, 767, 768
769, 770, 771, 772, 773, 774, 775, 776, 777, 778, 779, 780, 781, 782, 783, 784
785, 786, 787, 788, 789, 790, 791, 792, 793, 794, 795, 796, 797, 798, 799, 800
801, 802, 803, 804, 805, 806, 807, 808, 809, 810, 811, 812, 813, 814, 815, 816
817, 818, 819, 820, 821, 822, 823, 824, 825, 826, 827, 828, 829, 830, 831, 832
833, 834, 835, 836, 837, 838, 839, 840, 841, 842, 843, 844, 845, 846, 847, 848
849, 850, 851, 852, 853, 854, 855, 856, 857, 858, 859, 860, 861, 862, 863, 864
865, 866, 867, 868, 869, 870, 871, 872, 873, 874, 875, 876, 877, 878, 879, 880
881, 882, 883, 884, 885, 886, 887, 888, 889, 890, 891, 892, 893, 894, 895, 896
897, 898, 899, 900, 901, 902, 903, 904, 905, 906, 907, 908, 909, 910, 911, 912
913, 914, 915, 916, 917, 918, 919, 920, 921, 922, 923, 924, 925, 926, 927, 928
929, 930, 931, 932, 933, 934, 935, 936, 937, 938, 939, 940, 941, 942, 943, 944
945, 946, 947, 948, 949, 950, 951, 952, 953, 954, 955, 956, 957, 958, 959, 960
961, 962, 963, 964, 965, 966, 967, 968, 969, 970, 971, 972, 973, 974, 975, 976
977, 978, 979, 980, 981, 982, 983, 984, 985, 986, 987, 988, 989, 990, 991, 992
993, 994, 995, 996, 997, 998, 999, 1000, 1001, 1002, 1003, 1004, 1005, 1006, 1007, 1008
1009, 1010, 1011, 1012, 1013, 1014, 1015, 1016, 1017, 1018, 1019, 1020, 1021, 1022, 1023, 1024
1025, 1026, 1027, 1028, 1029, 1030, 1031, 1032, 1033, 1034, 1035, 1036, 1037, 1038, 1039, 1040
1041, 1042, 1043, 1044, 1045, 1046, 1047, 1048, 1049, 1050, 1051, 1052, 1053, 1054, 1055, 1056
1057, 1058, 1059, 1060, 1061, 1062, 1063, 1064, 1065, 1066, 1067, 1068, 1069, 1070, 1071, 1072
1073, 1074, 1075, 1076, 1077, 1078, 1079, 1080, 1081, 1082, 1083, 1084, 1085, 1086, 1087, 1088
1089, 1090, 1091, 1092, 1093, 1094, 1095, 1096, 1097, 1098, 1099, 1100, 1101, 1102, 1103, 1104
1105, 1106, 1107, 1108, 1109, 1110, 1111, 1112, 1113, 1114, 1115, 1116, 1117, 1118, 1119, 1120
1121, 1122, 1123, 1124, 1125, 1126, 1127, 1128, 1129, 1130, 1131, 1132, 1133, 1134, 1135, 1136
1137, 1138, 1139, 1140, 1141, 1142, 1143, 1144, 1145, 1146, 1147, 1148, 1149, 1150, 1151, 1152
1153, 1154, 1155, 1156, 1157, 1158, 1159, 1160, 1161, 1162, 1163, 1164, 1165, 1166, 1167, 1168
1169, 1170, 1171, 1172, 1173, 1174, 1175, 1176, 1177, 1178, 1179, 1180, 1181, 1182, 1183, 1184
1185, 1186, 1187, 1188, 1189, 1190, 1191, 1192, 1193, 1194, 1195, 1196, 1197, 1198, 1199, 1200
1201, 1202, 1203, 1204, 1205, 1206, 1207, 1208, 1209, 1210, 1211, 1212, 1213, 1214, 1215, 1216
1217, 1218, 1219, 1220, 1221, 1222, 1223, 1224, 1225, 1226, 1227, 1228, 1229, 1230, 1231, 1232
1233, 1234, 1235, 1236, 1237, 1238, 1239, 1240, 1241, 1242, 1243, 1244, 1245, 1246, 1247, 1248
1249, 1250, 1251, 1252, 1253, 1254, 1255, 1256, 1257, 1258, 1259, 1260, 1261, 1262, 1263, 1264
1265, 1266, 1267, 1268, 1269, 1270, 1271, 1272, 1273, 1274, 1275, 1276, 1277, 1278, 1279, 1280
1281, 1282, 1283, 1284, 1285, 1286, 1287, 1288, 1289, 1290, 1291, 1292, 1293, 1294, 1295, 1296
1297, 1298, 1299, 1300, 1301, 1302, 1303, 1304, 1305, 1306, 1307, 1308, 1309, 1310, 1311, 1312
1313, 1314, 1315, 1316, 1317, 1318, 1319, 1320, 1321, 1322, 1323, 1324, 1325, 1326, 1327, 1328
1329, 1330, 1331, 1332, 1333, 1334, 1335, 1336, 1337, 1338, 1339, 1340, 1341, 1342, 1343, 1344
1345, 1346, 1347, 1348, 1349, 1350, 1351, 1352, 1353, 1354, 1355, 1356, 1357, 1358, 1359, 1360
1361, 1362, 1363, 1364, 1365, 1366, 1367, 1368, 1369, 1370, 1371, 1372, 1373, 1374, 1375, 1376
1377, 1378, 1379, 1380, 1381, 1382, 1383, 1384, 1385, 1386, 1387, 1388, 1389, 1390, 1391, 1392
1393, 1394, 1395, 1396, 1397, 1398, 1399, 1400, 1401, 1402, 1403, 1404, 1405, 1406, 1407, 1408
1409, 1410, 1411, 1412, 1413, 1414, 1415, 1416, 1417, 1418, 1419, 1420, 1421, 1422, 1423, 1424
1425, 1426, 1427, 1428, 1429, 1430, 1431, 1432, 1433, 1434, 1435, 1436, 1437, 1438, 1439, 1440
1441, 1442, 1443, 1444, 1445, 1446, 1447, 1448, 1449, 1450, 1451, 1452, 1453, 1454, 1455, 1456
1457, 1458, 1459, 1460, 1461, 1462, 1463, 1464, 1465, 1466, 1467, 1468, 1469, 1470, 1471, 1472
1473, 1474, 1475, 1476, 1477, 1478, 1479, 1480, 1481, 1482, 1483, 1484, 1485, 1486, 1487, 1488
1489, 1490, 1491, 1492, 1493, 1494, 1495, 1496, 1497, 1498, 1499, 1500, 1501, 1502, 1503, 1504
1505, 1506, 1507, 1508, 1509, 1510, 1511, 1512, 1513, 1514, 1515, 1516, 1517, 1518, 1519, 1520
1521, 1522, 1523, 1524, 1525, 1526, 1527, 1528, 1529, 1530, 1531, 1532, 1533, 1534, 1535, 1536
1537, 1538, 1539, 1540, 1541, 1542, 1543, 1544, 1545, 1546, 1547, 1548, 1549, 1550, 1551, 1552
1553, 1554, 1555, 1556, 1557, 1558, 1559, 1560, 1561, 1562, 1563, 1564, 1565, 1566, 1567, 1568
1569, 1570, 1571, 1572, 1573, 1574, 1575, 1576, 1577, 1578, 1579, 1580, 1581, 1582, 1583, 1584
1585, 1586, 1587, 1588, 1589, 1590, 1591, 1592, 1593, 1594, 1595, 1596, 1597, 1598, 1599, 1600
1601, 1602, 1603, 1604, 1605, 1606, 1607, 1608, 1609, 1610, 1611, 1612, 1613, 1614, 1615, 1616
1617, 1618, 1619, 1620, 1621, 1622, 1623, 1624, 1625, 1626, 1627, 1628, 1629, 1630, 1631, 1632
1633, 1634, 1635, 1636, 1637, 1638, 1639, 1640, 1641, 1642, 1643, 1644, 1645, 1646, 1647, 1648
1649, 1650, 1651, 1652, 1653, 1654, 1655, 1656, 1657, 1658, 1659, 1660, 1661, 1662, 1663, 1664
1665, 1666, 1667, 1668, 1669, 1670, 1671, 1672, 1673, 1674, 1675, 1676, 1677, 1678, 1679, 1680
1681, 1682, 1683, 1684, 1685, 1686, 1687, 1688, 1689, 1690, 1691, 1692, 1693, 1694, 1695, 1696
1697, 1698, 1699, 1700, 1701, 1702, 1703, 1704, 1705, 1706, 1707, 1708, 1709, 1710, 1711, 1712
1713, 1714, 1715, 1716, 1717, 1718, 1719, 1720, 1721, 1722, 1723, 1724, 1725, 1726, 1727, 1728
1729, 1730, 1731, 1732, 1733, 1734, 1735, 1736, 1737, 1738, 1739, 1740, 1741, 1742, 1743, 1744
1745, 1746, 1747, 1748, 1749, 1750, 1751, 1752, 1753, 1754, 1755, 1756, 1757, 1758, 1759, 1760
1761, 1762, 1763, 1764, 1765, 1766, 1767, 1768, 1769, 1770, 1771, 1772, 1773, 1774, 1775, 1776
1777, 1778, 1779, 1780, 1781, 1782, 1783, 1784, 1785, 1786, 1787, 1788, 1789, 1790, 1791, 1792
1793, 1794, 1795, 1796, 1797, 1798, 1799, 1800, 1801, 1802, 1803, 1804, 1805, 1806, 1807, 1808
1809, 1810, 1811, 1812, 1813, 1814, 1815, 1816, 1817, 1818, 1819, 1820, 1821, 1822, 1823, 1824
1825, 1826, 1827, 1828, 1829, 1830, 1831, 1832, 1833, 1834, 1835, 1836, 1837, 1838, 1839, 1840
1841, 1842, 1843, 1844, 1845, 1846, 1847, 1848, 1849, 1850, 1851, 1852, 1853, 1854, 1855, 1856
1857, 1858, 1859, 1860, 1861, 1862, 1863, 1864, 1865, 1866, 1867, 1868, 1869, 1870, 1871, 1872
1873, 1874, 1875, 1876, 1877, 1878, 1879, 1880, 1881, 1882, 1883, 1884, 1885, 1886, 1887, 1888
1889, 1890, 1891, 1892, 1893, 1894, 1895, 1896, 1897, 1898, 1899, 1900, 1901, 1902, 1903, 1904
1905, 1906, 1907, 1908, 1909, 1910, 1911, 1912, 1913, 1914, 1915, 1916, 1917, 1918, 1919, 1920
1921, 1922, 1923, 1924, 1925, 1926, 1927, 1928, 1929, 1930, 1931, 1932, 1933, 1934, 1935, 1936
1937, 1938, 1939, 1940, 1941, 1942, 1943, 1944, 1945, 1946, 1947, 1948, 1949, 1950, 1951, 1952
1953, 1954, 1955, 1956, 1957, 1958, 1959, 1960, 1961, 1962, 1963, 1964, 1965, 1966, 1967, 1968
1969, 1970, 1971, 1972, 1973, 1974, 1975, 1976, 1977, 1978, 1979, 1980, 1981, 1982, 1983, 1984
1985, 1986, 1987, 1988, 1989, 1990, 1991, 1992, 1993, 1994, 1995, 1996, 1997, 1998, 1999, 2000
2001, 2002, 2003, 2004, 2005, 2006, 2007, 2008, 2009, 2010, 2011, 2012, 2013, 2014, 2015, 2016
2017, 2018, 2019, 2020, 2021, 2022, 2023, 2024, 2025, 2026, 2027, 2028, 2029, 2030, 2031, 2032
2033, 2034, 2035, 2036, 2037, 2038, 2039, 2040, 2041, 2042, 2043, 2044, 2045, 2046, 2047, 2048
2049, 2050, 2051, 2052, 2053, 2054, 2055, 2056, 2057, 2058, 2059, 2060, 2061, 2062, 2063, 2064
2065, 2066, 2067, 2068, 2069, 2070, 2071, 2072, 2073, 2074, 2075, 2076, 2077, 2078, 2079, 2080
2081, 2082, 2083, 2084, 2085, 2086, 2087, 2088, 2089, 2090, 2091, 2092, 2093, 2094, 2095, 2096
2097, 2098, 2099, 2100, 2101, 2102, 2103, 2104, 2105, 2106, 2107, 2108, 2109, 2110, 2111, 2112
2113, 2114, 2115, 2116, 2117, 2118, 2119, 2120, 2121, 2122, 2123, 2124, 2125, 2126, 2127, 2128
2129, 2130, 2131, 2132, 2133, 2134, 2135, 2136, 2137, 2138, 2139, 2140, 2141, 2142, 2143, 2144
2145, 2146, 2147, 2148, 2149, 2150, 2151, 2152, 2153, 2154, 2155, 2156, 2157, 2158, 2159, 2160
2161, 2162, 2163, 2164, 2165, 2166, 2167, 2168, 2169, 2170, 2171, 2172, 2173, 2174, 2175, 2176
2177, 2178, 2179, 2180, 2181, 2182, 2183, 2184, 2185, 2186, 2187, 2188, 2189, 2190, 2191, 2192
2193, 2194, 2195, 2196, 2197, 2198, 2199, 2200, 2201, 2202, 2203, 2204, 2205, 2206, 2207, 2208
2209, 2210, 2211, 2212, 2213, 2214, 2215, 2216, 2217, 2218, 2219, 2220, 2221, 2222, 2223, 2224
2225, 2226, 2227, 2228, 2229, 2230, 2231, 2232, 2233, 2234, 2235, 2236, 2237, 2238, 2239, 2240
2241, 2242, 2243, 2244, 2245, 2246, 2247, 2248, 2249, 2250, 2251, 2252, 2253, 2254, 2255, 2256
2257, 2258, 2259, 2260, 2261, 2262, 2263, 2264, 2265, 2266, 2267, 2268, 2269, 2270, 2271, 2272
2273, 2274, 2275, 2276, 2277, 2278, 2279, 2280, 2281, 2282, 2283, 2284, 2285, 2286, 2287, 2288
2289, 2290, 2291, 2292, 2293, 2294, 2295, 2296, 2297, 2298, 2299, 2300, 2301, 2302, 2303, 2304
2305, 2306, 2307, 2308, 2309, 2310, 2311, 2312, 2313, 2314, 2315, 2316, 2317, 2318, 2319, 2320
2321, 2322, 2323, 2324, 2325, 2326, 2327, 2328, 2329, 2330, 2331, 2332, 2333, 2334, 2335, 2336
2337, 2338, 2339, 2340, 2341, 2342, 2343, 2344, 2345, 2346, 2347, 2348, 2349, 2350, 2351, 2352
2353, 2354, 2355, 2356, 2357, 2358, 2359, 2360, 2361, 2362, 2363, 2364, 2365, 2366, 2367, 2368
2369, 2370, 2371, 2372, 2373, 2374, 2375, 2376, 2377, 2378, 2379, 2380, 2381, 2382, 2383, 2384
2385, 2386, 2387, 2388, 2389, 2390, 2391, 2392, 2393, 2394, 2395, 2396, 2397, 2398, 2399, 2400
2401, 2402, 2403, 2404, 2405, 2406, 2407, 2408, 2409, 2410, 2411, 2412, 2413, 2414, 2415, 2416
2417, 2418, 2419, 2420, 2421, 2422, 2423, 2424, 2425, 2426, 2427, 2428, 2429, 2430, 2431, 2432
2433, 2434, 2435, 2436, 2437, 2438, 2439, 2440, 2441, 2442, 2443, 2444, 2445, 2446, 2447, 2448
2449, 2450, 2451, 2452, 2453, 2454, 2455, 2456, 2457, 2458, 2459, 2460, 2461, 2462, 2463, 2464
2465, 2466, 2467, 2468, 2469, 2470, 2471, 2472, 2473, 2474, 2475, 2476, 2477, 2478, 2479, 2480
2481, 2482, 2483, 2484, 2485, 2486, 2487, 2488, 2489, 2490, 2491, 2492, 2493, 2494, 2495, 2496
2497, 2498, 2499, 2500, 2501, 2502, 2503, 2504, 2505, 2506, 2507, 2508, 2509, 2510, 2511, 2512
2513, 2514, 2515, 2516, 2517, 2518, 2519, 2520, 2521, 2522, 2523, 2524, 2525, 2526, 2527, 2528
2529, 2530, 2531, 2532, 2533, 2534, 2535, 2536, 2537, 2538, 2539, 2540, 2541, 2542, 2543, 2544
2545, 2546, 2547, 2548, 2549, 2550, 2551, 2552, 2553, 2554, 2555, 2556, 2557, 2558, 2559, 2560
2561, 2562, 2563, 2564, 2565, 2566, 2567, 2568, 2569, 2570, 2571, 2572, 2573, 2574, 2575, 2576
2577, 2578, 2579, 2580, 2581, 2582, 2583, 2584, 2585, 2586, 2587, 2588, 2589, 2590, 2591, 2592
2593, 2594, 2595, 2596, 2597, 2598, 2599, 2600, 2601, 2602, 2603, 2604, 2605, 2606, 2607, 2608
2609, 2610, 2611, 2612, 2613, 2614, 2615, 2616, 2617, 2618, 2619, 2620, 2621, 2622, 2623, 2624
2625, 2626, 2627, 2628, 2629, 2630, 2631, 2632, 2633, 2634, 2635, 2636, 2637, 2638, 2639, 2640
2641, 2642, 2643, 2644, 2645, 2646, 2647, 2648, 2649, 2650, 2651, 2652, 2653, 2654, 2655, 2656
2657, 2658, 2659, 2660, 2661, 2662, 2663, 2664, 2665, 2666, 2667, 2668, 2669, 2670, 2671, 2672
2673, 2674, 2675, 2676, 2677, 2678, 2679, 2680, 2681, 2682, 2683, 2684, 2685, 2686, 2687, 2688
2689, 2690, 2691, 2692, 2693, 2694, 2695, 2696, 2697, 2698, 2699, 2700, 2701, 2702, 2703, 2704
2705, 2706, 2707, 2708, 2709, 2710, 2711, 2712, 2713, 2714, 2715, 2716, 2717, 2718, 2719, 2720
2721, 2722, 2723, 2724, 2725, 2726, 2727, 2728, 2729, 2730, 2731, 2732, 2733, 2734, 2735, 2736
2737, 2738, 2739, 2740, 2741, 2742, 2743, 2744, 2745, 2746, 2747, 2748, 2749, 2750, 2751, 2752
2753, 2754, 2755, 2756, 2757, 2758, 2759, 2760, 2761, 2762, 2763, 2764, 2765, 2766, 2767, 2768
2769, 2770, 2771, 2772, 2773, 2774, 2775, 2776, 2777, 2778, 2779, 2780, 2781, 2782, 2783, 2784
2785, 2786, 2787, 2788, 2789, 2790, 2791, 2792, 2793, 2794, 2795, 2796, 2797, 2798, 2799, 2800
2801, 2802, 2803, 2804, 2805, 2806, 2807, 2808, 2809, 2810, 2811, 2812, 2813, 2814, 2815, 2816
2817, 2818, 2819, 2820, 2821, 2822, 2823, 2824, 2825, 2826, 2827, 2828, 2829, 2830, 2831, 2832
2833, 2834, 2835, 2836, 2837, 2838, 2839, 2840, 2841, 2842, 2843, 2844, 2845, 2846, 2847, 2848
2849, 2850, 2851, 2852, 2853, 2854, 2855, 2856, 2857, 2858, 2859, 2860, 2861, 2862, 2863, 2864
2865, 2866, 2867, 2868, 2869, 2870, 2871, 2872, 2873, 2874, 2875, 2876, 2877, 2878, 2879, 2880
2881, 2882, 2883, 2884, 2885, 2886, 2887, 2888, 2889, 2890, 2891, 2892, 2893, 2894, 2895, 2896
2897, 2898, 2899, 2900, 2901, 2902, 2903, 2904, 2905, 2906, 2907, 2908, 2909, 2910, 2911, 2912
2913, 2914, 2915, 2916, 2917, 2918, 2919, 2920, 2921, 2922, 2923, 2924, 2925, 2926, 2927, 2928
2929, 2930, 2931, 2932, 2933, 2934, 2935, 2936, 2937, 2938, 2939, 2940, 2941, 2942, 2943, 2944
2945, 2946, 2947, 2948, 2949, 2950, 2951, 2952, 2953, 2954, 2955, 2956, 2957, 2958, 2959, 2960
2961, 2962, 2963, 2964, 2965, 2966, 2967, 2968, 2969, 2970, 2971, 2972, 2973, 2974, 2975, 2976
2977, 2978, 2979, 2980, 2981, 2982, 2983, 2984, 2985, 2986, 2987, 2988, 2989, 2990, 2991, 2992
2993, 2994, 2995, 2996, 2997, 2998, 2999, 3000, 3001, 3002, 3003, 3004, 3005, 3006, 3007, 3008
3009, 3010, 3011, 3012, 3013, 3014, 3015, 3016, 3017, 3018, 3019, 3020, 3021, 3022, 3023, 3024
3025, 3026, 3027, 3028, 3029, 3030, 3031, 3032, 3033, 3034, 3035, 3036, 3037, 3038, 3039, 3040
3041, 3042, 3043, 3044, 3045, 3046, 3047, 3048, 3049, 3050, 3051, 3052, 3053, 3054, 3055, 3056
3057, 3058, 3059, 3060, 3061, 3062, 3063, 3064, 3065, 3066, 3067, 3068, 3069, 3070, 3071, 3072
3073, 3074, 3075, 3076, 3077, 3078, 3079, 3080, 3081, 3082, 3083, 3084, 3085, 3086, 3087, 3088
3089, 3090, 3091, 3092, 3093, 3094, 3095, 3096, 3097, 3098, 3099, 3100, 3101, 3102, 3103, 3104
3105, 3106, 3107, 3108, 3109, 3110, 3111, 3112, 3113, 3114, 3115, 3116, 3117, 3118, 3119, 3120
3121, 3122, 3123, 3124, 3125, 3126, 3127, 3128, 3129, 3130, 3131, 3132, 3133, 3134, 3135, 3136
3137, 3138, 3139, 3140, 3141, 3142, 3143, 3144, 3145, 3146, 3147, 3148, 3149, 3150, 3151, 3152
3153, 3154, 3155, 3156, 3157, 3158, 3159, 3160, 3161, 3162, 3163, 3164, 3165, 3166, 3167, 3168
3169, 3170, 3171, 3172, 3173, 3174, 3175, 3176, 3177, 3178, 3179, 3180, 3181, 3182, 3183, 3184
3185, 3186, 3187, 3188, 3189, 3190, 3191, 3192, 3193, 3194, 3195, 3196, 3197, 3198, 3199, 3200
3201, 3202, 3203, 3204, 3205, 3206, 3207, 3208, 3209, 3210, 3211, 3212, 3213, 3214, 3215, 3216
3217, 3218, 3219, 3220, 3221, 3222, 3223, 3224, 3225, 3226, 3227, 3228, 3229, 3230, 3231, 3232
3233, 3234, 3235, 3236, 3237, 3238, 3239, 3240, 3241, 3242, 3243, 3244, 3245, 3246, 3247, 3248
3249, 3250, 3251, 3252, 3253, 3254, 3255, 3256, 3257, 3258, 3259, 3260, 3261, 3262, 3263, 3264
3265, 3266, 3267, 3268, 3269, 3270, 3271, 3272, 3273, 3274, 3275, 3276, 3277, 3278, 3279, 3280
3281, 3282, 3283, 3284, 3285, 3286, 3287, 3288, 3289, 3290, 3291, 3292, 3293, 3294, 3295, 3296
3297, 3298, 3299, 3300, 3301, 3302, 3303, 3304, 3305, 3306, 3307, 3308, 3309, 3310, 3311, 3312
3313, 3314, 3315, 3316, 3317, 3318, 3319, 3320, 3321, 3322, 3323, 3324, 3325, 3326, 3327, 3328
3329, 3330, 3331, 3332, 3333, 3334, 3335, 3336, 3337, 3338, 3339, 3340, 3341, 3342, 3343, 3344
3345, 3346, 3347, 3348, 3349, 3350, 3351, 3352, 3353, 3354, 3355, 3356, 3357, 3358, 3359, 3360
3361, 3362, 3363, 3364, 3365, 3366, 3367, 3368, 3369, 3370, 3371, 3372, 3373, 3374, 3375, 3376
3377, 3378, 3379, 3380, 3381, 3382, 3383, 3384, 3385, 3386, 3387, 3388, 3389, 3390, 3391, 3392
3393, 3394, 3395, 3396, 3397, 3398, 3399, 3400, 3401, 3402, 3403, 3404, 3405, 3406, 3407, 3408
3409, 3410, 3411, 3412, 3413, 3414, 3415, 3416, 3417, 3418, 3419, 3420, 3421, 3422, 3423, 3424
3425, 3426, 3427, 3428, 3429, 3430, 3431, 3432, 3433, 3434, 3435, 3436, 3437, 3438, 3439, 3440
3441, 3442, 3443, 3444, 3445, 3446, 3447, 3448, 3449, 3450, 3451, 3452, 3453, 3454, 3455, 3456
3457, 3458, 3459, 3460, 3461, 3462, 3463, 3464, 3465, 3466, 3467, 3468, 3469, 3470, 3471, 3472
3473, 3474, 3475, 3476, 3477, 3478, 3479, 3480, 3481, 3482, 3483, 3484, 3485, 3486, 3487, 3488
3489, 3490, 3491, 3492, 3493, 3494, 3495, 3496, 3497, 3498, 3499, 3500, 3501, 3502, 3503, 3504
3505, 3506, 3507, 3508, 3509, 3510, 3511, 3512, 3513, 3514, 3515, 3516, 3517, 3518, 3519, 3520
3521, 3522, 3523, 3524, 3525, 3526, 3527, 3528, 3529, 3530, 3531, 3532, 3533, 3534, 3535, 3536
3537, 3538, 3539, 3540, 3541, 3542, 3543, 3544, 3545, 3546, 3547, 3548, 3549, 3550, 3551, 3552
3553, 3554, 3555, 3556, 3557, 3558, 3559, 3560, 3561, 3562, 3563, 3564, 3565, 3566, 3567, 3568
3569, 3570, 3571, 3572, 3573, 3574, 3575, 3576, 3577, 3578, 3579, 3580, 3581, 3582, 3583, 3584
3585, 3586, 3587, 3588, 3589, 3590, 3591, 3592, 3593, 3594, 3595, 3596, 3597, 3598, 3599, 3600
3601, 3602, 3603, 3604, 3605, 3606, 3607, 3608, 3609, 3610, 3611, 3612, 3613, 3614, 3615, 3616
3617, 3618, 3619, 3620, 3621, 3622, 3623, 3624, 3625, 3626, 3627, 3628, 3629, 3630, 3631, 3632
3633, 3634, 3635, 3636, 3637, 3638, 3639, 3640, 3641, 3642, 3643, 3644, 3645, 3646, 3647, 3648
3649, 3650, 3651, 3652, 3653, 3654, 3655, 3656, 3657, 3658, 3659, 3660, 3661, 3662, 3663, 3664
3665, 3666, 3667, 3668, 3669, 3670, 3671, 3672, 3673, 3674, 3675, 3676, 3677, 3678, 3679, 3680
3681, 3682, 3683, 3684, 3685, 3686, 3687, 3688, 3689, 3690, 3691, 3692, 3693, 3694, 3695, 3696
3697, 3698, 3699, 3700, 3701, 3702, 3703, 3704, 3705, 3706, 3707, 3708, 3709, 3710, 3711, 3712
3713, 3714, 3715, 3716, 3717, 3718, 3719, 3720, 3721, 3722, 3723, 3724, 3725, 3726, 3727, 3728
3729, 3730, 3731, 3732, 3733, 3734, 3735, 3736, 3737, 3738, 3739, 3740, 3741, 3742, 3743, 3744
3745, 3746, 3747, 3748, 3749, 3750, 3751, 3752, 3753, 3754, 3755, 3756, 3757, 3758, 3759, 3760
3761, 3762, 3763, 3764, 3765, 3766, 3767, 3768, 3769, 3770, 3771, 3772, 3773, 3774, 3775, 3776
3777, 3778, 3779, 3780, 3781, 3782, 3783, 3784, 3785, 3786, 3787, 3788, 3789, 3790, 3791, 3792
3793, 3794, 3795, 3796, 3797, 3798, 3799, 3800, 3801, 3802, 3803, 3804, 3805, 3806, 3807, 3808
3809, 3810, 3811, 3812, 3813, 3814, 3815, 3816, 3817, 3818, 3819, 3820, 3821, 3822, 3823, 3824
3825, 3826, 3827, 3828, 3829, 3830, 3831, 3832, 3833, 3834, 3835, 3836, 3837, 3838, 3839, 3840
3841, 3842, 3843, 3844, 3845, 3846, 3847, 3848, 3849, 3850, 3851, 3852, 3853, 3854, 3855, 3856
3857, 3858, 3859, 3860, 3861, 3862, 3863, 3864, 3865, 3866, 3867, 3868, 3869, 3870, 3871, 3872
3873, 3874, 3875, 3876, 3877, 3878, 3879, 3880, 3881, 3882, 3883, 3884, 3885, 3886, 3887, 3888
3889, 3890, 3891, 3892, 3893, 3894, 3895, 3896, 3897, 3898, 3899, 3900, 3901, 3902, 3903, 3904
3905, 3906, 3907, 3908, 3909, 3910, 3911, 3912, 3913, 3914, 3915, 3916, 3917, 3918, 3919, 3920
3921, 3922, 3923, 3924, 3925, 3926, 3927, 3928, 3929, 3930, 3931, 3932, 3933, 3934, 3935, 3936
3937, 3938, 3939, 3940, 3941, 3942, 3943, 3944, 3945, 3946, 3947, 3948, 3949, 3950, 3951, 3952
3953, 3954, 3955, 3956, 3957, 3958, 3959, 3960, 3961, 3962, 3963, 3964, 3965, 3966, 3967, 3968
3969, 3970, 3971, 3972, 3973, 3974, 3975, 3976, 3977, 3978, 3979, 3980, 3981, 3982, 3983, 3984
3985, 3986, 3987, 3988, 3989, 3990, 3991, 3992, 3993, 3994, 3995, 3996, 3997, 3998, 3999, 4000
4001, 4002, 4003, 4004, 4005, 4006, 4007, 4008, 4009, 4010, 4011, 4012, 4013, 4014, 4015, 4016
4017, 4018, 4019, 4020, 4021, 4022, 4023, 4024, 4025, 4026, 4027, 4028, 4029, 4030, 4031, 4032
4033, 4034, 4035, 4036, 4037, 4038, 4039, 4040, 4041, 4042, 4043, 4044, 4045, 4046, 4047, 4048
4049, 4050, 4051, 4052, 4053, 4054, 4055, 4056, 4057, 4058, 4059, 4060, 4061, 4062, 4063, 4064
4065, 4066, 4067, 4068, 4069, 4070, 4071, 4072, 4073, 4074, 4075, 4076, 4077, 4078, 4079, 4080
4081, 4082, 4083, 4084, 4085, 4086, 4087, 4088, 4089, 4090, 4091, 4092, 4093, 4094, 4095, 4096
4097, 4098, 4099, 4100, 4101, 4102, 4103, 4104, 4105, 4106, 4107, 4108, 4109, 4110, 4111, 4112
4113, 4114, 4115, 4116, 4117, 4118, 4119, 4120, 4121, 4122, 4123, 4124, 4125, 4126, 4127, 4128
4129, 4130, 4131, 4132, 4133, 4134, 4135, 4136, 4137, 4138, 4139, 4140, 4141, 4142, 4143, 4144
4145, 4146, 4147, 4148, 4149, 4150, 4151, 4152, 4153, 4154, 4155, 4156, 4157, 4158, 4159, 4160
4161, 4162, 4163, 4164, 4165, 4166, 4167, 4168, 4169, 4170, 4171, 4172, 4173, 4174, 4175, 4176
4177, 4178, 4179, 4180, 4181, 4182, 4183, 4184, 4185, 4186, 4187, 4188, 4189, 4190, 4191, 4192
4193, 4194, 4195, 4196, 4197, 4198, 4199, 4200, 4201, 4202, 4203, 4204, 4205, 4206, 4207, 4208
4209, 4210, 4211, 4212, 4213, 4214, 4215, 4216, 4217, 4218, 4219, 4220, 4221, 4222, 4223, 4224
4225, 4226, 4227, 4228, 4229, 4230, 4231, 4232, 4233, 4234, 4235, 4236, 4237, 4238, 4239, 4240
4241, 4242, 4243, 4244, 4245, 4246, 4247, 4248, 4249, 4250, 4251, 4252, 4253, 4254, 4255, 4256
4257, 4258, 4259, 4260, 4261, 4262, 4263, 4264, 4265, 4266, 4267, 4268, 4269, 4270, 4271, 4272
4273, 4274, 4275, 4276, 4277, 4278, 4279, 4280, 4281, 4282, 4283, 4284, 4285, 4286, 4287, 4288
4289, 4290, 4291, 4292, 4293, 4294, 4295, 4296, 4297, 4298, 4299, 4300, 4301, 4302, 4303, 4304
4305, 4306, 4307, 4308, 4309, 4310, 4311, 4312, 4313, 4314, 4315, 4316, 4317, 4318, 4319, 4320
4321, 4322, 4323, 4324, 4325, 4326, 4327, 4328, 4329, 4330, 4331, 4332, 4333, 4334, 4335, 4336
4337, 4338, 4339, 4340, 4341, 4342, 4343, 4344, 4345, 4346, 4347, 4348, 4349, 4350, 4351, 4352
4353, 4354, 4355, 4356, 4357, 4358, 4359, 4360, 4361, 4362, 4363, 4364, 4365, 4366, 4367, 4368
4369, 4370, 4371, 4372, 4373, 4374, 4375, 4376, 4377, 4378, 4379, 4380, 4381, 4382, 4383, 4384
4385, 4386, 4387, 4388, 4389, 4390, 4391, 4392, 4393, 4394, 4395, 4396, 4397, 4398, 4399, 4400
4401, 4402, 4403, 4404, 4405, 4406, 4407, 4408, 4409, 4410, 4411, 4412, 4413, 4414, 4415, 4416
4417, 4418, 4419, 4420, 4421, 4422, 4423, 4424, 4425, 4426, 4427, 4428, 4429, 4430, 4431, 4432
4433, 4434, 4435, 4436, 4437, 4438, 4439, 4440, 4441, 4442, 4443, 4444, 4445, 4446, 4447, 4448
4449, 4450, 4451, 4452, 4453, 4454, 4455, 4456, 4457, 4458, 4459, 4460, 4461, 4462, 4463, 4464
4465, 4466, 4467, 4468, 4469, 4470, 4471, 4472, 4473, 4474, 4475, 4476, 4477, 4478, 4479, 4480
4481, 4482, 4483, 4484, 4485, 4486, 4487, 4488, 4489, 4490, 4491, 4492, 4493, 4494, 4495, 4496
4497, 4498, 4499, 4500, 4501, 4502, 4503, 4504, 4505, 4506, 4507, 4508, 4509, 4510, 4511, 4512
4513, 4514, 4515, 4516, 4517, 4518, 4519, 4520, 4521, 4522, 4523, 4524, 4525, 4526, 4527, 4528
4529, 4530, 4531, 4532, 4533, 4534, 4535, 4536, 4537, 4538, 4539, 4540, 4541, 4542, 4543, 4544
4545, 4546, 4547, 4548, 4549, 4550, 4551, 4552, 4553, 4554, 4555, 4556, 4557, 4558, 4559, 4560
4561, 4562, 4563, 4564, 4565, 4566, 4567, 4568, 4569, 4570, 4571, 4572, 4573, 4574, 4575, 4576
4577, 4578, 4579, 4580, 4581, 4582, 4583, 4584, 4585, 4586, 4587, 4588, 4589, 4590, 4591, 4592
4593, 4594, 4595, 4596, 4597, 4598, 4599, 4600, 4601, 4602, 4603, 4604, 4605, 4606, 4607, 4608
4609, 4610, 4611, 4612, 4613, 4614, 4615, 4616, 4617, 4618, 4619, 4620, 4621, 4622, 4623, 4624
4625, 4626, 4627, 4628, 4629, 4630, 4631, 4632, 4633, 4634, 4635, 4636, 4637, 4638, 4639, 4640
4641, 4642, 4643, 4644, 4645, 4646, 4647, 4648, 4649, 4650, 4651, 4652, 4653, 4654, 4655, 4656
4657, 4658, 4659, 4660, 4661, 4662, 4663, 4664, 4665, 4666, 4667, 4668, 4669, 4670, 4671, 4672
4673, 4674, 4675, 4676, 4677, 4678, 4679, 4680, 4681, 4682, 4683, 4684, 4685, 4686, 4687, 4688
4689, 4690, 4691, 4692, 4693, 4694, 4695, 4696, 4697, 4698, 4699, 4700, 4701, 4702, 4703, 4704
4705, 4706, 4707, 4708, 4709, 4710, 4711, 4712, 4713, 4714, 4715, 4716, 4717, 4718, 4719, 4720
4721, 4722, 4723, 4724, 4725, 4726, 4727, 4728, 4729, 4730, 4731, 4732, 4733, 4734, 4735, 4736
4737, 4738, 4739, 4740, 4741, 4742, 4743, 4744, 4745, 4746, 4747, 4748, 4749, 4750, 4751, 4752
4753, 4754, 4755, 4756, 4757, 4758, 4759, 4760, 4761, 4762, 4763, 4764, 4765, 4766, 4767, 4768
4769, 4770, 4771, 4772, 4773, 4774, 4775, 4776, 4777, 4778, 4779, 4780, 4781, 4782, 4783, 4784
4785, 4786, 4787, 4788, 4789, 4790, 4791, 4792, 4793, 4794, 4795, 4796, 4797, 4798, 4799, 4800
4801, 4802, 4803, 4804, 4805, 4806, 4807, 4808, 4809, 4810, 4811, 4812, 4813, 4814, 4815, 4816
4817, 4818, 4819, 4820, 4821, 4822, 4823, 4824, 4825, 4826, 4827, 4828, 4829, 4830, 4831, 4832
4833, 4834, 4835, 4836, 4837, 4838, 4839, 4840, 4841, 4842, 4843, 4844, 4845, 4846, 4847, 4848
4849, 4850, 4851, 4852, 4853, 4854, 4855, 4856, 4857, 4858, 4859, 4860, 4861, 4862, 4863, 4864
4865, 4866, 4867, 4868, 4869, 4870, 4871, 4872, 4873, 4874, 4875, 4876, 4877, 4878, 4879, 4880
4881, 4882, 4883, 4884, 4885, 4886, 4887, 4888, 4889, 4890, 4891, 4892, 4893, 4894, 4895, 4896
4897, 4898, 4899, 4900, 4901, 4902, 4903, 4904, 4905, 4906, 4907, 4908, 4909, 4910, 4911, 4912
4913, 4914, 4915, 4916, 4917, 4918, 4919, 4920, 4921, 4922, 4923, 4924, 4925, 4926, 4927, 4928
4929, 4930, 4931, 4932, 4933, 4934, 4935, 4936, 4937, 4938, 4939, 4940, 4941, 4942, 4943, 4944
4945, 4946, 4947, 4948, 4949, 4950, 4951, 4952, 4953, 4954, 4955, 4956, 4957, 4958, 4959, 4960
4961, 4962, 4963, 4964, 4965, 4966, 4967, 4968, 4969, 4970, 4971, 4972, 4973, 4974, 4975, 4976
4977, 4978, 4979, 4980, 4981, 4982, 4983, 4984, 4985, 4986, 4987, 4988, 4989, 4990, 4991, 4992
4993, 4994, 4995, 4996, 4997, 4998, 4999, 5000, 5001, 5002, 5003, 5004, 5005, 5006, 5007, 5008
5009, 5010, 5011, 5012, 5013, 5014, 5015, 5016, 5017, 5018, 5019, 5020, 5021, 5022, 5023, 5024
5025, 5026, 5027, 5028, 5029, 5030, 5031, 5032, 5033, 5034, 5035, 5036, 5037, 5038, 5039, 5040
5041, 5042, 5043, 5044, 5045, 5046, 5047, 5048, 5049, 5050, 5051, 5052, 5053, 5054, 5055, 5056
5057, 5058, 5059, 5060, 5061, 5062, 5063, 5064, 5065, 5066, 5067, 5068, 5069, 5070, 5071, 5072
5073, 5074, 5075, 5076, 5077, 5078, 5079, 5080, 5081, 5082, 5083, 5084, 5085, 5086, 5087, 5088
5089, 5090, 5091, 5092, 5093, 5094, 5095, 5096, 5097, 5098, 5099, 5100, 5101, 5102, 5103, 5104
5105, 5106, 5107, 5108, 5109, 5110, 5111, 5112, 5113, 5114, 5115, 5116, 5117, 5118, 5119, 5120
5121, 5122, 5123, 5124, 5125, 5126, 5127, 5128, 5129, 5130, 5131, 5132, 5133, 5134, 5135, 5136
5137, 5138, 5139, 5140, 5141, 5142, 5143, 5144, 5145, 5146, 5147, 5148, 5149, 5150, 5151, 5152
5153, 5154, 5155, 5156, 5157, 5158, 5159, 5160, 5161, 5162, 5163, 5164, 5165, 5166, 5167, 5168
5169, 5170, 5171, 5172, 5173, 5174, 5175, 5176, 5177, 5178, 5179, 5180, 5181, 5182, 5183, 5184
5185, 5186, 5187, 5188, 5189, 5190, 5191, 5192, 5193, 5194, 5195, 5196, 5197, 5198, 5199, 5200
5201, 5202, 5203, 5204, 5205, 5206, 5207, 5208, 5209, 5210, 5211, 5212, 5213, 5214, 5215, 5216
5217, 5218, 5219, 5220, 5221, 5222, 5223, 5224, 5225, 5226, 5227, 5228, 5229, 5230, 5231, 5232
5233, 5234, 5235, 5236, 5237, 5238, 5239, 5240, 5241, 5242, 5243, 5244, 5245, 5246, 5247, 5248
5249, 5250, 5251, 5252, 5253, 5254, 5255, 5256, 5257, 5258, 5259, 5260, 5261, 5262, 5263, 5264
5265, 5266, 5267, 5268, 5269, 5270, 5271, 5272, 5273, 5274, 5275, 5276, 5277, 5278, 5279, 5280
5281, 5282, 5283, 5284, 5285, 5286, 5287, 5288, 5289, 5290, 5291, 5292, 5293, 5294, 5295, 5296
5297, 5298, 5299, 5300, 5301, 5302, 5303, 5304, 5305, 5306, 5307, 5308, 5309, 5310, 5311, 5312
5313, 5314, 5315, 5316, 5317, 5318, 5319, 5320, 5321, 5322, 5323, 5324, 5325, 5326, 5327, 5328
5329, 5330, 5331, 5332, 5333, 5334, 5335, 5336, 5337, 5338, 5339, 5340, 5341, 5342, 5343, 5344
5345, 5346, 5347, 5348, 5349, 5350, 5351, 5352, 5353, 5354, 5355, 5356, 5357, 5358, 5359, 5360
5361, 5362, 5363, 5364, 5365, 5366, 5367, 5368, 5369, 5370, 5371, 5372, 5373, 5374, 5375, 5376
5377, 5378, 5379, 5380, 5381, 5382, 5383, 5384, 5385, 5386, 5387, 5388, 5389, 5390, 5391, 5392
5393, 5394, 5395, 5396, 5397, 5398, 5399, 5400, 5401, 5402, 5403, 5404, 5405, 5406, 5407, 5408
5409, 5410, 5411, 5412, 5413, 5414, 5415, 5416, 5417, 5418, 5419, 5420, 5421, 5422, 5423, 5424
5425, 5426, 5427, 5428, 5429, 5430, 5431, 5432, 5433, 5434, 5435, 5436, 5437, 5438, 5439, 5440
5441, 5442, 5443, 5444, 5445, 5446, 5447, 5448, 5449, 5450, 5451, 5452, 5453, 5454, 5455, 5456
5457, 5458, 5459, 5460, 5461, 5462, 5463, 5464, 5465, 5466, 5467, 5468, 5469, 5470, 5471, 5472
5473, 5474, 5475, 5476, 5477, 5478, 5479, 5480, 5481, 5482, 5483, 5484, 5485, 5486, 5487, 5488
5489, 5490, 5491, 5492, 5493, 5494, 5495, 5496, 5497, 5498, 5499, 5500, 5501, 5502, 5503, 5504
5505, 5506, 5507, 5508, 5509, 5510, 5511, 5512, 5513, 5514, 5515, 5516, 5517, 5518, 5519, 5520
5521, 5522, 5523, 5524, 5525, 5526, 5527, 5528, 5529, 5530, 5531, 5532, 5533, 5534, 5535, 5536
5537, 5538, 5539, 5540, 5541, 5542, 5543, 5544, 5545, 5546, 5547, 5548, 5549, 5550, 5551, 5552
5553, 5554, 5555, 5556, 5557, 5558, 5559, 5560, 5561, 5562, 5563, 5564, 5565, 5566, 5567, 5568
5569, 5570, 5571, 5572, 5573, 5574, 5575, 5576, 5577, 5578, 5579, 5580, 5581, 5582, 5583, 5584
5585, 5586, 5587, 5588, 5589, 5590, 5591, 5592, 5593, 5594, 5595, 5596, 5597, 5598, 5599, 5600
5601, 5602, 5603, 5604, 5605, 5606, 5607, 5608, 5609, 5610, 5611, 5612, 5613, 5614, 5615, 5616
5617, 5618, 5619, 5620, 5621, 5622, 5623, 5624, 5625, 5626, 5627, 5628, 5629, 5630, 5631, 5632
5633, 5634, 5635, 5636, 5637, 5638, 5639, 5640, 5641, 5642, 5643, 5644, 5645, 5646, 5647, 5648
5649, 5650, 5651, 5652, 5653, 5654, 5655, 5656, 5657, 5658, 5659, 5660, 5661, 5662, 5663, 5664
5665, 5666, 5667, 5668, 5669, 5670, 5671, 5672, 5673, 5674, 5675, 5676, 5677, 5678, 5679, 5680
5681, 5682, 5683, 5684, 5685, 5686, 5687, 5688, 5689, 5690, 5691, 5692, 5693, 5694, 5695, 5696
5697, 5698, 5699, 5700, 5701, 5702, 5703, 5704, 5705, 5706, 5707, 5708, 5709, 5710, 5711, 5712
5713, 5714, 5715, 5716, 5717, 5718, 5719, 5720, 5721, 5722, 5723, 5724, 5725, 5726, 5727, 5728
5729, 5730, 5731, 5732, 5733, 5734, 5735, 5736, 5737, 5738, 5739, 5740, 5741, 5742, 5743, 5744
5745, 5746, 5747, 5748, 5749, 5750, 5751, 5752, 5753, 5754, 5755, 5756, 5757, 5758, 5759, 5760
5761, 5762, 5763, 5764, 5765, 5766, 5767, 5768, 5769, 5770, 5771, 5772, 5773, 5774, 5775, 5776
5777, 5778, 5779, 5780, 5781, 5782, 5783, 5784, 5785, 5786, 5787, 5788, 5789, 5790, 5791, 5792
5793, 5794, 5795, 5796, 5797, 5798, 5799, 5800, 5801, 5802, 5803, 5804, 5805, 5806, 5807, 5808
5809, 5810, 5811, 5812, 5813, 5814, 5815, 5816, 5817, 5818, 5819, 5820, 5821, 5822, 5823, 5824
5825, 5826, 5827, 5828, 5829, 5830, 5831, 5832, 5833, 5834, 5835, 5836, 5837, 5838, 5839, 5840
5841, 5842, 5843, 5844, 5845, 5846, 5847, 5848, 5849, 5850, 5851, 5852, 5853, 5854, 5855, 5856
5857, 5858, 5859, 5860, 5861, 5862, 5863, 5864, 5865, 5866, 5867, 5868, 5869, 5870, 5871, 5872
5873, 5874, 5875, 5876, 5877, 5878, 5879, 5880, 5881, 5882, 5883, 5884, 5885, 5886, 5887, 5888
5889, 5890, 5891, 5892, 5893, 5894, 5895, 5896, 5897, 5898, 5899, 5900, 5901, 5902, 5903, 5904
5905, 5906, 5907, 5908, 5909, 5910, 5911, 5912, 5913, 5914, 5915, 5916, 5917, 5918, 5919, 5920
5921, 5922, 5923, 5924, 5925, 5926, 5927, 5928, 5929, 5930, 5931, 5932, 5933, 5934, 5935, 5936
5937, 5938, 5939, 5940, 5941, 5942, 5943, 5944, 5945, 5946, 5947, 5948, 5949, 5950, 5951, 5952
5953, 5954, 5955, 5956, 5957, 5958, 5959, 5960, 5961, 5962, 5963, 5964, 5965, 5966, 5967, 5968
5969, 5970, 5971, 5972, 5973, 5974, 5975, 5976, 5977, 5978, 5979, 5980, 5981, 5982, 5983, 5984
5985, 5986, 5987, 5988, 5989, 5990, 5991, 5992, 5993, 5994, 5995, 5996, 5997, 5998, 5999, 6000
6001, 6002, 6003, 6004, 6005, 6006, 6007, 6008, 6009, 6010, 6011, 6012, 6013, 6014, 6015, 6016
6017, 6018, 6019, 6020, 6021, 6022, 6023, 6024, 6025, 6026, 6027, 6028, 6029, 6030, 6031, 6032
6033, 6034, 6035, 6036, 6037, 6038, 6039, 6040, 6041, 6042, 6043, 6044, 6045, 6046, 6047, 6048
6049, 6050, 6051, 6052, 6053, 6054, 6055, 6056, 6057, 6058, 6059, 6060, 6061, 6062, 6063, 6064
6065, 6066, 6067, 6068, 6069, 6070, 6071, 6072, 6073, 6074, 6075, 6076, 6077, 6078, 6079, 6080
6081, 6082, 6083, 6084, 6085, 6086, 6087, 6088, 6089, 6090, 6091, 6092, 6093, 6094, 6095, 6096
6097, 6098, 6099, 6100, 6101, 6102, 6103, 6104, 6105, 6106, 6107, 6108, 6109, 6110, 6111, 6112
6113, 6114, 6115, 6116, 6117, 6118, 6119, 6120, 6121, 6122, 6123, 6124, 6125, 6126, 6127, 6128
6129, 6130, 6131, 6132, 6133, 6134, 6135, 6136, 6137, 6138, 6139, 6140, 6141, 6142, 6143, 6144
6145, 6146, 6147, 6148, 6149, 6150, 6151, 6152, 6153, 6154, 6155, 6156, 6157, 6158, 6159, 6160
6161, 6162, 6163, 6164, 6165, 6166, 6167, 6168, 6169, 6170, 6171, 6172, 6173, 6174, 6175, 6176
6177, 6178, 6179, 6180, 6181, 6182, 6183, 6184, 6185, 6186, 6187, 6188, 6189, 6190, 6191, 6192
6193, 6194, 6195, 6196, 6197, 6198, 6199, 6200, 6201, 6202, 6203, 6204, 6205, 6206, 6207, 6208
6209, 6210, 6211, 6212, 6213, 6214, 6215, 6216, 6217, 6218, 6219, 6220, 6221, 6222, 6223, 6224
6225, 6226, 6227, 6228, 6229, 6230, 6231, 6232, 6233, 6234, 6235, 6236, 6237, 6238, 6239, 6240
6241, 6242, 6243, 6244, 6245, 6246, 6247, 6248, 6249, 6250, 6251, 6252, 6253, 6254, 6255, 6256
6257, 6258, 6259, 6260, 6261, 6262, 6263, 6264, 6265, 6266, 6267, 6268, 6269, 6270, 6271, 6272
6273, 6274, 6275, 6276, 6277, 6278, 6279, 6280, 6281, 6282, 6283, 6284, 6285, 6286, 6287, 6288
6289, 6290, 6291, 6292, 6293, 6294, 6295, 6296, 6297, 6298, 6299, 6300, 6301, 6302, 6303, 6304
6305, 6306, 6307, 6308, 6309, 6310, 6311, 6312, 6313, 6314, 6315, 6316, 6317, 6318, 6319, 6320
6321, 6322, 6323, 6324, 6325, 6326, 6327, 6328, 6329, 6330, 6331, 6332, 6333, 6334, 6335, 6336
6337, 6338, 6339, 6340, 6341, 6342, 6343, 6344, 6345, 6346, 6347, 6348, 6349, 6350, 6351, 6352
6353, 6354, 6355, 6356, 6357, 6358, 6359, 6360, 6361, 6362, 6363, 6364, 6365, 6366, 6367, 6368
6369, 6370, 6371, 6372, 6373, 6374, 6375, 6376, 6377, 6378, 6379, 6380, 6381, 6382, 6383, 6384
6385, 6386, 6387, 6388, 6389, 6390, 6391, 6392, 6393, 6394, 6395, 6396, 6397, 6398, 6399, 6400
6401, 6402, 6403, 6404, 6405, 6406, 6407, 6408, 6409, 6410, 6411, 6412, 6413, 6414, 6415, 6416
6417, 6418, 6419, 6420, 6421, 6422, 6423, 6424, 6425, 6426, 6427, 6428, 6429, 6430, 6431, 6432
6433, 6434, 6435, 6436, 6437, 6438, 6439, 6440, 6441, 6442, 6443, 6444, 6445, 6446, 6447, 6448
6449, 6450, 6451, 6452, 6453, 6454, 6455, 6456, 6457, 6458, 6459, 6460, 6461, 6462, 6463, 6464
6465, 6466, 6467, 6468, 6469, 6470, 6471, 6472, 6473, 6474, 6475, 6476, 6477, 6478, 6479, 6480
6481, 6482, 6483, 6484, 6485, 6486, 6487, 6488, 6489, 6490, 6491, 6492, 6493, 6494, 6495, 6496
6497, 6498, 6499, 6500, 6501, 6502, 6503, 6504, 6505, 6506, 6507, 6508, 6509, 6510, 6511, 6512
6513, 6514, 6515, 6516, 6517, 6518, 6519, 6520, 6521, 6522, 6523, 6524, 6525, 6526, 6527, 6528
6529, 6530, 6531, 6532, 6533, 6534, 6535, 6536, 6537, 6538, 6539, 6540, 6541, 6542, 6543, 6544
6545, 6546, 6547, 6548, 6549, 6550, 6551, 6552, 6553, 6554, 6555, 6556, 6557, 6558, 6559, 6560
6561, 6562, 6563, 6564, 6565, 6566, 6567, 6568, 6569, 6570, 6571, 6572, 6573, 6574, 6575, 6576
6577, 6578, 6579, 6580, 6581, 6582, 6583, 6584, 6585, 6586, 6587, 6588, 6589, 6590, 6591, 6592
6593, 6594, 6595, 6596, 6597, 6598, 6599, 6600, 6601, 6602, 6603, 6604, 6605, 6606, 6607, 6608
6609, 6610, 6611, 6612, 6613, 6614, 6615, 6616, 6617, 6618, 6619, 6620, 6621, 6622, 6623, 6624
6625, 6626, 6627, 6628, 6629, 6630, 6631, 6632, 6633, 6634, 6635, 6636, 6637, 6638, 6639, 6640
6641, 6642, 6643, 6644, 6645, 6646, 6647, 6648, 6649, 6650, 6651, 6652, 6653, 6654, 6655, 6656
6657, 6658, 6659, 6660, 6661, 6662, 6663, 6664, 6665, 6666, 6667, 6668, 6669, 6670, 6671, 6672
6673, 6674, 6675, 6676, 6677, 6678, 6679, 6680, 6681, 6682, 6683, 6684, 6685, 6686, 6687, 6688
6689, 6690, 6691, 6692, 6693, 6694, 6695, 6696, 6697, 6698, 6699, 6700, 6701, 6702, 6703, 6704
6705, 6706, 6707, 6708, 6709, 6710, 6711, 6712, 6713, 6714, 6715, 6716, 6717, 6718, 6719, 6720
6721, 6722, 6723, 6724, 6725, 6726, 6727, 6728, 6729, 6730, 6731, 6732, 6733, 6734, 6735, 6736
6737, 6738, 6739, 6740, 6741, 6742, 6743, 6744, 6745, 6746, 6747, 6748, 6749, 6750, 6751, 6752
6753, 6754, 6755, 6756, 6757, 6758, 6759, 6760, 6761, 6762, 6763, 6764, 6765, 6766, 6767, 6768
6769, 6770, 6771, 6772, 6773, 6774, 6775, 6776, 6777, 6778, 6779, 6780, 6781, 6782, 6783, 6784
6785, 6786, 6787, 6788, 6789, 6790, 6791, 6792, 6793, 6794, 6795, 6796, 6797, 6798, 6799, 6800
6801, 6802, 6803, 6804, 6805, 6806, 6807, 6808, 6809, 6810, 6811, 6812, 6813, 6814, 6815, 6816
6817, 6818, 6819, 6820, 6821, 6822, 6823, 6824, 6825, 6826, 6827, 6828, 6829, 6830, 6831, 6832
6833, 6834, 6835, 6836, 6837, 6838, 6839, 6840, 6841, 6842, 6843, 6844, 6845, 6846, 6847, 6848
6849, 6850, 6851, 6852, 6853, 6854, 6855, 6856, 6857, 6858, 6859, 6860, 6861, 6862, 6863, 6864
6865, 6866, 6867, 6868, 6869, 6870, 6871, 6872, 6873, 6874, 6875, 6876, 6877, 6878, 6879, 6880
6881, 6882, 6883, 6884, 6885, 6886, 6887, 6888, 6889, 6890, 6891, 6892, 6893, 6894, 6895, 6896
6897, 6898, 6899, 6900, 6901, 6902, 6903, 6904, 6905, 6906, 6907, 6908, 6909, 6910, 6911, 6912
6913, 6914, 6915, 6916, 6917, 6918, 6919, 6920, 6921, 6922, 6923, 6924, 6925, 6926, 6927, 6928
6929, 6930, 6931, 6932, 6933, 6934, 6935, 6936, 6937, 6938, 6939, 6940, 6941, 6942, 6943, 6944
6945, 6946, 6947, 6948, 6949, 6950, 6951, 6952, 6953, 6954, 6955, 6956, 6957, 6958, 6959, 6960
6961, 6962, 6963, 6964, 6965, 6966, 6967, 6968, 6969, 6970, 6971, 6972, 6973, 6974, 6975, 6976
6977, 6978, 6979, 6980, 6981, 6982, 6983, 6984, 6985, 6986, 6987, 6988, 6989, 6990, 6991, 6992
6993, 6994, 6995, 6996, 6997, 6998, 6999, 7000, 7001, 7002, 7003, 7004, 7005, 7006, 7007, 7008
7009, 7010, 7011, 7012, 7013, 7014, 7015, 7016, 7017, 7018, 7019, 7020, 7021, 7022, 7023, 7024
7025, 7026, 7027, 7028, 7029, 7030, 7031, 7032, 7033, 7034, 7035, 7036, 7037, 7038, 7039, 7040
7041, 7042, 7043, 7044, 7045, 7046, 7047, 7048, 7049, 7050, 7051, 7052, 7053, 7054, 7055, 7056
7057, 7058, 7059, 7060, 7061, 7062, 7063, 7064, 7065, 7066, 7067, 7068, 7069, 7070, 7071, 7072
7073, 7074, 7075, 7076, 7077, 7078, 7079, 7080, 7081, 7082, 7083, 7084, 7085, 7086, 7087, 7088
7089, 7090, 7091, 7092, 7093, 7094, 7095, 7096, 7097, 7098, 7099, 7100, 7101, 7102, 7103, 7104
7105, 7106, 7107, 7108, 7109, 7110, 7111, 7112, 7113, 7114, 7115, 7116, 7117, 7118, 7119, 7120
7121, 7122, 7123, 7124, 7125, 7126, 7127, 7128, 7129, 7130, 7131, 7132, 7133, 7134, 7135, 7136
7137, 7138, 7139, 7140, 7141, 7142, 7143, 7144, 7145, 7146, 7147, 7148, 7149, 7150, 7151, 7152
7153, 7154, 7155, 7156, 7157, 7158, 7159, 7160, 7161, 7162, 7163, 7164, 7165, 7166, 7167, 7168
7169, 7170, 7171, 7172, 7173, 7174, 7175, 7176, 7177, 7178, 7179, 7180, 7181, 7182, 7183, 7184
7185, 7186, 7187, 7188, 7189, 7190, 7191, 7192, 7193, 7194, 7195, 7196, 7197, 7198, 7199, 7200
7201, 7202, 7203, 7204, 7205, 7206, 7207, 7208, 7209, 7210, 7211, 7212, 7213, 7214, 7215, 7216
7217, 7218, 7219, 7220, 7221, 7222, 7223, 7224, 7225, 7226, 7227, 7228, 7229, 7230, 7231, 7232
7233, 7234, 7235, 7236, 7237, 7238, 7239, 7240, 7241, 7242, 7243, 7244, 7245, 7246, 7247, 7248
7249, 7250, 7251, 7252, 7253, 7254, 7255, 7256, 7257, 7258, 7259, 7260, 7261, 7262, 7263, 7264
7265, 7266, 7267, 7268, 7269, 7270, 7271, 7272, 7273, 7274, 7275, 7276, 7277, 7278, 7279, 7280
7281, 7282, 7283, 7284, 7285, 7286, 7287, 7288, 7289, 7290, 7291, 7292, 7293, 7294, 7295, 7296
7297, 7298, 7299, 7300, 7301, 7302, 7303, 7304, 7305, 7306, 7307, 7308, 7309, 7310, 7311, 7312
7313, 7314, 7315, 7316, 7317, 7318, 7319, 7320, 7321, 7322, 7323, 7324, 7325, 7326, 7327, 7328
7329, 7330, 7331, 7332, 7333, 7334, 7335, 7336, 7337, 7338, 7339, 7340, 7341, 7342, 7343, 7344
7345, 7346, 7347, 7348, 7349, 7350, 7351, 7352, 7353, 7354, 7355, 7356, 7357, 7358, 7359, 7360
7361, 7362, 7363, 7364, 7365, 7366, 7367, 7368, 7369, 7370, 7371, 7372, 7373, 7374, 7375, 7376
7377, 7378, 7379, 7380, 7381, 7382, 7383, 7384, 7385, 7386, 7387, 7388, 7389, 7390, 7391, 7392
7393, 7394, 7395, 7396, 7397, 7398, 7399, 7400, 7401, 7402, 7403, 7404, 7405, 7406, 7407, 7408
7409, 7410, 7411, 7412, 7413, 7414, 7415, 7416, 7417, 7418, 7419, 7420, 7421, 7422, 7423, 7424
7425, 7426, 7427, 7428, 7429, 7430, 7431, 7432, 7433, 7434, 7435, 7436, 7437, 7438, 7439, 7440
7441, 7442, 7443, 7444, 7445, 7446, 7447, 7448, 7449, 7450, 7451, 7452, 7453, 7454, 7455, 7456
7457, 7458, 7459, 7460, 7461, 7462, 7463, 7464, 7465, 7466, 7467, 7468, 7469, 7470, 7471, 7472
7473, 7474, 7475, 7476, 7477, 7478, 7479, 7480, 7481, 7482, 7483, 7484, 7485, 7486, 7487, 7488
7489, 7490, 7491, 7492, 7493, 7494, 7495, 7496, 7497, 7498, 7499, 7500, 7501, 7502, 7503, 7504
7505, 7506, 7507, 7508, 7509, 7510, 7511, 7512, 7513, 7514, 7515, 7516, 7517, 7518, 7519, 7520
7521, 7522, 7523, 7524, 7525, 7526, 7527, 7528, 7529, 7530, 7531, 7532, 7533, 7534, 7535, 7536
7537, 7538, 7539, 7540, 7541, 7542, 7543, 7544, 7545, 7546, 7547, 7548, 7549, 7550, 7551, 7552
7553, 7554, 7555, 7556, 7557, 7558, 7559, 7560, 7561, 7562, 7563, 7564, 7565, 7566, 7567, 7568
7569, 7570, 7571, 7572, 7573, 7574, 7575, 7576, 7577, 7578, 7579, 7580, 7581, 7582, 7583, 7584
7585, 7586, 7587, 7588, 7589, 7590, 7591, 7592, 7593, 7594, 7595, 7596, 7597, 7598, 7599, 7600
7601, 7602, 7603, 7604, 7605, 7606, 7607, 7608, 7609, 7610, 7611, 7612, 7613, 7614, 7615, 7616
7617, 7618, 7619, 7620, 7621, 7622, 7623, 7624, 7625, 7626, 7627, 7628, 7629, 7630, 7631, 7632
7633, 7634, 7635, 7636, 7637, 7638, 7639, 7640, 7641, 7642, 7643, 7644, 7645, 7646, 7647, 7648
7649, 7650, 7651, 7652, 7653, 7654, 7655, 7656, 7657, 7658, 7659, 7660, 7661, 7662, 7663, 7664
7665, 7666, 7667, 7668, 7669, 7670, 7671, 7672, 7673, 7674, 7675, 7676, 7677, 7678, 7679, 7680
7681, 7682, 7683, 7684, 7685, 7686, 7687, 7688, 7689, 7690, 7691, 7692, 7693, 7694, 7695, 7696
7697, 7698, 7699, 7700, 7701, 7702, 7703, 7704, 7705, 7706, 7707, 7708, 7709, 7710, 7711, 7712
7713, 7714, 7715, 7716, 7717, 7718, 7719, 7720, 7721, 7722, 7723, 7724, 7725, 7726, 7727, 7728
7729, 7730, 7731, 7732, 7733, 7734, 7735, 7736, 7737, 7738, 7739, 7740, 7741, 7742, 7743, 7744
7745, 7746, 7747, 7748, 7749, 7750, 7751, 7752, 7753, 7754, 7755, 7756, 7757, 7758, 7759, 7760
7761, 7762, 7763, 7764, 7765, 7766, 7767, 7768, 7769, 7770, 7771, 7772, 7773, 7774, 7775, 7776
7777, 7778, 7779, 7780, 7781, 7782, 7783, 7784, 7785, 7786, 7787, 7788, 7789, 7790, 7791, 7792
7793, 7794, 7795, 7796, 7797, 7798, 7799, 7800, 7801, 7802, 7803, 7804, 7805, 7806, 7807, 7808
7809, 7810, 7811, 7812, 7813, 7814, 7815, 7816, 7817, 7818, 7819, 7820, 7821, 7822, 7823, 7824
7825, 7826, 7827, 7828, 7829, 7830, 7831, 7832, 7833, 7834, 7835, 7836, 7837, 7838, 7839, 7840
7841, 7842, 7843, 7844, 7845, 7846, 7847, 7848, 7849, 7850, 7851, 7852, 7853, 7854, 7855, 7856
7857, 7858, 7859, 7860, 7861, 7862, 7863, 7864, 7865, 7866, 7867, 7868, 7869, 7870, 7871, 7872
7873, 7874, 7875, 7876, 7877, 7878, 7879, 7880, 7881, 7882, 7883, 7884, 7885, 7886, 7887, 7888
7889, 7890, 7891, 7892, 7893, 7894, 7895, 7896, 7897, 7898, 7899, 7900, 7901, 7902, 7903, 7904
7905, 7906, 7907, 7908, 7909, 7910, 7911, 7912, 7913, 7914, 7915, 7916, 7917, 7918, 7919, 7920
7921, 7922, 7923, 7924, 7925, 7926, 7927, 7928, 7929, 7930, 7931, 7932, 7933, 7934, 7935, 7936
7937, 7938, 7939, 7940, 7941, 7942, 7943, 7944, 7945, 7946, 7947, 7948, 7949, 7950, 7951, 7952
7953, 7954, 7955, 7956, 7957, 7958, 7959, 7960, 7961, 7962, 7963, 7964, 7965, 7966, 7967, 7968
7969, 7970, 7971, 7972, 7973, 7974, 7975, 7976, 7977, 7978, 7979, 7980, 7981, 7982, 7983, 7984
7985, 7986, 7987, 7988, 7989, 7990, 7991, 7992, 7993, 7994, 7995, 7996, 7997, 7998, 7999, 8000
8001, 8002, 8003, 8004, 8005, 8006, 8007, 8008, 8009, 8010, 8011, 8012, 8013, 8014, 8015, 8016
8017, 8018, 8019, 8020, 8021, 8022, 8023, 8024, 8025, 8026, 8027, 8028, 8029, 8030, 8031, 8032
8033, 8034, 8035, 8036, 8037, 8038, 8039, 8040, 8041, 8042, 8043, 8044, 8045, 8046, 8047, 8048
8049, 8050, 8051, 8052, 8053, 8054, 8055, 8056, 8057, 8058, 8059, 8060, 8061, 8062, 8063, 8064
8065, 8066, 8067, 8068, 8069, 8070, 8071, 8072, 8073, 8074, 8075, 8076, 8077, 8078, 8079, 8080
8081, 8082, 8083, 8084, 8085, 8086, 8087, 8088, 8089, 8090, 8091, 8092, 8093, 8094, 8095, 8096
8097, 8098, 8099, 8100, 8101, 8102, 8103, 8104, 8105, 8106, 8107, 8108, 8109, 8110, 8111, 8112
8113, 8114, 8115, 8116, 8117, 8118, 8119, 8120, 8121, 8122, 8123, 8124, 8125, 8126, 8127, 8128
8129, 8130, 8131, 8132, 8133, 8134, 8135, 8136, 8137, 8138, 8139, 8140, 8141, 8142, 8143, 8144
8145, 8146, 8147, 8148, 8149, 8150, 8151, 8152, 8153, 8154, 8155, 8156, 8157, 8158, 8159, 8160
8161, 8162, 8163, 8164, 8165, 8166, 8167, 8168, 8169, 8170, 8171, 8172, 8173, 8174, 8175, 8176
8177, 8178, 8179, 8180, 8181, 8182, 8183, 8184, 8185, 8186, 8187, 8188, 8189, 8190, 8191, 8192
8193, 8194, 8195, 8196, 8197, 8198, 8199, 8200, 8201, 8202, 8203, 8204, 8205, 8206, 8207, 8208
8209, 8210, 8211, 8212, 8213, 8214, 8215, 8216, 8217, 8218, 8219, 8220, 8221, 8222, 8223, 8224
8225, 8226, 8227, 8228, 8229, 8230, 8231, 8232, 8233, 8234, 8235, 8236, 8237, 8238, 8239, 8240
8241, 8242, 8243, 8244, 8245, 8246, 8247, 8248, 8249, 8250, 8251, 8252, 8253, 8254, 8255, 8256
8257, 8258, 8259, 8260, 8261, 8262, 8263, 8264, 8265, 8266, 8267, 8268, 8269, 8270, 8271, 8272
8273, 8274, 8275, 8276, 8277, 8278, 8279, 8280, 8281, 8282, 8283, 8284, 8285, 8286, 8287, 8288
8289, 8290, 8291, 8292, 8293, 8294, 8295, 8296, 8297, 8298, 8299, 8300, 8301, 8302, 8303, 8304
8305, 8306, 8307, 8308, 8309, 8310, 8311, 8312, 8313, 8314, 8315, 8316, 8317, 8318, 8319, 8320
8321, 8322, 8323, 8324, 8325, 8326, 8327, 8328, 8329, 8330, 8331, 8332, 8333, 8334, 8335, 8336
8337, 8338, 8339, 8340, 8341, 8342, 8343, 8344, 8345, 8346, 8347, 8348, 8349, 8350, 8351, 8352
8353, 8354, 8355, 8356, 8357, 8358, 8359, 8360, 8361, 8362, 8363, 8364, 8365, 8366, 8367, 8368
8369, 8370, 8371, 8372, 8373, 8374, 8375, 8376, 8377, 8378, 8379, 8380, 8381, 8382, 8383, 8384
8385, 8386, 8387, 8388, 8389, 8390, 8391, 8392, 8393, 8394, 8395, 8396, 8397, 8398, 8399, 8400
8401, 8402, 8403, 8404, 8405, 8406, 8407, 8408, 8409, 8410, 8411, 8412, 8413, 8414, 8415, 8416
8417, 8418, 8419, 8420, 8421, 8422, 8423, 8424, 8425, 8426, 8427, 8428, 8429, 8430, 8431, 8432
8433, 8434, 8435, 8436, 8437, 8438, 8439, 8440, 8441, 8442, 8443, 8444, 8445, 8446, 8447, 8448
8449, 8450, 8451, 8452, 8453, 8454, 8455, 8456, 8457, 8458, 8459, 8460, 8461, 8462, 8463, 8464
8465, 8466, 8467, 8468, 8469, 8470, 8471, 8472, 8473, 8474, 8475, 8476, 8477, 8478, 8479, 8480
8481, 8482, 8483, 8484, 8485, 8486, 8487, 8488, 8489, 8490, 8491, 8492, 8493, 8494, 8495, 8496
8497, 8498, 8499, 8500, 8501, 8502, 8503, 8504, 8505, 8506, 8507, 8508, 8509, 8510, 8511, 8512
8513, 8514, 8515, 8516, 8517, 8518, 8519, 8520, 8521, 8522, 8523, 8524, 8525, 8526, 8527, 8528
8529, 8530, 8531, 8532, 8533, 8534, 8535, 8536, 8537, 8538, 8539, 8540, 8541, 8542, 8543, 8544
8545, 8546, 8547, 8548, 8549, 8550, 8551, 8552, 8553, 8554, 8555, 8556, 8557, 8558, 8559, 8560
8561, 8562, 8563, 8564, 8565, 8566, 8567, 8568, 8569, 8570, 8571, 8572, 8573, 8574, 8575, 8576
8577, 8578, 8579, 8580, 8581, 8582, 8583, 8584, 8585, 8586, 8587, 8588, 8589, 8590, 8591, 8592
8593, 8594, 8595, 8596, 8597, 8598, 8599, 8600, 8601, 8602, 8603, 8604, 8605, 8606, 8607, 8608
8609, 8610, 8611, 8612, 8613, 8614, 8615, 8616, 8617, 8618, 8619, 8620, 8621, 8622, 8623, 8624
8625, 8626, 8627, 8628, 8629, 8630, 8631, 8632, 8633, 8634, 8635, 8636, 8637, 8638, 8639, 8640
8641, 8642, 8643, 8644, 8645, 8646, 8647, 8648, 8649, 8650, 8651, 8652, 8653, 8654, 8655, 8656
8657, 8658, 8659, 8660, 8661, 8662, 8663, 8664, 8665, 8666, 8667, 8668, 8669, 8670, 8671, 8672
8673, 8674, 8675, 8676, 8677, 8678, 8679, 8680, 8681, 8682, 8683, 8684, 8685, 8686, 8687, 8688
8689, 8690, 8691, 8692, 8693, 8694, 8695, 8696, 8697, 8698, 8699, 8700, 8701, 8702, 8703, 8704
8705, 8706, 8707, 8708, 8709, 8710, 8711, 8712, 8713, 8714, 8715, 8716, 8717, 8718, 8719, 8720
8721, 8722, 8723, 8724, 8725, 8726, 8727, 8728, 8729, 8730, 8731, 8732, 8733, 8734, 8735, 8736
8737, 8738, 8739, 8740, 8741, 8742, 8743, 8744, 8745, 8746, 8747, 8748, 8749, 8750, 8751, 8752
8753, 8754, 8755, 8756, 8757, 8758, 8759, 8760, 8761, 8762, 8763, 8764, 8765, 8766, 8767, 8768
8769, 8770, 8771, 8772, 8773, 8774, 8775, 8776, 8777, 8778, 8779, 8780, 8781, 8782, 8783, 8784
8785, 8786, 8787, 8788, 8789, 8790, 8791, 8792, 8793, 8794, 8795, 8796, 8797, 8798, 8799, 8800
8801, 8802, 8803, 8804, 8805, 8806, 8807, 8808, 8809, 8810, 8811, 8812, 8813, 8814, 8815, 8816
8817, 8818, 8819, 8820, 8821, 8822, 8823, 8824, 8825, 8826, 8827, 8828, 8829, 8830, 8831, 8832
8833, 8834, 8835, 8836, 8837, 8838, 8839, 8840, 8841, 8842, 8843, 8844, 8845, 8846, 8847, 8848
8849, 8850, 8851, 8852, 8853, 8854, 8855, 8856, 8857, 8858, 8859, 8860, 8861, 8862, 8863, 8864
8865, 8866, 8867, 8868, 8869, 8870, 8871, 8872, 8873, 8874, 8875, 8876, 8877, 8878, 8879, 8880
8881, 8882, 8883, 8884, 8885, 8886, 8887, 8888, 8889, 8890, 8891, 8892, 8893, 8894, 8895, 8896
8897, 8898, 8899, 8900, 8901, 8902, 8903, 8904, 8905, 8906, 8907, 8908, 8909, 8910, 8911, 8912
8913, 8914, 8915, 8916, 8917, 8918, 8919, 8920, 8921, 8922, 8923, 8924, 8925, 8926, 8927, 8928
8929, 8930, 8931, 8932, 8933, 8934, 8935, 8936, 8937, 8938, 8939, 8940, 8941, 8942, 8943, 8944
8945, 8946, 8947, 8948, 8949, 8950, 8951, 8952, 8953, 8954, 8955, 8956, 8957, 8958, 8959, 8960
8961, 8962, 8963, 8964, 8965, 8966, 8967, 8968, 8969, 8970, 8971, 8972, 8973, 8974, 8975, 8976
8977, 8978, 8979, 8980, 8981, 8982, 8983, 8984, 8985, 8986, 8987, 8988, 8989, 8990, 8991, 8992
8993, 8994, 8995, 8996, 8997, 8998, 8999, 9000, 9001, 9002, 9003, 9004, 9005, 9006, 9007, 9008
9009, 9010, 9011, 9012, 9013, 9014, 9015, 9016, 9017, 9018, 9019, 9020, 9021, 9022, 9023, 9024
9025, 9026, 9027, 9028, 9029, 9030, 9031, 9032, 9033, 9034, 9035, 9036, 9037, 9038, 9039, 9040
9041, 9042, 9043, 9044, 9045, 9046, 9047, 9048, 9049, 9050, 9051, 9052, 9053, 9054, 9055, 9056
9057, 9058, 9059, 9060, 9061, 9062, 9063, 9064, 9065, 9066, 9067, 9068, 9069, 9070, 9071, 9072
9073, 9074, 9075, 9076, 9077, 9078, 9079, 9080, 9081, 9082, 9083, 9084, 9085, 9086, 9087, 9088
9089, 9090, 9091, 9092, 9093, 9094, 9095, 9096, 9097, 9098, 9099, 9100, 9101, 9102, 9103, 9104
9105, 9106, 9107, 9108, 9109, 9110, 9111, 9112, 9113, 9114, 9115, 9116, 9117, 9118, 9119, 9120
9121, 9122, 9123, 9124, 9125, 9126, 9127, 9128, 9129, 9130, 9131, 9132, 9133, 9134, 9135, 9136
9137, 9138, 9139, 9140, 9141, 9142, 9143, 9144, 9145, 9146, 9147, 9148, 9149, 9150, 9151, 9152
9153, 9154, 9155, 9156, 9157, 9158, 9159, 9160, 9161, 9162, 9163, 9164, 9165, 9166, 9167, 9168
9169, 9170, 9171, 9172, 9173, 9174, 9175, 9176, 9177, 9178, 9179, 9180, 9181, 9182, 9183, 9184
9185, 9186, 9187, 9188, 9189, 9190, 9191, 9192, 9193, 9194, 9195, 9196, 9197, 9198, 9199, 9200
9201, 9202, 9203, 9204, 9205, 9206, 9207, 9208, 9209, 9210, 9211, 9212, 9213, 9214, 9215, 9216
9217, 9218, 9219, 9220, 9221, 9222, 9223, 9224, 9225, 9226, 9227, 9228, 9229, 9230, 9231, 9232
9233, 9234, 9235, 9236, 9237, 9238, 9239, 9240, 9241, 9242, 9243, 9244, 9245, 9246, 9247, 9248
9249, 9250, 9251, 9252, 9253, 9254, 9255, 9256, 9257, 9258, 9259, 9260, 9261, 9262, 9263, 9264
9265, 9266, 9267, 9268, 9269, 9270, 9271, 9272, 9273, 9274, 9275, 9276, 9277, 9278, 9279, 9280
9281, 9282, 9283, 9284, 9285, 9286, 9287, 9288, 9289, 9290, 9291, 9292, 9293, 9294, 9295, 9296
9297, 9298, 9299, 9300, 9301, 9302, 9303, 9304, 9305, 9306, 9307, 9308, 9309, 9310, 9311, 9312
9313, 9314, 9315, 9316, 9317, 9318, 9319, 9320, 9321, 9322, 9323, 9324, 9325, 9326, 9327, 9328
9329, 9330, 9331, 9332, 9333, 9334, 9335, 9336, 9337, 9338, 9339, 9340, 9341, 9342, 9343, 9344
9345, 9346, 9347, 9348, 9349, 9350, 9351, 9352, 9353, 9354, 9355, 9356, 9357, 9358, 9359, 9360
9361, 9362, 9363, 9364, 9365, 9366, 9367, 9368, 9369, 9370, 9371, 9372, 9373, 9374, 9375, 9376
9377, 9378, 9379, 9380, 9381, 9382, 9383, 9384, 9385, 9386, 9387, 9388, 9389, 9390, 9391, 9392
9393, 9394, 9395, 9396, 9397, 9398, 9399, 9400, 9401, 9402, 9403, 9404, 9405, 9406, 9407, 9408
9409, 9410, 9411, 9412, 9413, 9414, 9415, 9416, 9417, 9418, 9419, 9420, 9421, 9422, 9423, 9424
9425, 9426, 9427, 9428, 9429, 9430, 9431, 9432, 9433, 9434, 9435, 9436, 9437, 9438, 9439, 9440
9441, 9442, 9443, 9444, 9445, 9446, 9447, 9448, 9449, 9450, 9451, 9452, 9453, 9454, 9455, 9456
9457, 9458, 9459, 9460, 9461, 9462, 9463, 9464, 9465, 9466, 9467, 9468, 9469, 9470, 9471, 9472
9473, 9474, 9475, 9476, 9477, 9478, 9479, 9480, 9481, 9482, 9483, 9484, 9485, 9486, 9487, 9488
9489, 9490, 9491, 9492, 9493, 9494, 9495, 9496, 9497, 9498, 9499, 9500, 9501, 9502, 9503, 9504
9505, 9506, 9507, 9508, 9509, 9510, 9511, 9512, 9513, 9514, 9515, 9516, 9517, 9518, 9519, 9520
9521, 9522, 9523, 9524, 9525, 9526, 9527, 9528, 9529, 9530, 9531, 9532, 9533, 9534, 9535, 9536
9537, 9538, 9539, 9540, 9541, 9542, 9543, 9544, 9545, 9546, 9547, 9548, 9549, 9550, 9551, 9552
9553, 9554, 9555, 9556, 9557, 9558, 9559, 9560, 9561, 9562, 9563, 9564, 9565, 9566, 9567, 9568
9569, 9570, 9571, 9572, 9573, 9574, 9575, 9576, 9577, 9578, 9579, 9580, 9581, 9582, 9583, 9584
9585, 9586, 9587, 9588, 9589, 9590, 9591, 9592, 9593, 9594, 9595, 9596, 9597, 9598, 9599, 9600
9601, 9602, 9603, 9604, 9605, 9606, 9607, 9608, 9609, 9610, 9611, 9612, 9613, 9614, 9615, 9616
9617, 9618, 9619, 9620, 9621, 9622, 9623, 9624, 9625, 9626, 9627, 9628, 9629, 9630, 9631, 9632
9633, 9634, 9635, 9636, 9637, 9638, 9639, 9640, 9641, 9642, 9643, 9644, 9645, 9646, 9647, 9648
9649, 9650, 9651, 9652, 9653, 9654, 9655, 9656, 9657, 9658, 9659, 9660, 9661, 9662, 9663, 9664
9665, 9666, 9667, 9668, 9669, 9670, 9671, 9672, 9673, 9674, 9675, 9676, 9677, 9678, 9679, 9680
9681, 9682, 9683, 9684, 9685, 9686, 9687, 9688, 9689, 9690, 9691, 9692, 9693, 9694, 9695, 9696
9697, 9698, 9699, 9700, 9701, 9702, 9703, 9704, 9705, 9706, 9707, 9708, 9709, 9710, 9711, 9712
9713, 9714, 9715, 9716, 9717, 9718, 9719, 9720, 9721, 9722, 9723, 9724, 9725, 9726, 9727, 9728
9729, 9730, 9731, 9732, 9733, 9734, 9735, 9736, 9737, 9738, 9739, 9740, 9741, 9742, 9743, 9744
9745, 9746, 9747, 9748, 9749, 9750, 9751, 9752, 9753, 9754, 9755, 9756, 9757, 9758, 9759, 9760
9761, 9762, 9763, 9764, 9765, 9766, 9767, 9768, 9769, 9770, 9771, 9772, 9773, 9774, 9775, 9776
9777, 9778, 9779, 9780, 9781, 9782, 9783, 9784, 9785, 9786, 9787, 9788, 9789, 9790, 9791, 9792
9793, 9794, 9795, 9796, 9797, 9798, 9799, 9800, 9801, 9802, 9803, 9804, 9805, 9806, 9807, 9808
9809, 9810, 9811, 9812, 9813, 9814, 9815, 9816, 9817, 9818, 9819, 9820, 9821, 9822, 9823, 9824
9825, 9826, 9827, 9828, 9829, 9830, 9831, 9832, 9833, 9834, 9835, 9836, 9837, 9838, 9839, 9840
9841, 9842, 9843, 9844, 9845, 9846, 9847, 9848, 9849, 9850, 9851, 9852, 9853, 9854, 9855, 9856
9857, 9858, 9859, 9860, 9861, 9862, 9863, 9864, 9865, 9866, 9867, 9868, 9869, 9870, 9871, 9872
9873, 9874, 9875, 9876, 9877, 9878, 9879, 9880, 9881, 9882, 9883, 9884, 9885, 9886, 9887, 9888
9889, 9890, 9891, 9892, 9893, 9894, 9895, 9896, 9897, 9898, 9899, 9900, 9901, 9902, 9903, 9904
9905, 9906, 9907, 9908, 9909, 9910, 9911, 9912, 9913, 9914, 9915, 9916, 9917, 9918, 9919, 9920
9921, 9922, 9923, 9924, 9925, 9926, 9927, 9928, 9929, 9930, 9931, 9932, 9933, 9934, 9935, 9936
9937, 9938, 9939, 9940, 9941, 9942, 9943, 9944, 9945, 9946, 9947, 9948, 9949, 9950, 9951, 9952
9953, 9954, 9955, 9956, 9957, 9958, 9959, 9960, 9961, 9962, 9963, 9964, 9965, 9966, 9967, 9968
9969, 9970, 9971, 9972, 9973, 9974, 9975, 9976, 9977, 9978, 9979, 9980, 9981, 9982, 9983, 9984
9985, 9986, 9987, 9988, 9989, 9990, 9991, 9992, 9993, 9994, 9995, 9996, 9997, 9998, 9999, 10000
10001, 10002, 10003, 10004, 10005, 10006, 10007, 10008, 10009, 10010, 10011, 10012, 10013, 10014, 10015, 10016
10017, 10018, 10019, 10020, 10021, 10022, 10023, 10024, 10025, 10026, 10027, 10028, 10029, 10030, 10031, 10032
10033, 10034, 10035, 10036, 10037, 10038, 10039, 10040, 10041, 10042, 10043, 10044, 10045, 10046, 10047, 10048
10049, 10050, 10051, 10052, 10053, 10054, 10055, 10056, 10057, 10058, 10059, 10060, 10061, 10062, 10063, 10064
10065, 10066, 10067, 10068, 10069, 10070, 10071, 10072, 10073, 10074, 10075, 10076, 10077, 10078, 10079, 10080
10081, 10082, 10083, 10084, 10085, 10086, 10087, 10088, 10089, 10090, 10091, 10092, 10093, 10094, 10095, 10096
10097, 10098, 10099, 10100, 10101, 10102, 10103, 10104, 10105, 10106, 10107, 10108, 10109, 10110, 10111, 10112
10113, 10114, 10115, 10116, 10117, 10118, 10119, 10120, 10121, 10122, 10123, 10124, 10125, 10126, 10127, 10128
10129, 10130, 10131, 10132, 10133, 10134, 10135, 10136, 10137, 10138, 10139, 10140, 10141, 10142, 10143, 10144
10145, 10146, 10147, 10148, 10149, 10150, 10151, 10152, 10153, 10154, 10155, 10156, 10157, 10158, 10159, 10160
10161, 10162, 10163, 10164, 10165, 10166, 10167, 10168, 10169, 10170, 10171, 10172, 10173, 10174, 10175, 10176
10177, 10178, 10179, 10180, 10181, 10182, 10183, 10184, 10185, 10186, 10187, 10188, 10189, 10190, 10191, 10192
10193, 10194, 10195, 10196, 10197, 10198, 10199, 10200, 10201, 10202, 10203, 10204, 10205, 10206, 10207, 10208
10209, 10210, 10211, 10212, 10213, 10214, 10215, 10216, 10217, 10218, 10219, 10220, 10221, 10222, 10223, 10224
10225, 10226, 10227, 10228, 10229, 10230, 10231, 10232, 10233, 10234, 10235, 10236, 10237, 10238, 10239, 10240
10241, 10242, 10243, 10244, 10245, 10246, 10247, 10248, 10249, 10250, 10251, 10252, 10253, 10254, 10255, 10256
10257, 10258, 10259, 10260, 10261, 10262, 10263, 10264, 10265, 10266, 10267, 10268, 10269, 10270, 10271, 10272
10273, 10274, 10275, 10276, 10277, 10278, 10279, 10280, 10281, 10282, 10283, 10284, 10285, 10286, 10287, 10288
10289, 10290, 10291, 10292, 10293, 10294, 10295, 10296, 10297, 10298, 10299, 10300, 10301, 10302, 10303, 10304
10305, 10306, 10307, 10308, 10309, 10310, 10311, 10312, 10313, 10314, 10315, 10316, 10317, 10318, 10319, 10320
10321, 10322, 10323, 10324, 10325, 10326, 10327, 10328, 10329, 10330, 10331, 10332, 10333, 10334, 10335, 10336
10337, 10338, 10339, 10340, 10341, 10342, 10343, 10344, 10345, 10346, 10347, 10348, 10349, 10350, 10351, 10352
10353, 10354, 10355, 10356, 10357, 10358, 10359, 10360, 10361, 10362, 10363, 10364, 10365, 10366, 10367, 10368
10369, 10370, 10371, 10372, 10373, 10374, 10375, 10376, 10377, 10378, 10379, 10380, 10381, 10382, 10383, 10384
10385, 10386, 10387, 10388, 10389, 10390, 10391, 10392, 10393, 10394, 10395, 10396, 10397, 10398, 10399, 10400
10401, 10402, 10403, 10404, 10405, 10406, 10407, 10408, 10409, 10410, 10411, 10412, 10413, 10414, 10415, 10416
10417, 10418, 10419, 10420, 10421, 10422, 10423, 10424, 10425, 10426, 10427, 10428, 10429, 10430, 10431, 10432
10433, 10434, 10435, 10436, 10437, 10438, 10439, 10440, 10441, 10442, 10443, 10444, 10445, 10446, 10447, 10448
10449, 10450, 10451, 10452, 10453, 10454, 10455, 10456, 10457, 10458, 10459, 10460, 10461, 10462, 10463, 10464
10465, 10466, 10467, 10468, 10469, 10470, 10471, 10472, 10473, 10474, 10475, 10476, 10477, 10478, 10479, 10480
10481, 10482, 10483, 10484, 10485, 10486, 10487, 10488, 10489, 10490, 10491, 10492, 10493, 10494, 10495, 10496
10497, 10498, 10499, 10500, 10501, 10502, 10503, 10504, 10505, 10506, 10507, 10508, 10509, 10510, 10511, 10512
10513, 10514, 10515, 10516, 10517, 10518, 10519, 10520, 10521, 10522, 10523, 10524, 10525, 10526, 10527, 10528
10529, 10530, 10531, 10532, 10533, 10534, 10535, 10536, 10537, 10538, 10539, 10540, 10541, 10542, 10543, 10544
10545, 10546, 10547, 10548, 10549, 10550, 10551, 10552, 10553, 10554, 10555, 10556, 10557, 10558, 10559, 10560
10561, 10562, 10563, 10564, 10565, 10566, 10567, 10568, 10569, 10570, 10571, 10572, 10573, 10574, 10575, 10576
10577, 10578, 10579, 10580, 10581, 10582, 10583, 10584, 10585, 10586, 10587, 10588, 10589, 10590, 10591, 10592
10593, 10594, 10595, 10596, 10597, 10598, 10599, 10600, 10601, 10602, 10603, 10604, 10605, 10606, 10607, 10608
10609, 10610, 10611, 10612, 10613, 10614, 10615, 10616, 10617, 10618, 10619, 10620, 10621, 10622, 10623, 10624
10625, 10626, 10627, 10628, 10629, 10630, 10631, 10632, 10633, 10634, 10635, 10636, 10637, 10638, 10639, 10640
10641, 10642, 10643, 10644, 10645, 10646, 10647, 10648, 10649, 10650, 10651, 10652, 10653, 10654, 10655, 10656
10657, 10658, 10659, 10660, 10661, 10662, 10663, 10664, 10665, 10666, 10667, 10668, 10669, 10670, 10671, 10672
10673, 10674, 10675, 10676, 10677, 10678, 10679, 10680, 10681, 10682, 10683, 10684, 10685, 10686, 10687, 10688
10689, 10690, 10691, 10692, 10693, 10694, 10695, 10696, 10697, 10698, 10699, 10700, 10701, 10702, 10703, 10704
10705, 10706, 10707, 10708, 10709, 10710, 10711, 10712, 10713, 10714, 10715, 10716, 10717, 10718, 10719, 10720
10721, 10722, 10723, 10724, 10725, 10726, 10727, 10728, 10729, 10730, 10731, 10732, 10733, 10734, 10735, 10736
10737, 10738, 10739, 10740, 10741, 10742, 10743, 10744, 10745, 10746, 10747, 10748, 10749, 10750, 10751, 10752
10753, 10754, 10755, 10756, 10757, 10758, 10759, 10760, 10761, 10762, 10763, 10764, 10765, 10766, 10767, 10768
10769, 10770, 10771, 10772, 10773, 10774, 10775, 10776, 10777, 10778, 10779, 10780, 10781, 10782, 10783, 10784
10785, 10786, 10787, 10788, 10789, 10790, 10791, 10792, 10793, 10794, 10795, 10796, 10797, 10798, 10799, 10800
10801, 10802, 10803, 10804, 10805, 10806, 10807, 10808, 10809, 10810, 10811, 10812, 10813, 10814, 10815, 10816
10817, 10818, 10819, 10820, 10821, 10822, 10823, 10824, 10825, 10826, 10827, 10828, 10829, 10830, 10831, 10832
10833, 10834, 10835, 10836, 10837, 10838, 10839, 10840, 10841, 10842, 10843, 10844, 10845, 10846, 10847, 10848
10849, 10850, 10851, 10852, 10853, 10854, 10855, 10856, 10857, 10858, 10859, 10860, 10861, 10862, 10863, 10864
10865, 10866, 10867, 10868, 10869, 10870, 10871, 10872, 10873, 10874, 10875, 10876, 10877, 10878, 10879, 10880
10881, 10882, 10883, 10884, 10885, 10886, 10887, 10888, 10889, 10890, 10891, 10892, 10893, 10894, 10895, 10896
10897, 10898, 10899, 10900, 10901, 10902, 10903, 10904, 10905, 10906, 10907, 10908, 10909, 10910, 10911, 10912
10913, 10914, 10915, 10916, 10917, 10918, 10919, 10920, 10921, 10922, 10923, 10924, 10925, 10926, 10927, 10928
10929, 10930, 10931, 10932, 10933, 10934, 10935, 10936, 10937, 10938, 10939, 10940, 10941, 10942, 10943, 10944
10945, 10946, 10947, 10948, 10949, 10950, 10951, 10952, 10953, 10954, 10955, 10956, 10957, 10958, 10959, 10960
10961, 10962, 10963, 10964, 10965, 10966, 10967, 10968, 10969, 10970, 10971, 10972, 10973, 10974, 10975, 10976
10977, 10978, 10979, 10980, 10981, 10982, 10983, 10984, 10985, 10986, 10987, 10988, 10989, 10990, 10991, 10992
10993, 10994, 10995, 10996, 10997, 10998, 10999, 11000, 11001, 11002, 11003, 11004, 11005, 11006, 11007, 11008
11009, 11010, 11011, 11012, 11013, 11014, 11015, 11016, 11017, 11018, 11019, 11020, 11021, 11022, 11023, 11024
11025, 11026, 11027, 11028, 11029, 11030, 11031, 11032, 11033, 11034, 11035, 11036, 11037, 11038, 11039, 11040
11041, 11042, 11043, 11044, 11045, 11046, 11047, 11048, 11049, 11050, 11051, 11052, 11053, 11054, 11055, 11056
11057, 11058, 11059, 11060, 11061, 11062, 11063, 11064, 11065, 11066, 11067, 11068, 11069, 11070, 11071, 11072
11073, 11074, 11075, 11076, 11077, 11078, 11079, 11080, 11081, 11082, 11083, 11084, 11085, 11086, 11087, 11088
11089, 11090, 11091, 11092, 11093, 11094, 11095, 11096, 11097, 11098, 11099, 11100, 11101, 11102, 11103, 11104
11105, 11106, 11107, 11108, 11109, 11110, 11111, 11112, 11113, 11114, 11115, 11116, 11117, 11118, 11119, 11120
11121, 11122, 11123, 11124, 11125, 11126, 11127, 11128, 11129, 11130, 11131, 11132, 11133, 11134, 11135, 11136
11137, 11138, 11139, 11140, 11141, 11142, 11143, 11144, 11145, 11146, 11147, 11148, 11149, 11150, 11151, 11152
11153, 11154, 11155, 11156, 11157, 11158, 11159, 11160, 11161, 11162, 11163, 11164, 11165, 11166, 11167, 11168
11169, 11170, 11171, 11172, 11173, 11174, 11175, 11176, 11177, 11178, 11179, 11180, 11181, 11182, 11183, 11184
11185, 11186, 11187, 11188, 11189, 11190, 11191, 11192, 11193, 11194, 11195, 11196, 11197, 11198, 11199, 11200
11201, 11202, 11203, 11204, 11205, 11206, 11207, 11208, 11209, 11210, 11211, 11212, 11213, 11214, 11215, 11216
11217, 11218, 11219, 11220, 11221, 11222, 11223, 11224, 11225, 11226, 11227, 11228, 11229, 11230, 11231, 11232
11233, 11234, 11235, 11236, 11237, 11238, 11239, 11240, 11241, 11242, 11243, 11244, 11245, 11246, 11247, 11248
11249, 11250, 11251, 11252, 11253, 11254, 11255, 11256, 11257, 11258, 11259, 11260, 11261, 11262, 11263, 11264
11265, 11266, 11267, 11268, 11269, 11270, 11271, 11272, 11273, 11274, 11275, 11276, 11277, 11278, 11279, 11280
11281, 11282, 11283, 11284, 11285, 11286, 11287, 11288, 11289, 11290, 11291, 11292, 11293, 11294, 11295, 11296
11297, 11298, 11299, 11300, 11301, 11302, 11303, 11304, 11305, 11306, 11307, 11308, 11309, 11310, 11311, 11312
11313, 11314, 11315, 11316, 11317, 11318, 11319, 11320, 11321, 11322, 11323, 11324, 11325, 11326, 11327, 11328
11329, 11330, 11331, 11332, 11333, 11334, 11335, 11336, 11337, 11338, 11339, 11340, 11341, 11342, 11343, 11344
11345, 11346, 11347, 11348, 11349, 11350, 11351, 11352, 11353, 11354, 11355, 11356, 11357, 11358, 11359, 11360
11361, 11362, 11363, 11364, 11365, 11366, 11367, 11368, 11369, 11370, 11371, 11372, 11373, 11374, 11375, 11376
11377, 11378, 11379, 11380, 11381, 11382, 11383, 11384, 11385, 11386, 11387, 11388, 11389, 11390, 11391, 11392
11393, 11394, 11395, 11396, 11397, 11398, 11399, 11400, 11401, 11402, 11403, 11404, 11405, 11406, 11407, 11408
11409, 11410, 11411, 11412, 11413, 11414, 11415, 11416, 11417, 11418, 11419, 11420, 11421, 11422, 11423, 11424
11425, 11426, 11427, 11428, 11429, 11430, 11431, 11432, 11433, 11434, 11435, 11436, 11437, 11438, 11439, 11440
11441, 11442, 11443, 11444, 11445, 11446, 11447, 11448, 11449, 11450, 11451, 11452, 11453, 11454, 11455, 11456
11457, 11458, 11459, 11460, 11461, 11462, 11463, 11464, 11465, 11466, 11467, 11468, 11469, 11470, 11471, 11472
11473, 11474, 11475, 11476, 11477, 11478, 11479, 11480, 11481, 11482, 11483, 11484, 11485, 11486, 11487, 11488
11489, 11490, 11491, 11492, 11493, 11494, 11495, 11496, 11497, 11498, 11499, 11500, 11501, 11502, 11503, 11504
11505, 11506, 11507, 11508, 11509, 11510, 11511, 11512, 11513, 11514, 11515, 11516, 11517, 11518, 11519, 11520
11521, 11522, 11523, 11524, 11525, 11526, 11527, 11528, 11529, 11530, 11531, 11532, 11533, 11534, 11535, 11536
11537, 11538, 11539, 11540, 11541, 11542, 11543, 11544, 11545, 11546, 11547, 11548, 11549, 11550, 11551, 11552
11553, 11554, 11555, 11556, 11557, 11558, 11559, 11560, 11561, 11562, 11563, 11564, 11565, 11566, 11567, 11568
11569, 11570, 11571, 11572, 11573, 11574, 11575, 11576, 11577, 11578, 11579, 11580, 11581, 11582, 11583, 11584
11585, 11586, 11587, 11588, 11589, 11590, 11591, 11592, 11593, 11594, 11595, 11596, 11597, 11598, 11599, 11600
11601, 11602, 11603, 11604, 11605, 11606, 11607, 11608, 11609, 11610, 11611, 11612, 11613, 11614, 11615, 11616
11617, 11618, 11619, 11620, 11621, 11622, 11623, 11624, 11625, 11626, 11627, 11628, 11629, 11630, 11631, 11632
11633, 11634, 11635, 11636, 11637, 11638, 11639, 11640, 11641, 11642, 11643, 11644, 11645, 11646, 11647, 11648
11649, 11650, 11651, 11652, 11653, 11654, 11655, 11656, 11657, 11658, 11659, 11660, 11661, 11662, 11663, 11664
11665, 11666, 11667, 11668, 11669, 11670, 11671, 11672, 11673, 11674, 11675, 11676, 11677, 11678, 11679, 11680
11681, 11682, 11683, 11684, 11685, 11686, 11687, 11688, 11689, 11690, 11691, 11692, 11693, 11694, 11695, 11696
11697, 11698, 11699, 11700, 11701, 11702, 11703, 11704, 11705, 11706, 11707, 11708, 11709, 11710, 11711, 11712
11713, 11714, 11715, 11716, 11717, 11718, 11719, 11720, 11721, 11722, 11723, 11724, 11725, 11726, 11727, 11728
11729, 11730, 11731, 11732, 11733, 11734, 11735, 11736, 11737, 11738, 11739, 11740, 11741, 11742, 11743, 11744
11745, 11746, 11747, 11748, 11749, 11750, 11751, 11752, 11753, 11754, 11755, 11756, 11757, 11758, 11759, 11760
11761, 11762, 11763, 11764, 11765, 11766, 11767, 11768, 11769, 11770, 11771, 11772, 11773, 11774, 11775, 11776
11777, 11778, 11779, 11780, 11781, 11782, 11783, 11784, 11785, 11786, 11787, 11788, 11789, 11790, 11791, 11792
11793, 11794, 11795, 11796, 11797, 11798, 11799, 11800, 11801, 11802, 11803, 11804, 11805, 11806, 11807, 11808
11809, 11810, 11811, 11812, 11813, 11814, 11815, 11816, 11817, 11818, 11819, 11820, 11821, 11822, 11823, 11824
11825, 11826, 11827, 11828, 11829, 11830, 11831, 11832, 11833, 11834, 11835, 11836, 11837, 11838, 11839, 11840
11841, 11842, 11843, 11844, 11845, 11846, 11847, 11848, 11849, 11850, 11851, 11852, 11853, 11854, 11855, 11856
11857, 11858, 11859, 11860, 11861, 11862, 11863, 11864, 11865, 11866, 11867, 11868, 11869, 11870, 11871, 11872
11873, 11874, 11875, 11876, 11877, 11878, 11879, 11880, 11881, 11882, 11883, 11884, 11885, 11886, 11887, 11888
11889, 11890, 11891, 11892, 11893, 11894, 11895, 11896, 11897, 11898, 11899, 11900, 11901, 11902, 11903, 11904
11905, 11906, 11907, 11908, 11909, 11910, 11911, 11912, 11913, 11914, 11915, 11916, 11917, 11918, 11919, 11920
11921, 11922, 11923, 11924, 11925, 11926, 11927, 11928, 11929, 11930, 11931, 11932, 11933, 11934, 11935, 11936
11937, 11938, 11939, 11940, 11941, 11942, 11943, 11944, 11945, 11946, 11947, 11948, 11949, 11950, 11951, 11952
11953, 11954, 11955, 11956, 11957, 11958, 11959, 11960, 11961, 11962, 11963, 11964, 11965, 11966, 11967, 11968
11969, 11970, 11971, 11972, 11973, 11974, 11975, 11976, 11977, 11978, 11979, 11980, 11981, 11982, 11983, 11984
11985, 11986, 11987, 11988, 11989, 11990, 11991, 11992, 11993, 11994, 11995, 11996, 11997, 11998, 11999, 12000
12001, 12002, 12003, 12004, 12005, 12006, 12007, 12008, 12009, 12010, 12011, 12012, 12013, 12014, 12015, 12016
12017, 12018, 12019, 12020, 12021, 12022, 12023, 12024, 12025, 12026, 12027, 12028, 12029, 12030, 12031, 12032
12033, 12034, 12035, 12036, 12037, 12038, 12039, 12040, 12041, 12042, 12043, 12044, 12045, 12046, 12047, 12048
12049, 12050, 12051, 12052, 12053, 12054, 12055, 12056, 12057, 12058, 12059, 12060, 12061, 12062, 12063, 12064
12065, 12066, 12067, 12068, 12069, 12070, 12071, 12072, 12073, 12074, 12075, 12076, 12077, 12078, 12079, 12080
12081, 12082, 12083, 12084, 12085, 12086, 12087, 12088, 12089, 12090, 12091, 12092, 12093, 12094, 12095, 12096
12097, 12098, 12099, 12100, 12101, 12102, 12103, 12104, 12105, 12106, 12107, 12108, 12109, 12110, 12111, 12112
12113, 12114, 12115, 12116, 12117, 12118, 12119, 12120, 12121, 12122, 12123, 12124, 12125, 12126, 12127, 12128
12129, 12130, 12131, 12132, 12133, 12134, 12135, 12136, 12137, 12138, 12139, 12140, 12141, 12142, 12143, 12144
12145, 12146, 12147, 12148, 12149, 12150, 12151, 12152, 12153, 12154, 12155, 12156, 12157, 12158, 12159, 12160
12161, 12162, 12163, 12164, 12165, 12166, 12167, 12168, 12169, 12170, 12171, 12172, 12173, 12174, 12175, 12176
12177, 12178, 12179, 12180, 12181, 12182, 12183, 12184, 12185, 12186, 12187, 12188, 12189, 12190, 12191, 12192
12193, 12194, 12195, 12196, 12197, 12198, 12199, 12200, 12201, 12202, 12203, 12204, 12205, 12206, 12207, 12208
12209, 12210, 12211, 12212, 12213, 12214, 12215, 12216, 12217, 12218, 12219, 12220, 12221, 12222, 12223, 12224
12225, 12226, 12227, 12228, 12229, 12230, 12231, 12232, 12233, 12234, 12235, 12236, 12237, 12238, 12239, 12240
12241, 12242, 12243, 12244, 12245, 12246, 12247, 12248, 12249, 12250, 12251, 12252, 12253, 12254, 12255, 12256
12257, 12258, 12259, 12260, 12261, 12262, 12263, 12264, 12265, 12266, 12267, 12268, 12269, 12270, 12271, 12272
12273, 12274, 12275, 12276, 12277, 12278, 12279, 12280, 12281, 12282, 12283, 12284, 12285, 12286, 12287, 12288
12289, 12290, 12291, 12292, 12293, 12294, 12295, 12296, 12297, 12298, 12299, 12300, 12301, 12302, 12303, 12304
12305, 12306, 12307, 12308, 12309, 12310, 12311, 12312, 12313, 12314, 12315, 12316, 12317, 12318, 12319, 12320
12321, 12322, 12323, 12324, 12325, 12326, 12327, 12328, 12329, 12330, 12331, 12332, 12333, 12334, 12335, 12336
12337, 12338, 12339, 12340, 12341, 12342, 12343, 12344, 12345, 12346, 12347, 12348, 12349, 12350, 12351, 12352
12353, 12354, 12355, 12356, 12357, 12358, 12359, 12360, 12361, 12362, 12363, 12364, 12365, 12366, 12367, 12368
12369, 12370, 12371, 12372, 12373, 12374, 12375, 12376, 12377, 12378, 12379, 12380, 12381, 12382, 12383, 12384
12385, 12386, 12387, 12388, 12389, 12390, 12391, 12392, 12393, 12394, 12395, 12396, 12397, 12398, 12399, 12400
12401, 12402, 12403, 12404, 12405, 12406, 12407, 12408, 12409, 12410, 12411, 12412, 12413, 12414, 12415, 12416
12417, 12418, 12419, 12420, 12421, 12422, 12423, 12424, 12425, 12426, 12427, 12428, 12429, 12430, 12431, 12432
12433, 12434, 12435, 12436, 12437, 12438, 12439, 12440, 12441, 12442, 12443, 12444, 12445, 12446, 12447, 12448
12449, 12450, 12451, 12452, 12453, 12454, 12455, 12456, 12457, 12458, 12459, 12460, 12461, 12462, 12463, 12464
12465, 12466, 12467, 12468, 12469, 12470, 12471, 12472, 12473, 12474, 12475, 12476, 12477, 12478, 12479, 12480
12481, 12482, 12483, 12484, 12485, 12486, 12487, 12488, 12489, 12490, 12491, 12492, 12493, 12494, 12495, 12496
12497, 12498, 12499, 12500, 12501, 12502, 12503, 12504, 12505, 12506, 12507, 12508, 12509, 12510, 12511, 12512
12513, 12514, 12515, 12516, 12517, 12518, 12519, 12520, 12521, 12522, 12523, 12524, 12525, 12526, 12527, 12528
12529, 12530, 12531, 12532, 12533, 12534, 12535, 12536, 12537, 12538, 12539, 12540, 12541, 12542, 12543, 12544
12545, 12546, 12547, 12548, 12549, 12550, 12551, 12552, 12553, 12554, 12555, 12556, 12557, 12558, 12559, 12560
12561, 12562, 12563, 12564, 12565, 12566, 12567, 12568, 12569, 12570, 12571, 12572, 12573, 12574, 12575, 12576
12577, 12578, 12579, 12580, 12581, 12582, 12583, 12584, 12585, 12586, 12587, 12588, 12589, 12590, 12591, 12592
12593, 12594, 12595, 12596, 12597, 12598, 12599, 12600, 12601, 12602, 12603, 12604, 12605, 12606, 12607, 12608
12609, 12610, 12611, 12612, 12613, 12614, 12615, 12616, 12617, 12618, 12619, 12620, 12621, 12622, 12623, 12624
12625, 12626, 12627, 12628, 12629, 12630, 12631, 12632, 12633, 12634, 12635, 12636, 12637, 12638, 12639, 12640
12641, 12642, 12643, 12644, 12645, 12646, 12647, 12648, 12649, 12650, 12651, 12652, 12653, 12654, 12655, 12656
12657, 12658, 12659, 12660, 12661, 12662, 12663, 12664, 12665, 12666, 12667, 12668, 12669, 12670, 12671, 12672
12673, 12674, 12675, 12676, 12677, 12678, 12679, 12680, 12681, 12682, 12683, 12684, 12685, 12686, 12687, 12688
12689, 12690, 12691, 12692, 12693, 12694, 12695, 12696, 12697, 12698, 12699, 12700, 12701, 12702, 12703, 12704
12705, 12706, 12707, 12708, 12709, 12710, 12711, 12712, 12713, 12714, 12715, 12716, 12717, 12718, 12719, 12720
12721, 12722, 12723, 12724, 12725, 12726, 12727, 12728, 12729, 12730, 12731, 12732, 12733, 12734, 12735, 12736
12737, 12738, 12739, 12740, 12741, 12742, 12743, 12744, 12745, 12746, 12747, 12748, 12749, 12750, 12751, 12752
12753, 12754, 12755, 12756, 12757, 12758, 12759, 12760, 12761, 12762, 12763, 12764, 12765, 12766, 12767, 12768
12769, 12770, 12771, 12772, 12773, 12774, 12775, 12776, 12777, 12778, 12779, 12780, 12781, 12782, 12783, 12784
12785, 12786, 12787, 12788, 12789, 12790, 12791, 12792, 12793, 12794, 12795, 12796, 12797, 12798, 12799, 12800
12801, 12802, 12803, 12804, 12805, 12806, 12807, 12808, 12809, 12810, 12811, 12812, 12813, 12814, 12815, 12816
12817, 12818, 12819, 12820, 12821, 12822, 12823, 12824, 12825, 12826, 12827, 12828, 12829, 12830, 12831, 12832
12833, 12834, 12835, 12836, 12837, 12838, 12839, 12840, 12841, 12842, 12843, 12844, 12845, 12846, 12847, 12848
12849, 12850, 12851, 12852, 12853, 12854, 12855, 12856, 12857, 12858, 12859, 12860, 12861, 12862, 12863, 12864
12865, 12866, 12867, 12868, 12869, 12870, 12871, 12872, 12873, 12874, 12875, 12876, 12877, 12878, 12879, 12880
12881, 12882, 12883, 12884, 12885, 12886, 12887, 12888, 12889, 12890, 12891, 12892, 12893, 12894, 12895, 12896
12897, 12898, 12899, 12900, 12901, 12902, 12903, 12904, 12905, 12906, 12907, 12908, 12909, 12910, 12911, 12912
12913, 12914, 12915, 12916, 12917, 12918, 12919, 12920, 12921, 12922, 12923, 12924, 12925, 12926, 12927
*MATERIAL, NAME=MATERIAL1
*ELASTIC
3000, 0.35
*SOLID SECTION, ELSET=FULLMESH, MATERIAL=MATERIAL1
*STEP, NAME=X-AXIS-TENSION, NLGEOM=NO
*STATIC
*OUTPUT, FIELD
*ELEMENT OUTPUT, DIRECTIONS=YES
IVOL, S
*NODE OUTPUT
U
*BOUNDARY
TOP, 2, 2, 0
BOTTOM, 2, 2, 0
LEFT, 1, 1, -5
RIGHT, 1, 1, 5

*ENDSTEP