*NODE
1, 2.414343512271142, 0.12990924177131782, 0
2, 2.415388105303138, 0.16957166568669008, 0
3, 2.418521884399125, 0.21162281753378515, 0
4, 2.423744849559103, 0.2560626973126036, 0
5, 2.4310570007830727, 0.3028913050231449, 0
6, 2.440458338071034, 0.35210864066540865, 0
7, 2.451948861422986, 0.40371470423939576, 0
8, 2.465528570838929, 0.4577094957451051, 0
9, 2.4811974663188643, 0.514093015182538, 0
10, 2.4989555478627907, 0.5728652625516937, 0
11, 2.5188028154707083, 0.6340262378525725, 0
12, 2.540739269142617, 0.697575941085174, 0
13, 2.564764908878517, 0.763514372249498, 0
14, 2.590879734678409, 0.8318415313455452, 0
15, 2.6190837465422914, 0.9025574183733157, 0
16, 2.649376944470166, 0.9756620333328085, 0
17, 2.681759328462031, 1.0511553762240247, 0
18, 2.716230898517888, 1.1290374470469637, 0
19, 2.7527916546377362, 1.2093082458016253, 0
20, 2.791441596821575, 1.2919677724880103, 0
21, 2.832180725069406, 1.3770160271061178, 0
22, 2.8749014252279594, 1.4628025175607284, 0
23, 2.9194960831439674, 1.547676751756623, 0
24, 2.965964698817429, 1.6316387296938002, 0
25, 3.0143072722483453, 1.7146884513722618, 0
26, 3.064523803436716, 1.796825916792007, 0
27, 3.1166142923825406, 1.8780511259530352, 0
28, 3.17057873908582, 1.9583640788553474, 0
29, 3.2264171435465534, 2.0377647754989425, 0
30, 3.284129505764741, 2.1162532158838214, 0
31, 3.3437158257403827, 2.193829400009984, 0
32, 3.405176103473478, 2.2704933278774293, 0
33, 3.4685103389640286, 2.3462449994861587, 0
34, 3.5337185322120335, 2.4210844148361716, 0
35, 3.6008006832174932, 2.495011573927469, 0
36, 3.6697567919804057, 2.568026476760048, 0
37, 3.740586858500773, 2.640129123333911, 0
38, 3.8132908827785945, 2.711319513649058, 0
39, 3.887868864813871, 2.781597647705489, 0
40, 3.964320804606602, 2.8509635255032038, 0
41, 4.042646702156786, 2.9194171470422003, 0
42, 4.121461644634931, 2.987862574402607, 0
43, 4.1993807192115415, 3.0572038696645465, 0
44, 4.276403925886619, 3.1274410328280196, 0
45, 4.352531264660163, 3.198574063893027, 0
46, 4.427762735532173, 3.270602962859568, 0
47, 4.502098338502649, 3.3435277297276413, 0
48, 4.575538073571592, 3.4173483644972498, 0
49, 4.648081940739002, 3.492064867168392, 0
50, 4.7197299400048776, 3.5676772377410675, 0
51, 4.790482071369219, 3.644185476215276, 0
52, 4.8603383348320275, 3.7215895825910184, 0
53, 4.929298730393302, 3.7998895568682944, 0
54, 4.997363258053043, 3.879085399047105, 0
55, 5.064531917811251, 3.9591771091274492, 0
56, 5.130804709667924, 4.040164687109327, 0
57, 5.1961816336230635, 4.122048132992737, 0
58, 5.26066268967667, 4.204827446777682, 0
59, 5.324247877828743, 4.288502628464161, 0
60, 5.386937198079281, 4.373073678052172, 0
61, 5.448730650428287, 4.458540595541718, 0
62, 5.507611909960987, 4.543238196601605, 0
63, 5.561564651762611, 4.625501296900642, 0
64, 5.610588875833157, 4.705329896438825, 0
65, 5.654684582172629, 4.78272399521616, 0
66, 5.693851770781023, 4.857683593232642, 0
67, 5.72809044165834, 4.930208690488274, 0
68, 5.757400594804581, 5.000299286983055, 0
69, 5.781782230219745, 5.067955382716984, 0
70, 5.801235347903835, 5.133176977690064, 0
71, 5.815759947856845, 5.19596407190229, 0
72, 5.825356030078782, 5.256316665353667, 0
73, 5.83002359456964, 5.314234758044193, 0
74, 5.829762641329423, 5.3697183499738665, 0
75, 5.8245731703581285, 5.42276744114269, 0
76, 5.814455181655759, 5.4733820315506625, 0
77, 5.799408675222311, 5.521562121197783, 0
78, 5.779433651057788, 5.567307710084054, 0
79, 5.754530109162187, 5.610618798209472, 0
80, 5.724698049535511, 5.651495385574041, 0
81, 5.689937472177757, 5.689937472177757, 0
82, 5.651495385574041, 5.724698049535511, 0
83, 5.610618798209472, 5.754530109162187, 0
84, 5.5673077100840525, 5.779433651057787, 0
85, 5.521562121197783, 5.799408675222311, 0
86, 5.4733820315506625, 5.814455181655759, 0
87, 5.42276744114269, 5.8245731703581285, 0
88, 5.3697183499738665, 5.829762641329422, 0
89, 5.314234758044192, 5.83002359456964, 0
90, 5.256316665353667, 5.825356030078782, 0
91, 5.19596407190229, 5.815759947856845, 0
92, 5.133176977690064, 5.801235347903835, 0
93, 5.067955382716986, 5.781782230219747, 0
94, 5.000299286983054, 5.757400594804581, 0
95, 4.930208690488274, 5.72809044165834, 0
96, 4.857683593232642, 5.693851770781023, 0
97, 4.78272399521616, 5.654684582172629, 0
98, 4.705329896438826, 5.610588875833158, 0
99, 4.625501296900641, 5.56156465176261, 0
100, 4.543238196601605, 5.507611909960987, 0
101, 4.458540595541718, 5.448730650428287, 0
102, 4.373073678052172, 5.386937198079281, 0
103, 4.288502628464161, 5.324247877828743, 0
104, 4.204827446777681, 5.2606626896766695, 0
105, 4.122048132992737, 5.1961816336230635, 0
106, 4.040164687109327, 5.130804709667924, 0
107, 3.9591771091274492, 5.064531917811251, 0
108, 3.879085399047106, 4.997363258053043, 0
109, 3.7998895568682944, 4.929298730393302, 0
110, 3.7215895825910184, 4.8603383348320275, 0
111, 3.644185476215276, 4.790482071369219, 0
112, 3.5676772377410675, 4.7197299400048776, 0
113, 3.492064867168392, 4.648081940739002, 0
114, 3.4173483644972498, 4.575538073571592, 0
115, 3.3435277297276413, 4.502098338502649, 0
116, 3.270602962859568, 4.427762735532173, 0
117, 3.198574063893027, 4.352531264660163, 0
118, 3.1274410328280196, 4.276403925886619, 0
119, 3.0572038696645456, 4.1993807192115415, 0
120, 2.987862574402607, 4.121461644634931, 0
121, 2.9194171470422003, 4.042646702156786, 0
122, 2.8509635255032038, 3.964320804606602, 0
123, 2.7815976477054893, 3.8878688648138713, 0
124, 2.711319513649058, 3.8132908827785945, 0
125, 2.640129123333911, 3.740586858500773, 0
126, 2.568026476760048, 3.6697567919804057, 0
127, 2.495011573927469, 3.6008006832174932, 0
128, 2.4210844148361725, 3.533718532212034, 0
129, 2.3462449994861587, 3.4685103389640286, 0
130, 2.2704933278774293, 3.405176103473478, 0
131, 2.193829400009984, 3.3437158257403827, 0
132, 2.116253215883822, 3.284129505764741, 0
133, 2.037764775498943, 3.226417143546554, 0
134, 1.9583640788553467, 3.1705787390858196, 0
135, 1.878051125953035, 3.1166142923825406, 0
136, 1.796825916792007, 3.064523803436716, 0
137, 1.7146884513722627, 3.0143072722483457, 0
138, 1.6316387296938013, 2.9659646988174297, 0
139, 1.5476767517566223, 2.919496083143967, 0
140, 1.462802517560728, 2.874901425227959, 0
141, 1.3770160271061178, 2.832180725069406, 0
142, 1.2875577183095428, 2.789355304367091, 0
143, 1.200746199465014, 2.748844771270306, 0
144, 1.1165814705725345, 2.7106491257790526, 0
145, 1.0350635316321024, 2.674768367893329, 0
146, 0.9561923826437162, 2.641202497613136, 0
147, 0.8799680236073795, 2.6099515149384733, 0
148, 0.8063904545230896, 2.581015419869342, 0
149, 0.7354596753908474, 2.5543942124057404, 0
150, 0.6671756862106516, 2.5300878925476695, 0
151, 0.6015384869825043, 2.5080964602951292, 0
152, 0.538548077706404, 2.4884199156481195, 0
153, 0.47820445838235237, 2.4710582586066403, 0
154, 0.42050762901034794, 2.456011489170692, 0
155, 0.365457589590391, 2.443279607340274, 0
156, 0.31305434012248035, 2.432862613115387, 0
157, 0.2632978806066188, 2.4247605064960296, 0
158, 0.21618821104280436, 2.4189732874822036, 0
159, 0.17172533143103702, 2.415500956073908, 0
160, -0.12990924177131782, 2.414343512271142, 0
161, -0.16957166568669008, 2.415388105303138, 0
162, -0.21162281753378515, 2.418521884399125, 0
163, -0.2560626973126036, 2.423744849559103, 0
164, -0.3028913050231449, 2.4310570007830727, 0
165, -0.35210864066540865, 2.440458338071034, 0
166, -0.40371470423939576, 2.451948861422986, 0
167, -0.4577094957451051, 2.465528570838929, 0
168, -0.514093015182538, 2.4811974663188643, 0
169, -0.5728652625516937, 2.4989555478627907, 0
170, -0.6340262378525725, 2.5188028154707083, 0
171, -0.697575941085174, 2.540739269142617, 0
172, -0.763514372249498, 2.564764908878517, 0
173, -0.8318415313455452, 2.590879734678409, 0
174, -0.9025574183733157, 2.6190837465422914, 0
175, -0.9756620333328085, 2.649376944470166, 0
176, -1.0511553762240247, 2.681759328462031, 0
177, -1.1290374470469637, 2.716230898517888, 0
