*NODE
1, 3.1410148088861494, 0.16715964205567282, 0
2, 3.14224828577696, 0.20141656507964523, 0
3, 3.145948716449391, 0.2398934520075916, 0
4, 3.152116100903443, 0.28259030283951264, 0
5, 3.1607504391391164, 0.32950711757540857, 0
6, 3.1718517311564107, 0.38064389621527894, 0
7, 3.1854199769553255, 0.4360006387591237, 0
8, 3.2014551765358608, 0.49557734520694396, 0
9, 3.2199573298980178, 0.5593740155587374, 0
10, 3.240926437041796, 0.6273906498145064, 0
11, 3.264362497967194, 0.6996272479742492, 0
12, 3.2902655126742135, 0.7760838100379674, 0
13, 3.318635481162854, 0.8567603360056599, 0
14, 3.349472403433115, 0.9416568258773269, 0
15, 3.3827762794849967, 1.0307732796529683, 0
16, 3.4185471093184994, 1.124109697332584, 0
17, 3.4567848929336242, 1.221666078916175, 0
18, 3.4974896303303686, 1.3234424244037404, 0
19, 3.5406613215087344, 1.4294387337952803, 0
20, 3.5862999664687205, 1.5396550070907944, 0
21, 3.634405565210328, 1.6540912442902838, 0
22, 3.6844339821826453, 1.7703499588652607, 0
23, 3.7358410818347614, 1.886033664287238, 0
24, 3.788626864166676, 2.0011423605562157, 0
25, 3.84279132917839, 2.1156760476721956, 0
26, 3.8983344768699024, 2.229634725635175, 0
27, 3.9552563072412137, 2.3430183944451555, 0
28, 4.013556820292324, 2.455827054102137, 0
29, 4.073236016023233, 2.5680607046061183, 0
30, 4.134293894433941, 2.679719345957102, 0
31, 4.196730455524447, 2.790802978155085, 0
32, 4.260545699294754, 2.901311601200071, 0
33, 4.325739625744857, 3.0112452150920554, 0
34, 4.392312234874761, 3.1206038198310413, 0
35, 4.4602635266844635, 3.229387415417029, 0
36, 4.529593501173964, 3.337596001850016, 0
37, 4.600302158343263, 3.4452295791300043, 0
38, 4.672389498192362, 3.552288147256994, 0
39, 4.74585552072126, 3.658771706230984, 0
40, 4.820700225929955, 3.764680256051974, 0
41, 4.896923613818451, 3.8700137967199666, 0
42, 4.974271207862351, 3.974624967995953, 0
43, 5.052488531537262, 4.078366409640929, 0
44, 5.1315755848431825, 4.181238121654895, 0
45, 5.211532367780115, 4.28324010403785, 0
46, 5.292358880348056, 4.384372356789792, 0
47, 5.374055122547009, 4.484634879910726, 0
48, 5.456621094376974, 4.58402767340065, 0
49, 5.540056795837948, 4.682550737259562, 0
50, 5.624362226929933, 4.780204071487463, 0
51, 5.7095373876529285, 4.876987676084354, 0
52, 5.795582278006934, 4.972901551050233, 0
53, 5.8824968979919525, 5.067945696385104, 0
54, 5.97028124760798, 5.162120112088963, 0
55, 6.058935326855019, 5.255424798161811, 0
56, 6.148459135733067, 5.347859754603649, 0
57, 6.238852674242128, 5.439424981414476, 0
58, 6.330115942382198, 5.530120478594292, 0
59, 6.4222489401532785, 5.619946246143098, 0
60, 6.515251667555371, 5.708902284060893, 0
61, 6.609124124588472, 5.796988592347676, 0
62, 6.699975395495848, 5.883547117627192, 0
63, 6.783914564520758, 5.967919806523178, 0
64, 6.860941631663201, 6.0501066590356345, 0
65, 6.931056596923178, 6.130107675164562, 0
66, 6.994259460300692, 6.207922854909963, 0
67, 7.050550221795737, 6.283552198271832, 0
68, 7.099928881408319, 6.356995705250175, 0
69, 7.142395439138435, 6.428253375844989, 0
70, 7.177949894986084, 6.497325210056273, 0
71, 7.206592248951268, 6.564211207884028, 0
72, 7.228322501033989, 6.628911369328256, 0
73, 7.243140651234241, 6.691425694388954, 0
74, 7.25104669955203, 6.751754183066124, 0
75, 7.252040645987352, 6.8098968353597655, 0
76, 7.246122490540208, 6.865853651269877, 0
77, 7.233292233210599, 6.91962463079646, 0
78, 7.213549873998525, 6.971209773939515, 0
79, 7.186895412903985, 7.0206090806990415, 0
80, 7.153328849926979, 7.067822551075039, 0
81, 7.112850185067507, 7.112850185067507, 0
82, 7.067822551075039, 7.153328849926979, 0
83, 7.0206090806990415, 7.186895412903985, 0
84, 6.971209773939515, 7.213549873998525, 0
85, 6.91962463079646, 7.233292233210599, 0
86, 6.865853651269877, 7.246122490540208, 0
87, 6.8098968353597655, 7.252040645987352, 0
88, 6.751754183066124, 7.251046699552029, 0
89, 6.691425694388954, 7.243140651234242, 0
90, 6.628911369328256, 7.228322501033989, 0
91, 6.564211207884028, 7.206592248951268, 0
92, 6.497325210056273, 7.177949894986084, 0
93, 6.428253375844989, 7.142395439138435, 0
94, 6.356995705250174, 7.099928881408319, 0
95, 6.283552198271832, 7.050550221795737, 0
96, 6.207922854909963, 6.994259460300692, 0
97, 6.130107675164562, 6.931056596923178, 0
98, 6.0501066590356345, 6.860941631663201, 0
99, 5.967919806523176, 6.783914564520757, 0
100, 5.883547117627192, 6.699975395495848, 0
101, 5.796988592347676, 6.609124124588472, 0
102, 5.708902284060893, 6.515251667555371, 0
103, 5.619946246143098, 6.4222489401532785, 0
104, 5.530120478594291, 6.330115942382196, 0
105, 5.439424981414476, 6.238852674242128, 0
106, 5.347859754603649, 6.148459135733067, 0
107, 5.255424798161811, 6.058935326855019, 0
108, 5.162120112088963, 5.97028124760798, 0
109, 5.067945696385102, 5.882496897991952, 0
110, 4.972901551050233, 5.795582278006934, 0
111, 4.876987676084354, 5.7095373876529285, 0
112, 4.780204071487463, 5.624362226929933, 0
113, 4.682550737259562, 5.540056795837948, 0
114, 4.584027673400649, 5.456621094376973, 0
115, 4.484634879910726, 5.374055122547009, 0
116, 4.384372356789792, 5.292358880348056, 0
117, 4.28324010403785, 5.211532367780115, 0
118, 4.1812381216548955, 5.1315755848431825, 0
119, 4.078366409640929, 5.052488531537261, 0
120, 3.974624967995953, 4.974271207862351, 0
121, 3.8700137967199666, 4.896923613818451, 0
122, 3.764680256051974, 4.820700225929955, 0
123, 3.6587717062309846, 4.7458555207212605, 0
124, 3.552288147256993, 4.672389498192362, 0
125, 3.445229579130004, 4.600302158343263, 0
126, 3.337596001850016, 4.529593501173964, 0
127, 3.229387415417029, 4.4602635266844635, 0
128, 3.1206038198310426, 4.392312234874762, 0
129, 3.0112452150920546, 4.325739625744857, 0
130, 2.901311601200069, 4.260545699294752, 0
131, 2.790802978155085, 4.196730455524447, 0
132, 2.6797193459571025, 4.134293894433942, 0
133, 2.56806070460612, 4.073236016023234, 0
134, 2.4558270541021354, 4.013556820292323, 0
135, 2.3430183944451546, 3.9552563072412132, 0
136, 2.229634725635175, 3.8983344768699024, 0
137, 2.1156760476721956, 3.84279132917839, 0
138, 2.0011423605562166, 3.7886268641666763, 0
139, 1.8860336642872368, 3.7358410818347605, 0
140, 1.7703499588652598, 3.684433982182645, 0
141, 1.6540912442902838, 3.634405565210328, 0
142, 1.5337489437452259, 3.583836429520592, 0
143, 1.4180825034815785, 3.5360007606248955, 0
144, 1.3070919234993452, 3.49089855852324, 0
145, 1.2007772037985243, 3.448529823215624, 0
146, 1.0991383443791138, 3.408894554702046, 0
147, 1.0021753452411175, 3.3719927529825098, 0
148, 0.9098882063845329, 3.337824418057013, 0
149, 0.8222769278093607, 3.3063895499255556, 0
150, 0.7393415095155998, 3.2776881485881377, 0
151, 0.6610819515032523, 3.2517202140447603, 0
152, 0.5874982537723155, 3.228485746295422, 0
153, 0.518590416322793, 3.207984745340124, 0
154, 0.45435843915468194, 3.1902172111788656, 0
155, 0.39480232226798373, 3.1751831438116467, 0
156, 0.3399220656626961, 3.1628825432384677, 0
157, 0.28971766933882226, 3.1533154094593283, 0
158, 0.2441891332963606, 3.1464817424742293, 0
159, 0.20333645753531, 3.1423815422831693, 0
160, -0.16715964205567282, 3.1410148088861494, 0
161, -0.20141656507964523, 3.14224828577696, 0
162, -0.2398934520075916, 3.145948716449391, 0
163, -0.28259030283951264, 3.152116100903443, 0
164, -0.32950711757540857, 3.1607504391391164, 0
165, -0.38064389621527894, 3.1718517311564107, 0
166, -0.4360006387591237, 3.1854199769553255, 0
167, -0.49557734520694396, 3.2014551765358608, 0
168, -0.5593740155587374, 3.2199573298980178, 0
169, -0.6273906498145064, 3.240926437041796, 0
170, -0.6996272479742492, 3.264362497967194, 0
171, -0.7760838100379674, 3.2902655126742135, 0
172, -0.8567603360056599, 3.318635481162854, 0
173, -0.9416568258773269, 3.349472403433115, 0
174, -1.0307732796529683, 3.3827762794849967, 0
175, -1.124109697332584, 3.4185471093184994, 0
176, -1.221666078916175, 3.4567848929336242, 0
177, -1.3234424244037404, 3.4974896303303686, 0
178, -1.4294387337952803, 3.5406613215087344, 0
179, -1.5396550070907944, 3.5862999664687205, 0
180, -1.6540912442902838, 3.634405565210328, 0
181, -1.7703499588652607, 3.6844339821826453, 0
182, -1.886033664287238, 3.7358410818347614, 0
183, -2.0011423605562157, 3.788626864166676, 0
184, -2.1156760476721956, 3.84279132917839, 0
185, -2.229634725635175, 3.8983344768699024, 0
186, -2.3430183944451555, 3.9552563072412137, 0
187, -2.455827054102137, 4.013556820292324, 0
188, -2.5680607046061183, 4.073236016023233, 0
189, -2.679719345957102, 4.134293894433941, 0
190, -2.790802978155085, 4.196730455524447, 0
191, -2.901311601200071, 4.260545699294754, 0
192, -3.0112452150920554, 4.325739625744857, 0
193, -3.1206038198310413, 4.392312234874761, 0
194, -3.229387415417029, 4.4602635266844635, 0
195, -3.337596001850016, 4.529593501173964, 0
196, -3.4452295791300043, 4.600302158343263, 0
197, -3.552288147256994, 4.672389498192362, 0
198, -3.658771706230984, 4.74585552072126, 0
199, -3.764680256051974, 4.820700225929955, 0
200, -3.8700137967199666, 4.896923613818451, 0
201, -3.974624967995953, 4.974271207862351, 0
202, -4.078366409640929, 5.052488531537262, 0
203, -4.181238121654895, 5.1315755848431825, 0
204, -4.28324010403785, 5.211532367780115, 0
205, -4.384372356789792, 5.292358880348056, 0
206, -4.484634879910726, 5.374055122547009, 0
207, -4.58402767340065, 5.456621094376974, 0
208, -4.682550737259562, 5.540056795837948, 0
209, -4.780204071487463, 5.624362226929933, 0
210, -4.876987676084354, 5.7095373876529285, 0
211, -4.972901551050233, 5.795582278006934, 0
212, -5.067945696385104, 5.8824968979919525, 0
213, -5.162120112088963, 5.97028124760798, 0
214, -5.255424798161811, 6.058935326855019, 0
215, -5.347859754603649, 6.148459135733067, 0
216, -5.439424981414476, 6.238852674242128, 0
217, -5.530120478594292, 6.330115942382198, 0
218, -5.619946246143098, 6.4222489401532785, 0
219, -5.708902284060893, 6.515251667555371, 0
220, -5.796988592347676, 6.609124124588472, 0
221, -5.883547117627192, 6.699975395495848, 0
222, -5.967919806523178, 6.783914564520758, 0
223, -6.0501066590356345, 6.860941631663201, 0
224, -6.130107675164562, 6.931056596923178, 0
225, -6.207922854909963, 6.994259460300692, 0
226, -6.283552198271832, 7.050550221795737, 0
227, -6.356995705250175, 7.099928881408319, 0
228, -6.428253375844989, 7.142395439138435, 0
229, -6.497325210056273, 7.177949894986084, 0
230, -6.564211207884028, 7.206592248951268, 0
231, -6.628911369328256, 7.228322501033989, 0
232, -6.691425694388954, 7.243140651234241, 0
233, -6.751754183066124, 7.25104669955203, 0
234, -6.8098968353597655, 7.252040645987352, 0
235, -6.865853651269877, 7.246122490540208, 0
236, -6.91962463079646, 7.233292233210599, 0
237, -6.971209773939515, 7.213549873998525, 0
238, -7.0206090806990415, 7.186895412903985, 0
239, -7.067822551075039, 7.153328849926979, 0
240, -7.112850185067507, 7.112850185067507, 0
241, -7.153328849926979, 7.067822551075039, 0
242, -7.186895412903985, 7.0206090806990415, 0
243, -7.213549873998525, 6.971209773939515, 0
244, -7.233292233210599, 6.91962463079646, 0
245, -7.246122490540208, 6.865853651269877, 0
246, -7.252040645987352, 6.8098968353597655, 0
247, -7.251046699552029, 6.751754183066124, 0
248, -7.243140651234242, 6.691425694388954, 0
249, -7.228322501033989, 6.628911369328256, 0
250, -7.206592248951268, 6.564211207884028, 0
251, -7.177949894986084, 6.497325210056273, 0
252, -7.142395439138435, 6.428253375844989, 0
253, -7.099928881408319, 6.356995705250174, 0
254, -7.050550221795737, 6.283552198271832, 0
255, -6.994259460300692, 6.207922854909963, 0
256, -6.931056596923178, 6.130107675164562, 0
257, -6.860941631663201, 6.0501066590356345, 0
258, -6.783914564520757, 5.967919806523176, 0
259, -6.699975395495848, 5.883547117627192, 0
260, -6.609124124588472, 5.796988592347676, 0
261, -6.515251667555371, 5.708902284060893, 0
262, -6.4222489401532785, 5.619946246143098, 0
263, -6.330115942382196, 5.530120478594291, 0
264, -6.238852674242128, 5.439424981414476, 0
265, -6.148459135733067, 5.347859754603649, 0
266, -6.058935326855019, 5.255424798161811, 0
267, -5.97028124760798, 5.162120112088963, 0
268, -5.882496897991952, 5.067945696385102, 0
269, -5.795582278006934, 4.972901551050233, 0
270, -5.7095373876529285, 4.876987676084354, 0
271, -5.624362226929933, 4.780204071487463, 0
272, -5.540056795837948, 4.682550737259562, 0
273, -5.456621094376973, 4.584027673400649, 0
274, -5.374055122547009, 4.484634879910726, 0
275, -5.292358880348056, 4.384372356789792, 0
276, -5.211532367780115, 4.28324010403785, 0
277, -5.1315755848431825, 4.1812381216548955, 0
278, -5.052488531537261, 4.078366409640929, 0
279, -4.974271207862351, 3.974624967995953, 0
280, -4.896923613818451, 3.8700137967199666, 0
281, -4.820700225929955, 3.764680256051974, 0
282, -4.7458555207212605, 3.6587717062309846, 0
283, -4.672389498192362, 3.552288147256993, 0
284, -4.600302158343263, 3.445229579130004, 0
285, -4.529593501173964, 3.337596001850016, 0
286, -4.4602635266844635, 3.229387415417029, 0
287, -4.392312234874762, 3.1206038198310426, 0
288, -4.325739625744857, 3.0112452150920546, 0
289, -4.260545699294752, 2.901311601200069, 0
290, -4.196730455524447, 2.790802978155085, 0
291, -4.134293894433942, 2.6797193459571025, 0
292, -4.073236016023234, 2.56806070460612, 0
293, -4.013556820292323, 2.4558270541021354, 0
294, -3.9552563072412132, 2.3430183944451546, 0
295, -3.8983344768699024, 2.229634725635175, 0
296, -3.84279132917839, 2.1156760476721956, 0
297, -3.7886268641666763, 2.0011423605562166, 0
298, -3.7358410818347605, 1.8860336642872368, 0
299, -3.684433982182645, 1.7703499588652598, 0
300, -3.634405565210328, 1.6540912442902838, 0
301, -3.583836429520592, 1.5337489437452259, 0
302, -3.5360007606248955, 1.4180825034815785, 0
303, -3.49089855852324, 1.3070919234993452, 0
304, -3.448529823215624, 1.2007772037985243, 0
305, -3.408894554702046, 1.0991383443791138, 0
306, -3.3719927529825098, 1.0021753452411175, 0
307, -3.337824418057013, 0.9098882063845329, 0
308, -3.3063895499255556, 0.8222769278093607, 0
309, -3.2776881485881377, 0.7393415095155998, 0
310, -3.2517202140447603, 0.6610819515032523, 0
311, -3.228485746295422, 0.5874982537723155, 0
312, -3.207984745340124, 0.518590416322793, 0
313, -3.1902172111788656, 0.45435843915468194, 0
314, -3.1751831438116467, 0.39480232226798373, 0
315, -3.1628825432384677, 0.3399220656626961, 0
316, -3.1533154094593283, 0.28971766933882226, 0
317, -3.1464817424742293, 0.2441891332963606, 0
318, -3.1423815422831693, 0.20333645753531, 0
319, -3.141014808886149, -0.16715964205567257, 0
320, -3.1422482857769594, -0.20141656507964498, 0
321, -3.1459487164493907, -0.23989345200759132, 0
322, -3.152116100903443, -0.2825903028395124, 0
323, -3.1607504391391164, -0.3295071175754083, 0
324, -3.1718517311564103, -0.38064389621527867, 0
325, -3.185419976955325, -0.4360006387591234, 0
326, -3.2014551765358608, -0.4955773452069437, 0
327, -3.2199573298980178, -0.5593740155587372, 0
328, -3.240926437041796, -0.6273906498145061, 0
329, -3.264362497967194, -0.6996272479742489, 0
330, -3.290265512674213, -0.7760838100379671, 0
331, -3.3186354811628536, -0.8567603360056597, 0
332, -3.349472403433115, -0.9416568258773266, 0
333, -3.3827762794849963, -1.0307732796529678, 0
334, -3.418547109318499, -1.1241096973325835, 0
335, -3.456784892933624, -1.2216660789161748, 0
336, -3.497489630330368, -1.3234424244037402, 0
337, -3.5406613215087344, -1.42943873379528, 0
338, -3.58629996646872, -1.539655007090794, 0
339, -3.6344055652103275, -1.6540912442902833, 0
340, -3.6844339821826453, -1.7703499588652603, 0
341, -3.7358410818347614, -1.8860336642872375, 0
342, -3.788626864166676, -2.0011423605562153, 0
343, -3.84279132917839, -2.115676047672195, 0
344, -3.8983344768699024, -2.229634725635174, 0
345, -3.9552563072412137, -2.343018394445155, 0
346, -4.013556820292324, -2.4558270541021368, 0
347, -4.073236016023233, -2.568060704606118, 0
348, -4.134293894433941, -2.679719345957101, 0
349, -4.196730455524447, -2.7908029781550847, 0
350, -4.260545699294753, -2.90131160120007, 0
351, -4.325739625744857, -3.011245215092055, 0
352, -4.39231223487476, -3.1206038198310404, 0
353, -4.4602635266844635, -3.2293874154170283, 0
354, -4.529593501173964, -3.3375960018500157, 0
355, -4.600302158343263, -3.445229579130004, 0
356, -4.672389498192362, -3.552288147256993, 0
357, -4.74585552072126, -3.6587717062309837, 0
358, -4.820700225929955, -3.7646802560519737, 0
359, -4.896923613818451, -3.870013796719966, 0
360, -4.97427120786235, -3.974624967995952, 0
361, -5.052488531537262, -4.078366409640929, 0
362, -5.1315755848431825, -4.181238121654894, 0
363, -5.211532367780115, -4.283240104037849, 0
364, -5.292358880348056, -4.384372356789792, 0
365, -5.374055122547009, -4.484634879910725, 0
366, -5.456621094376974, -4.584027673400649, 0
367, -5.540056795837948, -4.682550737259561, 0
368, -5.624362226929933, -4.7802040714874625, 0
369, -5.7095373876529285, -4.876987676084353, 0
370, -5.795582278006934, -4.972901551050232, 0
371, -5.8824968979919525, -5.067945696385103, 0
372, -5.97028124760798, -5.162120112088962, 0
373, -6.058935326855019, -5.25542479816181, 0
374, -6.148459135733067, -5.347859754603648, 0
375, -6.238852674242128, -5.439424981414475, 0
376, -6.330115942382198, -5.5301204785942915, 0
377, -6.4222489401532785, -5.619946246143097, 0
378, -6.515251667555371, -5.708902284060892, 0
379, -6.609124124588472, -5.796988592347675, 0
380, -6.699975395495848, -5.883547117627191, 0
381, -6.7839145645207575, -5.967919806523177, 0
382, -6.860941631663201, -6.050106659035634, 0
383, -6.931056596923178, -6.130107675164561, 0
384, -6.994259460300692, -6.207922854909961, 0
385, -7.050550221795737, -6.283552198271831, 0
386, -7.099928881408319, -6.356995705250173, 0
387, -7.142395439138435, -6.428253375844988, 0
388, -7.177949894986084, -6.497325210056272, 0
389, -7.206592248951268, -6.564211207884027, 0
390, -7.228322501033989, -6.6289113693282555, 0
391, -7.243140651234241, -6.691425694388953, 0
392, -7.251046699552029, -6.751754183066123, 0
393, -7.252040645987352, -6.809896835359765, 0
394, -7.246122490540207, -6.865853651269876, 0
395, -7.233292233210599, -6.919624630796459, 0
396, -7.213549873998525, -6.971209773939514, 0
397, -7.186895412903985, -7.020609080699041, 0
398, -7.153328849926979, -7.067822551075038, 0
399, -7.112850185067507, -7.112850185067506, 0
400, -7.067822551075039, -7.153328849926978, 0
401, -7.0206090806990415, -7.186895412903983, 0
402, -6.971209773939515, -7.213549873998524, 0
403, -6.91962463079646, -7.233292233210598, 0
404, -6.865853651269877, -7.246122490540206, 0
405, -6.8098968353597655, -7.252040645987351, 0
406, -6.751754183066125, -7.251046699552028, 0
407, -6.691425694388954, -7.243140651234241, 0
408, -6.628911369328256, -7.228322501033988, 0
409, -6.564211207884028, -7.206592248951267, 0
410, -6.497325210056273, -7.177949894986083, 0
411, -6.428253375844989, -7.142395439138434, 0
412, -6.356995705250175, -7.099928881408318, 0
413, -6.283552198271832, -7.050550221795736, 0
414, -6.207922854909963, -6.994259460300691, 0
415, -6.130107675164562, -6.931056596923177, 0
416, -6.0501066590356345, -6.8609416316632, 0
417, -5.967919806523176, -6.783914564520756, 0
418, -5.883547117627192, -6.699975395495847, 0
419, -5.796988592347676, -6.6091241245884715, 0
420, -5.708902284060893, -6.51525166755537, 0
421, -5.619946246143098, -6.422248940153278, 0
422, -5.530120478594291, -6.3301159423821955, 0
423, -5.439424981414477, -6.2388526742421275, 0
424, -5.347859754603649, -6.1484591357330665, 0
425, -5.255424798161811, -6.058935326855018, 0
426, -5.162120112088963, -5.970281247607979, 0
427, -5.067945696385102, -5.882496897991951, 0
428, -4.972901551050233, -5.7955822780069335, 0
429, -4.876987676084354, -5.709537387652928, 0
430, -4.780204071487463, -5.624362226929932, 0
431, -4.682550737259562, -5.540056795837947, 0
432, -4.584027673400649, -5.456621094376972, 0
433, -4.484634879910726, -5.374055122547008, 0
434, -4.384372356789793, -5.292358880348055, 0
435, -4.28324010403785, -5.211532367780114, 0
436, -4.1812381216548955, -5.1315755848431825, 0
437, -4.078366409640929, -5.05248853153726, 0
438, -3.974624967995953, -4.97427120786235, 0
439, -3.8700137967199666, -4.89692361381845, 0
440, -3.7646802560519745, -4.820700225929954, 0
441, -3.658771706230985, -4.74585552072126, 0
442, -3.552288147256993, -4.672389498192361, 0
443, -3.445229579130004, -4.600302158343262, 0
444, -3.337596001850016, -4.529593501173964, 0
445, -3.229387415417029, -4.460263526684463, 0
446, -3.1206038198310426, -4.392312234874761, 0
447, -3.0112452150920546, -4.325739625744856, 0
448, -2.901311601200069, -4.260545699294752, 0
449, -2.790802978155085, -4.196730455524446, 0
450, -2.679719345957103, -4.134293894433941, 0
451, -2.56806070460612, -4.073236016023233, 0
452, -2.4558270541021354, -4.013556820292323, 0
453, -2.3430183944451546, -3.955256307241213, 0
454, -2.229634725635175, -3.898334476869902, 0
455, -2.1156760476721956, -3.8427913291783895, 0
456, -2.0011423605562166, -3.788626864166676, 0
457, -1.8860336642872368, -3.73584108183476, 0
458, -1.77034995886526, -3.6844339821826444, 0
459, -1.654091244290284, -3.6344055652103275, 0
460, -1.5337489437452259, -3.5838364295205913, 0
461, -1.4180825034815787, -3.5360007606248955, 0
462, -1.3070919234993454, -3.4908985585232397, 0
463, -1.2007772037985245, -3.4485298232156234, 0
464, -1.0991383443791138, -3.408894554702046, 0
465, -1.0021753452411175, -3.3719927529825093, 0
466, -0.9098882063845329, -3.3378244180570125, 0
467, -0.8222769278093609, -3.306389549925555, 0
468, -0.7393415095156001, -3.2776881485881373, 0
469, -0.6610819515032526, -3.25172021404476, 0
470, -0.5874982537723157, -3.2284857462954215, 0
471, -0.5185904163227932, -3.2079847453401236, 0
472, -0.45435843915468216, -3.190217211178865, 0
473, -0.39480232226798395, -3.1751831438116462, 0
474, -0.33992206566269634, -3.1628825432384673, 0
475, -0.2897176693388225, -3.1533154094593283, 0
476, -0.24418913329636083, -3.146481742474229, 0
477, -0.2033364575353102, -3.1423815422831693, 0
478, 0.16715964205567235, -3.1410148088861494, 0
479, 0.20141656507964475, -3.14224828577696, 0
480, 0.2398934520075911, -3.145948716449391, 0
481, 0.2825903028395122, -3.1521161009034433, 0
482, 0.32950711757540807, -3.1607504391391164, 0
483, 0.38064389621527844, -3.1718517311564107, 0
484, 0.4360006387591232, -3.1854199769553255, 0
485, 0.49557734520694346, -3.2014551765358608, 0
486, 0.559374015558737, -3.2199573298980178, 0
487, 0.6273906498145059, -3.240926437041796, 0
488, 0.6996272479742489, -3.264362497967194, 0
489, 0.7760838100379669, -3.2902655126742135, 0
490, 0.8567603360056595, -3.318635481162854, 0
491, 0.9416568258773264, -3.349472403433115, 0
492, 1.0307732796529676, -3.3827762794849967, 0
493, 1.1241096973325833, -3.4185471093184994, 0
494, 1.2216660789161748, -3.4567848929336242, 0
495, 1.32344242440374, -3.4974896303303686, 0
496, 1.42943873379528, -3.540661321508735, 0
497, 1.539655007090794, -3.5862999664687205, 0
498, 1.654091244290283, -3.634405565210328, 0
499, 1.77034995886526, -3.6844339821826457, 0
500, 1.8860336642872373, -3.735841081834762, 0
501, 2.0011423605562153, -3.7886268641666763, 0
502, 2.1156760476721947, -3.8427913291783904, 0
503, 2.229634725635174, -3.898334476869903, 0
504, 2.3430183944451546, -3.955256307241214, 0
505, 2.4558270541021363, -4.013556820292325, 0
506, 2.568060704606118, -4.073236016023233, 0
507, 2.679719345957101, -4.134293894433942, 0
508, 2.7908029781550843, -4.196730455524447, 0
509, 2.90131160120007, -4.260545699294754, 0
510, 3.0112452150920546, -4.325739625744858, 0
511, 3.1206038198310404, -4.392312234874761, 0
512, 3.2293874154170283, -4.4602635266844635, 0
513, 3.3375960018500157, -4.529593501173965, 0
514, 3.4452295791300034, -4.600302158343264, 0
515, 3.552288147256993, -4.672389498192363, 0
516, 3.6587717062309832, -4.7458555207212605, 0
517, 3.7646802560519737, -4.820700225929956, 0
518, 3.8700137967199657, -4.896923613818452, 0
519, 3.974624967995952, -4.974271207862351, 0
520, 4.078366409640928, -5.0524885315372625, 0
521, 4.181238121654894, -5.131575584843183, 0
522, 4.283240104037849, -5.211532367780115, 0
523, 4.384372356789791, -5.292358880348057, 0
524, 4.484634879910725, -5.37405512254701, 0
525, 4.584027673400649, -5.456621094376974, 0
526, 4.682550737259561, -5.540056795837949, 0
527, 4.7802040714874625, -5.624362226929934, 0
528, 4.876987676084353, -5.709537387652929, 0
529, 4.972901551050232, -5.795582278006935, 0
530, 5.067945696385103, -5.882496897991953, 0
531, 5.162120112088962, -5.970281247607981, 0
532, 5.25542479816181, -6.0589353268550195, 0
533, 5.347859754603648, -6.148459135733068, 0
534, 5.439424981414475, -6.238852674242129, 0
535, 5.5301204785942915, -6.330115942382199, 0
536, 5.619946246143097, -6.422248940153279, 0
537, 5.708902284060892, -6.515251667555372, 0
538, 5.796988592347675, -6.609124124588473, 0
539, 5.883547117627191, -6.699975395495849, 0
540, 5.967919806523177, -6.783914564520759, 0
541, 6.050106659035634, -6.860941631663202, 0
542, 6.130107675164561, -6.93105659692318, 0
543, 6.207922854909961, -6.994259460300693, 0
544, 6.283552198271831, -7.0505502217957385, 0
545, 6.356995705250173, -7.09992888140832, 0
546, 6.428253375844988, -7.142395439138436, 0
547, 6.497325210056272, -7.177949894986086, 0
548, 6.564211207884027, -7.20659224895127, 0
549, 6.6289113693282555, -7.22832250103399, 0
550, 6.691425694388953, -7.243140651234243, 0
551, 6.751754183066123, -7.251046699552031, 0
552, 6.809896835359765, -7.252040645987353, 0
553, 6.865853651269876, -7.246122490540209, 0
554, 6.919624630796459, -7.2332922332106, 0
555, 6.971209773939514, -7.2135498739985255, 0
556, 7.020609080699041, -7.1868954129039855, 0
557, 7.067822551075038, -7.15332884992698, 0
558, 7.112850185067506, -7.112850185067509, 0
559, 7.153328849926978, -7.06782255107504, 0
560, 7.186895412903983, -7.020609080699043, 0
561, 7.213549873998524, -6.971209773939516, 0
562, 7.233292233210598, -6.919624630796462, 0
563, 7.246122490540206, -6.865853651269878, 0
564, 7.252040645987351, -6.809896835359766, 0
565, 7.251046699552028, -6.751754183066126, 0
566, 7.243140651234241, -6.691425694388955, 0
567, 7.228322501033988, -6.628911369328257, 0
568, 7.206592248951267, -6.564211207884029, 0
569, 7.177949894986083, -6.497325210056274, 0
570, 7.1423954391384346, -6.42825337584499, 0
571, 7.099928881408318, -6.356995705250176, 0
572, 7.050550221795736, -6.283552198271833, 0
573, 6.994259460300691, -6.207922854909964, 0
574, 6.931056596923177, -6.130107675164564, 0
575, 6.8609416316632, -6.050106659035635, 0
576, 6.783914564520756, -5.967919806523178, 0
577, 6.699975395495847, -5.8835471176271925, 0
578, 6.6091241245884715, -5.7969885923476765, 0
579, 6.51525166755537, -5.708902284060894, 0
580, 6.422248940153278, -5.6199462461430985, 0
581, 6.3301159423821955, -5.5301204785942915, 0
582, 6.2388526742421275, -5.4394249814144775, 0
583, 6.1484591357330665, -5.3478597546036495, 0
584, 6.058935326855018, -5.255424798161812, 0
585, 5.970281247607979, -5.162120112088964, 0
586, 5.882496897991951, -5.067945696385103, 0
587, 5.795582278006934, -4.972901551050234, 0
588, 5.709537387652928, -4.8769876760843545, 0
589, 5.624362226929932, -4.780204071487464, 0
590, 5.540056795837947, -4.682550737259563, 0
591, 5.456621094376972, -4.58402767340065, 0
592, 5.374055122547009, -4.484634879910727, 0
593, 5.292358880348055, -4.384372356789793, 0
594, 5.211532367780114, -4.2832401040378505, 0
595, 5.1315755848431825, -4.181238121654896, 0
596, 5.052488531537261, -4.078366409640929, 0
597, 4.97427120786235, -3.9746249679959536, 0
598, 4.89692361381845, -3.8700137967199675, 0
599, 4.820700225929955, -3.764680256051975, 0
600, 4.74585552072126, -3.6587717062309855, 0
601, 4.672389498192361, -3.552288147256994, 0
602, 4.600302158343262, -3.4452295791300043, 0
603, 4.529593501173964, -3.337596001850017, 0
604, 4.460263526684463, -3.2293874154170297, 0
605, 4.392312234874761, -3.120603819831043, 0
606, 4.325739625744856, -3.011245215092055, 0
607, 4.260545699294752, -2.90131160120007, 0
608, 4.196730455524446, -2.7908029781550856, 0
609, 4.134293894433941, -2.6797193459571034, 0
610, 4.073236016023233, -2.5680607046061206, 0
611, 4.013556820292323, -2.4558270541021363, 0
612, 3.955256307241213, -2.343018394445155, 0
613, 3.898334476869902, -2.2296347256351754, 0
614, 3.8427913291783895, -2.115676047672196, 0
615, 3.788626864166676, -2.001142360556217, 0
616, 3.7358410818347605, -1.8860336642872373, 0
617, 3.6844339821826444, -1.7703499588652603, 0
618, 3.6344055652103275, -1.6540912442902844, 0
619, 3.583836429520592, -1.533748943745226, 0
620, 3.5360007606248955, -1.4180825034815792, 0
621, 3.49089855852324, -1.3070919234993459, 0
622, 3.4485298232156234, -1.2007772037985247, 0
623, 3.408894554702046, -1.099138344379114, 0
624, 3.3719927529825093, -1.002175345241118, 0
625, 3.337824418057013, -0.9098882063845333, 0
626, 3.306389549925555, -0.8222769278093612, 0
627, 3.2776881485881377, -0.7393415095156004, 0
628, 3.2517202140447603, -0.6610819515032529, 0
629, 3.2284857462954215, -0.587498253772316, 0
630, 3.2079847453401236, -0.5185904163227936, 0
631, 3.1902172111788656, -0.45435843915468244, 0
632, 3.1751831438116467, -0.39480232226798423, 0
633, 3.1628825432384677, -0.3399220656626966, 0
634, 3.1533154094593283, -0.28971766933882276, 0
635, 3.1464817424742293, -0.24418913329636108, 0
636, 3.1423815422831693, -0.2033364575353105, 0
637, 3.503196700209995, 0.1671596420556727, 0
638, 3.5025809056514454, 0.1854910900840338, 0
639, 3.504470030567073, 0.20876931529066461, 0
640, 3.5088640749568767, 0.23699431767556475, 0
641, 3.5157630388208556, 0.2701660972387351, 0
642, 3.525166922159011, 0.3082846539801752, 0
643, 3.537075724971343, 0.35134998789988486, 0
644, 3.5514894472578504, 0.3993620989978641, 0
645, 3.5684080890185355, 0.45232098727411324, 0
646, 3.587831650253396, 0.5102266527286327, 0
647, 3.6097601309624316, 0.5730790953614214, 0
648, 3.6341935311456437, 0.6408783151724801, 0
649, 3.661131850803033, 0.7136243121618084, 0
650, 3.690575089934598, 0.7913170863294063, 0
651, 3.7225232485403383, 0.8739566376752745, 0
652, 3.7569763266202556, 0.9615429661994119, 0
653, 3.793934324174349, 1.0540760719018196, 0
654, 3.8333972412026185, 1.1515559547824967, 0
655, 3.875365077705064, 1.2539826148414435, 0
656, 3.9198378336816853, 1.36135605207866, 0
657, 3.9668155091324833, 1.4736762664941467, 0
658, 4.015750472553146, 1.588225463308797, 0
659, 4.066095092439364, 1.702285847743506, 0
660, 4.117849368791136, 1.8158574197982722, 0
661, 4.171013301608462, 1.9289401794730974, 0
662, 4.225586890891342, 2.0415341267679805, 0
663, 4.281570136639776, 2.1536392616829216, 0
664, 4.338963038853765, 2.2652555842179214, 0
665, 4.397765597533308, 2.376383094372979, 0
666, 4.457977812678405, 2.4870217921480946, 0
667, 4.519599684289057, 2.5971716775432685, 0
668, 4.582631212365262, 2.7068327505585006, 0
669, 4.6470723969070225, 2.816005011193791, 0
670, 4.712923237914337, 2.924688459449139, 0
671, 4.780183735387206, 3.0328830953245465, 0
672, 4.848853889325628, 3.1405889188200105, 0
673, 4.918933699729605, 3.247805929935533, 0
674, 4.990423166599138, 3.3545341286711157, 0
675, 5.063322289934224, 3.4607735150267542, 0
676, 5.137631069734863, 3.5665240890024514, 0
677, 5.213349506001058, 3.6717858505982073, 0
678, 5.290059404666616, 3.7765419702899443, 0
679, 5.367342571665348, 3.8807756185535878, 0
680, 5.445199006997254, 3.9844867953891367, 0
681, 5.523628710662334, 4.087675500796593, 0
682, 5.6026316826605855, 4.190341734775952, 0
683, 5.682207922992013, 4.292485497327218, 0
684, 5.762357431656612, 4.39410678845039, 0
685, 5.843080208654387, 4.495205608145468, 0
686, 5.924376253985335, 4.595781956412451, 0
687, 6.006245567649455, 4.69583583325134, 0
688, 6.08868814964675, 4.795367238662135, 0
689, 6.171703999977218, 4.894376172644835, 0
690, 6.255293118640862, 4.992862635199441, 0
691, 6.339455505637678, 5.090826626325954, 0
692, 6.424191160967666, 5.18826814602437, 0
693, 6.5095000846308295, 5.285187194294694, 0
694, 6.595382276627167, 5.381583771136924, 0
695, 6.681837736956677, 5.477457876551058, 0
696, 6.768866465619364, 5.5728095105371, 0
697, 6.856468462615219, 5.667638673095044, 0
698, 6.94075733195772, 5.761244947808727, 0
699, 7.017846677660336, 5.8529279182619804, 0
700, 7.087736499723065, 5.942687584454803, 0
701, 7.150426798145908, 6.030523946387193, 0
702, 7.205917572928863, 6.1164370040591525, 0
703, 7.254208824071933, 6.200426757470682, 0
704, 7.295300551575116, 6.282493206621781, 0
705, 7.329192755438415, 6.362636351512449, 0
706, 7.3558854356618255, 6.440856192142685, 0
707, 7.375378592245349, 6.51715272851249, 0
708, 7.387672225188989, 6.5915259606218655, 0
709, 7.39276633449274, 6.663975888470809, 0
710, 7.3906609201566065, 6.734502512059322, 0
711, 7.381355982180585, 6.803105831387405, 0
712, 7.364851520564679, 6.869785846455056, 0
713, 7.3411475353088855, 6.934542557262276, 0
714, 7.310244026413206, 6.997375963809066, 0
715, 7.27214099387764, 7.058286066095425, 0
716, 7.226838437702188, 7.117272864121353, 0
717, 7.174336357886849, 7.174336357886849, 0
718, 7.117272864121353, 7.226838437702188, 0
719, 7.058286066095425, 7.27214099387764, 0
720, 6.997375963809066, 7.310244026413207, 0
721, 6.934542557262276, 7.3411475353088855, 0
722, 6.869785846455056, 7.364851520564679, 0
723, 6.803105831387405, 7.381355982180585, 0
724, 6.734502512059323, 7.390660920156606, 0
725, 6.663975888470809, 7.39276633449274, 0
726, 6.5915259606218655, 7.387672225188989, 0
727, 6.51715272851249, 7.375378592245349, 0
728, 6.440856192142685, 7.3558854356618255, 0
729, 6.362636351512449, 7.329192755438415, 0
730, 6.28249320662178, 7.295300551575117, 0
731, 6.200426757470682, 7.254208824071933, 0
732, 6.1164370040591525, 7.205917572928863, 0
733, 6.030523946387193, 7.150426798145908, 0
734, 5.942687584454804, 7.087736499723066, 0
735, 5.852927918261979, 7.0178466776603345, 0
736, 5.761244947808727, 6.94075733195772, 0
737, 5.667638673095044, 6.856468462615219, 0
738, 5.5728095105371, 6.768866465619364, 0
739, 5.477457876551058, 6.681837736956677, 0
740, 5.381583771136922, 6.595382276627166, 0
741, 5.285187194294694, 6.5095000846308295, 0
742, 5.18826814602437, 6.424191160967666, 0
743, 5.090826626325954, 6.339455505637678, 0
744, 4.992862635199441, 6.255293118640862, 0
745, 4.894376172644834, 6.171703999977217, 0
746, 4.795367238662135, 6.08868814964675, 0
747, 4.69583583325134, 6.006245567649455, 0
748, 4.595781956412451, 5.924376253985335, 0
749, 4.495205608145468, 5.843080208654387, 0
750, 4.39410678845039, 5.762357431656612, 0
751, 4.292485497327218, 5.682207922992013, 0
752, 4.190341734775952, 5.6026316826605855, 0
753, 4.087675500796593, 5.523628710662334, 0
754, 3.9844867953891376, 5.445199006997254, 0
755, 3.880775618553587, 5.367342571665347, 0
756, 3.7765419702899443, 5.290059404666616, 0
757, 3.6717858505982073, 5.213349506001058, 0
758, 3.5665240890024514, 5.137631069734863, 0
759, 3.460773515026755, 5.063322289934224, 0
760, 3.354534128671115, 4.990423166599138, 0
761, 3.247805929935533, 4.918933699729606, 0
762, 3.1405889188200105, 4.848853889325628, 0
763, 3.0328830953245465, 4.780183735387206, 0
764, 2.92468845944914, 4.712923237914337, 0
765, 2.8160050111937904, 4.6470723969070225, 0
766, 2.7068327505585006, 4.582631212365262, 0
767, 2.5971716775432685, 4.519599684289057, 0
768, 2.487021792148095, 4.457977812678405, 0
769, 2.376383094372979, 4.397765597533308, 0
770, 2.2652555842179205, 4.338963038853764, 0
771, 2.1536392616829216, 4.281570136639776, 0
772, 2.0415341267679805, 4.225586890891342, 0
773, 1.9289401794730976, 4.171013301608462, 0
774, 1.8158574197982735, 4.117849368791137, 0
775, 1.7022858477435043, 4.0660950924393635, 0
776, 1.5882254633087969, 4.0157504725531465, 0
777, 1.4736762664941467, 3.9668155091324833, 0
778, 1.3555814916849998, 3.9174347127985185, 0
779, 1.2429679104251812, 3.8708294505079617, 0
780, 1.135835522714693, 3.8269997222608136, 0
781, 1.0341843285535344, 3.785945528057074, 0
782, 0.9380143279417035, 3.747666867896742, 0
783, 0.8473255208792038, 3.7121637417798197, 0
784, 0.7621179073660334, 3.6794361497063055, 0
785, 0.682391487402192, 3.6494840916761992, 0
786, 0.6081462609876792, 3.622307567689502, 0
787, 0.5393822281224963, 3.5979065777462127, 0
788, 0.47609938880664215, 3.576281121846332, 0
789, 0.4182977430401184, 3.5574311999898605, 0
790, 0.3659772908229238, 3.5413568121767973, 0
791, 0.3191380321550589, 3.528057958407142, 0
792, 0.2777799670365225, 3.517534638680896, 0
793, 0.24190309546731628, 3.5097868529980576, 0
794, 0.21150741744743867, 3.5048146013586283, 0
795, 0.18659293297689086, 3.502617883762607, 0
796, 0.1671596420556727, 3.503196700209995, 0
797, 0.16715964205567196, 6.570507404443075, 0
798, 0.16715964205567282, 10.0, 0
799, -0.1671596420556724, 10.0, 0
800, -0.1671596420556727, 3.503196700209995, 0
801, -0.1854910900840338, 3.5025809056514454, 0
802, -0.20876931529066461, 3.504470030567073, 0
803, -0.23699431767556475, 3.5088640749568767, 0
804, -0.2701660972387351, 3.5157630388208556, 0
805, -0.3082846539801752, 3.525166922159011, 0
806, -0.35134998789988486, 3.537075724971343, 0
807, -0.3993620989978641, 3.5514894472578504, 0
808, -0.45232098727411324, 3.5684080890185355, 0
809, -0.5102266527286327, 3.587831650253396, 0
810, -0.5730790953614214, 3.6097601309624316, 0
811, -0.6408783151724801, 3.6341935311456437, 0
812, -0.7136243121618084, 3.661131850803033, 0
813, -0.7913170863294063, 3.690575089934598, 0
814, -0.8739566376752745, 3.7225232485403383, 0
815, -0.9615429661994119, 3.7569763266202556, 0
816, -1.0540760719018196, 3.793934324174349, 0
817, -1.1515559547824967, 3.8333972412026185, 0
818, -1.2539826148414435, 3.875365077705064, 0
819, -1.36135605207866, 3.9198378336816853, 0
820, -1.4736762664941467, 3.9668155091324833, 0
821, -1.588225463308797, 4.015750472553146, 0
822, -1.702285847743506, 4.066095092439364, 0
823, -1.8158574197982722, 4.117849368791136, 0
824, -1.9289401794730974, 4.171013301608462, 0
825, -2.0415341267679805, 4.225586890891342, 0
826, -2.1536392616829216, 4.281570136639776, 0
827, -2.2652555842179214, 4.338963038853765, 0
828, -2.376383094372979, 4.397765597533308, 0
829, -2.4870217921480946, 4.457977812678405, 0
830, -2.5971716775432685, 4.519599684289057, 0
831, -2.7068327505585006, 4.582631212365262, 0
832, -2.816005011193791, 4.6470723969070225, 0
833, -2.924688459449139, 4.712923237914337, 0
834, -3.0328830953245465, 4.780183735387206, 0
835, -3.1405889188200105, 4.848853889325628, 0
836, -3.247805929935533, 4.918933699729605, 0
837, -3.3545341286711157, 4.990423166599138, 0
838, -3.4607735150267542, 5.063322289934224, 0
839, -3.5665240890024514, 5.137631069734863, 0
840, -3.6717858505982073, 5.213349506001058, 0
841, -3.7765419702899443, 5.290059404666616, 0
842, -3.8807756185535878, 5.367342571665348, 0
843, -3.9844867953891367, 5.445199006997254, 0
844, -4.087675500796593, 5.523628710662334, 0
845, -4.190341734775952, 5.6026316826605855, 0
846, -4.292485497327218, 5.682207922992013, 0
847, -4.39410678845039, 5.762357431656612, 0
848, -4.495205608145468, 5.843080208654387, 0
849, -4.595781956412451, 5.924376253985335, 0
850, -4.69583583325134, 6.006245567649455, 0
851, -4.795367238662135, 6.08868814964675, 0
852, -4.894376172644835, 6.171703999977218, 0
853, -4.992862635199441, 6.255293118640862, 0
854, -5.090826626325954, 6.339455505637678, 0
855, -5.18826814602437, 6.424191160967666, 0
856, -5.285187194294694, 6.5095000846308295, 0
857, -5.381583771136924, 6.595382276627167, 0
858, -5.477457876551058, 6.681837736956677, 0
859, -5.5728095105371, 6.768866465619364, 0
860, -5.667638673095044, 6.856468462615219, 0
861, -5.761244947808727, 6.94075733195772, 0
862, -5.8529279182619804, 7.017846677660336, 0
863, -5.942687584454803, 7.087736499723065, 0
864, -6.030523946387193, 7.150426798145908, 0
865, -6.1164370040591525, 7.205917572928863, 0
866, -6.200426757470682, 7.254208824071933, 0
867, -6.282493206621781, 7.295300551575116, 0
868, -6.362636351512449, 7.329192755438415, 0
869, -6.440856192142685, 7.3558854356618255, 0
870, -6.51715272851249, 7.375378592245349, 0
871, -6.5915259606218655, 7.387672225188989, 0
872, -6.663975888470809, 7.39276633449274, 0
873, -6.734502512059322, 7.3906609201566065, 0
874, -6.803105831387405, 7.381355982180585, 0
875, -6.869785846455056, 7.364851520564679, 0
876, -6.934542557262276, 7.3411475353088855, 0
877, -6.997375963809066, 7.310244026413206, 0
878, -7.058286066095425, 7.27214099387764, 0
879, -7.117272864121353, 7.226838437702188, 0
880, -7.174336357886849, 7.174336357886849, 0
881, -7.226838437702188, 7.117272864121353, 0
882, -7.27214099387764, 7.058286066095425, 0
883, -7.310244026413207, 6.997375963809066, 0
884, -7.3411475353088855, 6.934542557262276, 0
885, -7.364851520564679, 6.869785846455056, 0
886, -7.381355982180585, 6.803105831387405, 0
887, -7.390660920156606, 6.734502512059323, 0
888, -7.39276633449274, 6.663975888470809, 0
889, -7.387672225188989, 6.5915259606218655, 0
890, -7.375378592245349, 6.51715272851249, 0
891, -7.3558854356618255, 6.440856192142685, 0
892, -7.329192755438415, 6.362636351512449, 0
893, -7.295300551575117, 6.28249320662178, 0
894, -7.254208824071933, 6.200426757470682, 0
895, -7.205917572928863, 6.1164370040591525, 0
896, -7.150426798145908, 6.030523946387193, 0
897, -7.087736499723066, 5.942687584454804, 0
898, -7.0178466776603345, 5.852927918261979, 0
899, -6.94075733195772, 5.761244947808727, 0
900, -6.856468462615219, 5.667638673095044, 0
901, -6.768866465619364, 5.5728095105371, 0
902, -6.681837736956677, 5.477457876551058, 0
903, -6.595382276627166, 5.381583771136922, 0
904, -6.5095000846308295, 5.285187194294694, 0
905, -6.424191160967666, 5.18826814602437, 0
906, -6.339455505637678, 5.090826626325954, 0
907, -6.255293118640862, 4.992862635199441, 0
908, -6.171703999977217, 4.894376172644834, 0
909, -6.08868814964675, 4.795367238662135, 0
910, -6.006245567649455, 4.69583583325134, 0
911, -5.924376253985335, 4.595781956412451, 0
912, -5.843080208654387, 4.495205608145468, 0
913, -5.762357431656612, 4.39410678845039, 0
914, -5.682207922992013, 4.292485497327218, 0
915, -5.6026316826605855, 4.190341734775952, 0
916, -5.523628710662334, 4.087675500796593, 0
917, -5.445199006997254, 3.9844867953891376, 0
918, -5.367342571665347, 3.880775618553587, 0
919, -5.290059404666616, 3.7765419702899443, 0
920, -5.213349506001058, 3.6717858505982073, 0
921, -5.137631069734863, 3.5665240890024514, 0
922, -5.063322289934224, 3.460773515026755, 0
923, -4.990423166599138, 3.354534128671115, 0
924, -4.918933699729606, 3.247805929935533, 0
925, -4.848853889325628, 3.1405889188200105, 0
926, -4.780183735387206, 3.0328830953245465, 0
927, -4.712923237914337, 2.92468845944914, 0
928, -4.6470723969070225, 2.8160050111937904, 0
929, -4.582631212365262, 2.7068327505585006, 0
930, -4.519599684289057, 2.5971716775432685, 0
931, -4.457977812678405, 2.487021792148095, 0
932, -4.397765597533308, 2.376383094372979, 0
933, -4.338963038853764, 2.2652555842179205, 0
934, -4.281570136639776, 2.1536392616829216, 0
935, -4.225586890891342, 2.0415341267679805, 0
936, -4.171013301608462, 1.9289401794730976, 0
937, -4.117849368791137, 1.8158574197982735, 0
938, -4.0660950924393635, 1.7022858477435043, 0
939, -4.0157504725531465, 1.5882254633087969, 0
940, -3.9668155091324833, 1.4736762664941467, 0
941, -3.9174347127985185, 1.3555814916849998, 0
942, -3.8708294505079617, 1.2429679104251812, 0
943, -3.8269997222608136, 1.135835522714693, 0
944, -3.785945528057074, 1.0341843285535344, 0
945, -3.747666867896742, 0.9380143279417035, 0
946, -3.7121637417798197, 0.8473255208792038, 0
947, -3.6794361497063055, 0.7621179073660334, 0
948, -3.6494840916761992, 0.682391487402192, 0
949, -3.622307567689502, 0.6081462609876792, 0
950, -3.5979065777462127, 0.5393822281224963, 0
951, -3.576281121846332, 0.47609938880664215, 0
952, -3.5574311999898605, 0.4182977430401184, 0
953, -3.5413568121767973, 0.3659772908229238, 0
954, -3.528057958407142, 0.3191380321550589, 0
955, -3.517534638680896, 0.2777799670365225, 0
956, -3.5097868529980576, 0.24190309546731628, 0
957, -3.5048146013586283, 0.21150741744743867, 0
958, -3.502617883762607, 0.18659293297689086, 0
959, -3.503196700209995, 0.1671596420556727, 0
960, -6.570507404443075, 0.16715964205567196, 0
961, -10.0, 0.16715964205567282, 0
962, -10.0, -0.1671596420556724, 0
963, -3.5031967002099944, -0.1671596420556724, 0
964, -3.502580905651445, -0.18549109008403353, 0
965, -3.504470030567073, -0.20876931529066434, 0
966, -3.5088640749568767, -0.23699431767556445, 0
967, -3.5157630388208556, -0.27016609723873475, 0
968, -3.5251669221590105, -0.3082846539801749, 0
969, -3.5370757249713427, -0.35134998789988453, 0
970, -3.5514894472578504, -0.39936209899786385, 0
971, -3.568408089018535, -0.4523209872741129, 0
972, -3.5878316502533956, -0.5102266527286323, 0
973, -3.6097601309624316, -0.5730790953614211, 0
974, -3.6341935311456433, -0.6408783151724797, 0
975, -3.6611318508030326, -0.7136243121618081, 0
976, -3.6905750899345975, -0.791317086329406, 0
977, -3.7225232485403383, -0.8739566376752742, 0
978, -3.7569763266202556, -0.9615429661994115, 0
979, -3.793934324174349, -1.0540760719018192, 0
980, -3.8333972412026185, -1.1515559547824965, 0
981, -3.8753650777050637, -1.2539826148414432, 0
982, -3.919837833681685, -1.3613560520786596, 0
983, -3.9668155091324833, -1.4736762664941463, 0
984, -4.015750472553146, -1.5882254633087967, 0
985, -4.066095092439364, -1.7022858477435057, 0
986, -4.117849368791135, -1.8158574197982718, 0
987, -4.171013301608462, -1.928940179473097, 0
988, -4.225586890891342, -2.04153412676798, 0
989, -4.281570136639776, -2.1536392616829207, 0
990, -4.338963038853765, -2.265255584217921, 0
991, -4.397765597533308, -2.3763830943729785, 0
992, -4.457977812678405, -2.487021792148094, 0
993, -4.519599684289057, -2.597171677543268, 0
994, -4.582631212365262, -2.7068327505585, 0
995, -4.6470723969070225, -2.8160050111937904, 0
996, -4.712923237914337, -2.9246884594491385, 0
997, -4.780183735387206, -3.0328830953245456, 0
998, -4.848853889325628, -3.14058891882001, 0
999, -4.918933699729605, -3.2478059299355326, 0
1000, -4.990423166599138, -3.354534128671115, 0
1001, -5.063322289934224, -3.4607735150267533, 0
1002, -5.137631069734863, -3.5665240890024505, 0
1003, -5.213349506001058, -3.671785850598207, 0
1004, -5.290059404666615, -3.776541970289944, 0
1005, -5.367342571665348, -3.880775618553587, 0
1006, -5.445199006997253, -3.9844867953891363, 0
1007, -5.523628710662334, -4.087675500796592, 0
1008, -5.6026316826605855, -4.190341734775951, 0
1009, -5.682207922992012, -4.292485497327217, 0
1010, -5.762357431656612, -4.394106788450389, 0
1011, -5.843080208654387, -4.495205608145467, 0
1012, -5.924376253985335, -4.59578195641245, 0
1013, -6.006245567649455, -4.695835833251339, 0
1014, -6.08868814964675, -4.795367238662134, 0
1015, -6.171703999977218, -4.894376172644834, 0
1016, -6.255293118640862, -4.99286263519944, 0
1017, -6.339455505637678, -5.090826626325953, 0
1018, -6.424191160967666, -5.188268146024369, 0
1019, -6.5095000846308295, -5.285187194294693, 0
1020, -6.595382276627167, -5.381583771136923, 0
1021, -6.681837736956677, -5.477457876551057, 0
1022, -6.768866465619363, -5.572809510537099, 0
1023, -6.856468462615219, -5.667638673095043, 0
1024, -6.94075733195772, -5.761244947808725, 0
1025, -7.017846677660335, -5.85292791826198, 0
1026, -7.087736499723065, -5.942687584454801, 0
1027, -7.150426798145907, -6.030523946387192, 0
1028, -7.205917572928863, -6.116437004059152, 0
1029, -7.254208824071933, -6.20042675747068, 0
1030, -7.295300551575116, -6.282493206621779, 0
1031, -7.329192755438415, -6.362636351512448, 0
1032, -7.355885435661825, -6.440856192142683, 0
1033, -7.375378592245349, -6.517152728512489, 0
1034, -7.387672225188989, -6.591525960621864, 0
1035, -7.39276633449274, -6.663975888470808, 0
1036, -7.3906609201566065, -6.734502512059321, 0
1037, -7.381355982180585, -6.803105831387404, 0
1038, -7.364851520564679, -6.869785846455055, 0
1039, -7.3411475353088855, -6.934542557262275, 0
1040, -7.310244026413206, -6.997375963809065, 0
1041, -7.27214099387764, -7.058286066095423, 0
1042, -7.226838437702188, -7.117272864121352, 0
1043, -7.174336357886849, -7.174336357886848, 0
1044, -7.117272864121353, -7.226838437702187, 0
1045, -7.058286066095425, -7.272140993877638, 0
1046, -6.997375963809066, -7.310244026413206, 0
1047, -6.934542557262276, -7.341147535308885, 0
1048, -6.8697858464550565, -7.364851520564677, 0
1049, -6.803105831387405, -7.381355982180584, 0
1050, -6.734502512059323, -7.390660920156605, 0
1051, -6.663975888470809, -7.392766334492739, 0
1052, -6.5915259606218655, -7.387672225188988, 0
1053, -6.51715272851249, -7.375378592245348, 0
1054, -6.440856192142685, -7.355885435661824, 0
1055, -6.362636351512449, -7.329192755438414, 0
1056, -6.28249320662178, -7.2953005515751155, 0
1057, -6.200426757470682, -7.254208824071932, 0
1058, -6.1164370040591525, -7.205917572928862, 0
1059, -6.030523946387193, -7.150426798145906, 0
1060, -5.942687584454804, -7.087736499723065, 0
1061, -5.85292791826198, -7.017846677660334, 0
1062, -5.761244947808727, -6.940757331957719, 0
1063, -5.667638673095044, -6.856468462615218, 0
1064, -5.5728095105371, -6.768866465619362, 0
1065, -5.477457876551058, -6.681837736956676, 0
1066, -5.381583771136922, -6.5953822766271655, 0
1067, -5.285187194294694, -6.509500084630829, 0
1068, -5.188268146024371, -6.424191160967665, 0
1069, -5.090826626325954, -6.339455505637677, 0
1070, -4.992862635199442, -6.255293118640861, 0
1071, -4.894376172644834, -6.1717039999772165, 0
1072, -4.795367238662135, -6.0886881496467495, 0
1073, -4.69583583325134, -6.006245567649454, 0
1074, -4.595781956412451, -5.924376253985334, 0
1075, -4.4952056081454685, -5.843080208654386, 0
1076, -4.39410678845039, -5.7623574316566115, 0
1077, -4.292485497327218, -5.682207922992012, 0
1078, -4.190341734775952, -5.602631682660585, 0
1079, -4.087675500796593, -5.523628710662333, 0
1080, -3.9844867953891376, -5.445199006997253, 0
1081, -3.8807756185535873, -5.367342571665347, 0
1082, -3.7765419702899443, -5.290059404666615, 0
1083, -3.6717858505982077, -5.213349506001057, 0
1084, -3.5665240890024514, -5.137631069734862, 0
1085, -3.460773515026755, -5.063322289934224, 0
1086, -3.354534128671115, -4.990423166599137, 0
1087, -3.247805929935533, -4.918933699729605, 0
1088, -3.1405889188200105, -4.848853889325628, 0
1089, -3.0328830953245465, -4.780183735387205, 0
1090, -2.92468845944914, -4.712923237914337, 0
1091, -2.8160050111937904, -4.647072396907022, 0
1092, -2.7068327505585006, -4.582631212365262, 0
1093, -2.597171677543269, -4.519599684289056, 0
1094, -2.487021792148095, -4.457977812678405, 0
1095, -2.3763830943729793, -4.397765597533307, 0
1096, -2.2652555842179205, -4.338963038853764, 0
1097, -2.1536392616829216, -4.281570136639775, 0
1098, -2.041534126767981, -4.225586890891342, 0
1099, -1.9289401794730978, -4.171013301608461, 0
1100, -1.8158574197982738, -4.117849368791136, 0
1101, -1.7022858477435046, -4.066095092439363, 0
1102, -1.588225463308797, -4.015750472553146, 0
1103, -1.473676266494147, -3.966815509132483, 0
1104, -1.355581491685, -3.917434712798518, 0
1105, -1.2429679104251814, -3.8708294505079612, 0
1106, -1.1358355227146932, -3.826999722260813, 0
1107, -1.0341843285535346, -3.7859455280570735, 0
1108, -0.9380143279417037, -3.7476668678967417, 0
1109, -0.847325520879204, -3.7121637417798192, 0
1110, -0.7621179073660336, -3.679436149706305, 0
1111, -0.6823914874021922, -3.649484091676199, 0
1112, -0.6081462609876794, -3.6223075676895014, 0
1113, -0.5393822281224965, -3.5979065777462123, 0
1114, -0.4760993888066424, -3.576281121846332, 0
1115, -0.41829774304011863, -3.5574311999898605, 0
1116, -0.365977290822924, -3.541356812176797, 0
1117, -0.31913803215505915, -3.528057958407142, 0
1118, -0.27777996703652275, -3.5175346386808957, 0
1119, -0.2419030954673165, -3.509786852998057, 0
1120, -0.2115074174474389, -3.5048146013586283, 0
1121, -0.18659293297689108, -3.5026178837626065, 0
1122, -0.16715964205567294, -3.5031967002099944, 0
1123, -0.16715964205567285, -6.570507404443075, 0
1124, -0.1671596420556737, -10.0, 0
1125, 0.1671596420556724, -10.0, 0
1126, 0.1671596420556722, -3.503196700209995, 0
1127, 0.1854910900840333, -3.5025809056514454, 0
1128, 0.20876931529066411, -3.5044700305670733, 0
1129, 0.23699431767556423, -3.5088640749568767, 0
1130, 0.2701660972387345, -3.5157630388208556, 0
1131, 0.3082846539801747, -3.525166922159011, 0
1132, 0.3513499878998843, -3.537075724971343, 0
1133, 0.3993620989978636, -3.5514894472578504, 0
1134, 0.4523209872741127, -3.5684080890185355, 0
1135, 0.5102266527286321, -3.587831650253396, 0
1136, 0.5730790953614209, -3.609760130962432, 0
1137, 0.6408783151724795, -3.6341935311456437, 0
1138, 0.7136243121618079, -3.661131850803033, 0
1139, 0.7913170863294058, -3.690575089934598, 0
1140, 0.873956637675274, -3.7225232485403383, 0
1141, 0.9615429661994113, -3.756976326620256, 0
1142, 1.054076071901819, -3.7939343241743493, 0
1143, 1.1515559547824963, -3.833397241202619, 0
1144, 1.253982614841443, -3.875365077705064, 0
1145, 1.3613560520786594, -3.9198378336816853, 0
1146, 1.473676266494146, -3.9668155091324837, 0
1147, 1.5882254633087964, -4.0157504725531465, 0
1148, 1.7022858477435054, -4.066095092439364, 0
1149, 1.8158574197982718, -4.117849368791136, 0
1150, 1.928940179473097, -4.171013301608462, 0
1151, 2.04153412676798, -4.225586890891342, 0
1152, 2.1536392616829207, -4.281570136639776, 0
1153, 2.265255584217921, -4.338963038853765, 0
1154, 2.376383094372978, -4.397765597533309, 0
1155, 2.487021792148094, -4.457977812678406, 0
1156, 2.597171677543268, -4.519599684289057, 0
1157, 2.7068327505584997, -4.582631212365263, 0
1158, 2.8160050111937904, -4.647072396907023, 0
1159, 2.924688459449138, -4.712923237914338, 0
1160, 3.0328830953245456, -4.780183735387206, 0
1161, 3.1405889188200096, -4.848853889325629, 0
1162, 3.2478059299355326, -4.918933699729606, 0
1163, 3.354534128671115, -4.990423166599139, 0
1164, 3.4607735150267533, -5.063322289934224, 0
1165, 3.5665240890024505, -5.137631069734864, 0
1166, 3.671785850598207, -5.213349506001059, 0
1167, 3.7765419702899434, -5.290059404666616, 0
1168, 3.880775618553587, -5.367342571665349, 0
1169, 3.984486795389136, -5.445199006997254, 0
1170, 4.087675500796592, -5.523628710662334, 0
1171, 4.190341734775951, -5.602631682660586, 0
1172, 4.292485497327217, -5.682207922992013, 0
1173, 4.394106788450389, -5.762357431656613, 0
1174, 4.495205608145467, -5.843080208654388, 0
1175, 4.59578195641245, -5.9243762539853355, 0
1176, 4.695835833251339, -6.006245567649456, 0
1177, 4.795367238662134, -6.088688149646751, 0
1178, 4.894376172644834, -6.171703999977219, 0
1179, 4.99286263519944, -6.2552931186408625, 0
1180, 5.090826626325953, -6.3394555056376785, 0
1181, 5.188268146024369, -6.424191160967667, 0
1182, 5.285187194294693, -6.50950008463083, 0
1183, 5.381583771136923, -6.595382276627168, 0
1184, 5.477457876551056, -6.681837736956678, 0
1185, 5.572809510537099, -6.7688664656193644, 0
1186, 5.667638673095043, -6.8564684626152195, 0
1187, 5.761244947808725, -6.9407573319577205, 0
1188, 5.85292791826198, -7.017846677660337, 0
1189, 5.942687584454801, -7.087736499723066, 0
1190, 6.030523946387192, -7.150426798145909, 0
1191, 6.116437004059152, -7.205917572928864, 0
1192, 6.20042675747068, -7.254208824071934, 0
1193, 6.282493206621779, -7.295300551575118, 0
1194, 6.362636351512448, -7.329192755438416, 0
1195, 6.440856192142683, -7.355885435661826, 0
1196, 6.517152728512489, -7.375378592245351, 0
1197, 6.591525960621864, -7.3876722251889895, 0
1198, 6.663975888470808, -7.392766334492741, 0
1199, 6.734502512059321, -7.390660920156607, 0
1200, 6.803105831387403, -7.381355982180587, 0
1201, 6.869785846455055, -7.36485152056468, 0
1202, 6.934542557262275, -7.341147535308886, 0
1203, 6.997375963809065, -7.310244026413208, 0
1204, 7.058286066095423, -7.272140993877641, 0
1205, 7.117272864121352, -7.226838437702189, 0
1206, 7.174336357886848, -7.174336357886851, 0
1207, 7.226838437702187, -7.117272864121354, 0
1208, 7.272140993877639, -7.058286066095426, 0
1209, 7.310244026413206, -6.997375963809067, 0
1210, 7.341147535308885, -6.934542557262278, 0
1211, 7.364851520564677, -6.869785846455057, 0
1212, 7.381355982180584, -6.8031058313874055, 0
1213, 7.390660920156605, -6.734502512059324, 0
1214, 7.392766334492739, -6.66397588847081, 0
1215, 7.387672225188988, -6.591525960621866, 0
1216, 7.375378592245348, -6.5171527285124915, 0
1217, 7.355885435661824, -6.440856192142686, 0
1218, 7.329192755438414, -6.36263635151245, 0
1219, 7.2953005515751155, -6.282493206621782, 0
1220, 7.254208824071932, -6.200426757470683, 0
1221, 7.205917572928862, -6.116437004059153, 0
1222, 7.150426798145906, -6.030523946387195, 0
1223, 7.087736499723065, -5.942687584454805, 0
1224, 7.017846677660334, -5.8529279182619804, 0
1225, 6.940757331957719, -5.761244947808728, 0
1226, 6.856468462615218, -5.667638673095045, 0
1227, 6.768866465619363, -5.572809510537101, 0
1228, 6.681837736956676, -5.477457876551059, 0
1229, 6.5953822766271655, -5.381583771136923, 0
1230, 6.5095000846308295, -5.285187194294695, 0
1231, 6.424191160967666, -5.188268146024372, 0
1232, 6.339455505637677, -5.0908266263259545, 0
1233, 6.255293118640861, -4.992862635199443, 0
1234, 6.1717039999772165, -4.894376172644835, 0
1235, 6.0886881496467495, -4.795367238662136, 0
1236, 6.006245567649454, -4.695835833251341, 0
1237, 5.924376253985334, -4.595781956412452, 0
1238, 5.843080208654386, -4.4952056081454685, 0
1239, 5.7623574316566115, -4.394106788450391, 0
1240, 5.682207922992012, -4.292485497327219, 0
1241, 5.602631682660585, -4.190341734775953, 0
1242, 5.523628710662333, -4.0876755007965935, 0
1243, 5.445199006997253, -3.9844867953891385, 0
1244, 5.367342571665347, -3.8807756185535878, 0
1245, 5.290059404666615, -3.776541970289945, 0
1246, 5.213349506001057, -3.671785850598208, 0
1247, 5.137631069734862, -3.5665240890024523, 0
1248, 5.063322289934224, -3.4607735150267556, 0
1249, 4.990423166599137, -3.3545341286711152, 0
1250, 4.918933699729605, -3.247805929935534, 0
1251, 4.848853889325628, -3.1405889188200113, 0
1252, 4.780183735387205, -3.032883095324547, 0
1253, 4.712923237914337, -2.9246884594491407, 0
1254, 4.647072396907022, -2.816005011193791, 0
1255, 4.582631212365262, -2.7068327505585015, 0
1256, 4.519599684289056, -2.5971716775432694, 0
1257, 4.457977812678405, -2.4870217921480955, 0
1258, 4.397765597533307, -2.37638309437298, 0
1259, 4.338963038853764, -2.265255584217921, 0
1260, 4.281570136639775, -2.153639261682922, 0
1261, 4.225586890891342, -2.0415341267679814, 0
1262, 4.171013301608461, -1.9289401794730985, 0
1263, 4.117849368791137, -1.8158574197982744, 0
1264, 4.0660950924393635, -1.702285847743505, 0
1265, 4.015750472553146, -1.5882254633087975, 0
1266, 3.9668155091324833, -1.4736762664941474, 0
1267, 3.917434712798518, -1.3555814916850004, 0
1268, 3.8708294505079612, -1.2429679104251816, 0
1269, 3.826999722260813, -1.1358355227146937, 0
1270, 3.7859455280570735, -1.0341843285535348, 0
1271, 3.747666867896742, -0.938014327941704, 0
1272, 3.7121637417798192, -0.8473255208792043, 0
1273, 3.6794361497063055, -0.7621179073660339, 0
1274, 3.6494840916761992, -0.6823914874021926, 0
1275, 3.622307567689502, -0.6081462609876798, 0
1276, 3.5979065777462127, -0.5393822281224968, 0
1277, 3.576281121846332, -0.4760993888066427, 0
1278, 3.5574311999898605, -0.4182977430401189, 0
1279, 3.541356812176797, -0.3659772908229243, 0
1280, 3.528057958407142, -0.3191380321550594, 0
1281, 3.517534638680896, -0.2777799670365231, 0
1282, 3.509786852998057, -0.24190309546731678, 0
1283, 3.5048146013586283, -0.21150741744743917, 0
1284, 3.502617883762607, -0.1865929329768914, 0
1285, 3.5031967002099944, -0.1671596420556732, 0
1286, 6.570507404443075, -0.16715964205567338, 0
1287, 10.0, -0.16715964205567452, 0
1288, 10.0, 0.16715964205567163, 0
1289, -0.16715964205567257, 6.751598350104997, 0
1290, -6.751598350104997, -0.1671596420556724, 0
1291, 0.1671596420556723, -6.751598350104997, 0
1292, 6.751598350104997, 0.1671596420556722, 0
1293, -3.453506469163727, -0.17466650243970555, 0
1294, -0.17466650243970583, 3.4535064691637274, 0
1295, 0.17466650243970533, -3.4535064691637274, 0
1296, 3.4535064691637274, 0.17466650243970583, 0
1297, -0.17531703769867285, -3.4505567489752984, 0
1298, -3.450556748975299, 0.17531703769867263, 0
1299, 3.4505567489752984, -0.17531703769867435, 0
1300, 0.17531703769867263, 3.450556748975299, 0
1301, -3.45249081154065, -0.23131592768540704, 0
1302, -0.23131592768540735, 3.45249081154065, 0
1303, 0.23131592768540585, -3.4524908115406507, 0
1304, 3.45249081154065, 0.23131592768540735, 0
1305, -0.2362207229348831, -3.449132099314525, 0
1306, -3.4491320993145242, 0.2362207229348839, 0
1307, 3.4491320993145265, -0.23622072293488314, 0
1308, 0.2362207229348839, 3.4491320993145242, 0
1309, -3.233914863083956, -0.18096529091141716, 0
1310, -0.18096529091141741, 3.2339148630839563, 0
1311, 0.18096529091141694, -3.2339148630839563, 0
1312, 3.2339148630839563, 0.18096529091141741, 0
1313, -3.449791384542785, -0.30666061734441685, 0
1314, -0.3066606173444183, 3.4497913845427846, 0
1315, 0.3066606173444181, -3.449791384542783, 0
1316, 3.4497913845427846, 0.3066606173444183, 0
1317, -0.21271743478566985, -3.2544829851087314, 0
1318, -0.31791742730945843, -3.446322054539152, 0
1319, -3.2544829851087314, 0.21271743478566843, 0
1320, -3.446322054539155, 0.3179174273094568, 0
1321, 3.2544829851087314, -0.2127174347856689, 0
1322, 3.446322054539153, -0.3179174273094579, 0
1323, 0.21271743478566843, 3.2544829851087314, 0
1324, 0.3179174273094568, 3.446322054539155, 0
1325, -3.21735931454669, -0.2513723369575191, 0
1326, -0.25137233695752, 3.217359314546691, 0
1327, 0.25137233695751887, -3.2173593145466906, 0
1328, 3.217359314546691, 0.25137233695752, 0
1329, -3.4581291622981323, -0.037054602873671405, 0
1330, -0.037054602873671655, 3.4581291622981327, 0
1331, 0.03705460287367118, -3.4581291622981327, 0
1332, 3.4581291622981327, 0.037054602873671655, 0
1333, -3.4561565046150977, -0.40181238614831827, 0
1334, -0.40181238614831716, 3.4561565046151, 0
1335, 0.4018123861483165, -3.4561565046151004, 0
1336, 3.4561565046151, 0.40181238614831716, 0
1337, -0.2991411261401215, -3.240374583996962, 0
1338, -3.2403745839969624, 0.2991411261401205, 0
1339, 3.2403745839969624, -0.299141126140121, 0
1340, 0.2991411261401205, 3.2403745839969624, 0
1341, -3.252453978568133, -0.3363725605339818, 0
1342, -0.3363725605339818, 3.252453978568131, 0
1343, 0.33637256053398107, -3.252453978568132, 0
1344, 3.252453978568131, 0.3363725605339818, 0
1345, -3.4685887056046325, -0.10628955556359976, 0
1346, -0.10628955556360004, 3.468588705604633, 0
1347, 0.10628955556359954, -3.468588705604633, 0
1348, 3.468588705604633, 0.10628955556360004, 0
1349, -6.843924545644251, -7.306278392486406, 0
1350, -7.306278392486407, -6.84392454564425, 0
1351, -7.317059395211317, -6.712420931288426, 0
1352, -6.712420931288428, -7.3170593952113165, 0
1353, -0.49797759500814565, -3.411146685097753, 0
1354, -7.315292716106897, 6.779735721735411, 0
1355, -7.306278392486408, 6.84392454564425, 0
1356, -6.84392454564425, 7.306278392486408, 0
1357, -6.712420931288426, 7.317059395211318, 0
1358, -3.411146685097753, 0.4979775950081454, 0
1359, 3.411146685097753, -0.4979775950081459, 0
1360, 6.712420931288426, -7.317059395211319, 0
1361, 6.84392454564425, -7.3062783924864085, 0
1362, 7.3170593952113165, -6.712420931288429, 0
1363, 7.306278392486406, -6.843924545644252, 0
1364, 0.4979775950081454, 3.411146685097753, 0
1365, 6.7124209312884275, 7.317059395211317, 0
1366, 7.317059395211318, 6.712420931288426, 0
1367, 7.306278392486408, 6.84392454564425, 0
1368, 6.84392454564425, 7.306278392486408, 0
1369, -3.3443769364443012, -0.20104375555829523, 0
1370, -0.20104375555829468, 3.3443769364443017, 0
1371, 0.20104375555829535, -3.344376936444302, 0
1372, 3.3443769364443017, 0.20104375555829468, 0
1373, -0.2035347455209473, -3.35433529925123, 0
1374, -3.35433529925123, 0.20353474552094555, 0
1375, 3.3543352992512303, -0.20353474552095013, 0
1376, 0.20353474552094555, 3.35433529925123, 0
1377, -3.461090891823446, 0.06937182468823816, 0
1378, 0.06937182468823806, 3.4610908918234458, 0
1379, -0.0693718246882384, -3.4610908918234458, 0
1380, 3.461090891823443, -0.06937182468823883, 0
1381, -3.4718521370367394, -0.5169196898006247, 0
1382, -0.5169196898006255, 3.4718521370367386, 0
1383, 0.516919689800625, -3.4718521370367386, 0
1384, 3.4718521370367386, 0.5169196898006255, 0
1385, -0.3989834208962258, -3.2841002506395767, 0
1386, -3.284100250639578, 0.39898342089622535, 0
1387, 3.284100250639578, -0.39898342089622585, 0
1388, 0.39898342089622535, 3.284100250639578, 0
1389, -3.296155224053601, -0.4381423147289027, 0
1390, -0.4381423147289031, 3.296155224053604, 0
1391, 0.43814231472890264, -3.2961552240536034, 0
1392, 3.296155224053604, 0.4381423147289031, 0
1393, -0.4717134094637783, -3.4916835255547647, 0
1394, -3.4916835255547647, 0.4717134094637781, 0
1395, 3.4916835255547647, -0.4717134094637786, 0
1396, 0.4717134094637781, 3.4916835255547647, 0
1397, -3.4023808318522835, -0.20208369723967626, 0
1398, -0.20208369723967615, 3.402380831852284, 0
1399, 0.20208369723967592, -3.402380831852284, 0
1400, 3.402380831852284, 0.20208369723967615, 0
1401, -3.528930128718674, -0.4977737589509451, 0
1402, -0.49777375895094567, 3.5289301287186734, 0
1403, 0.4977737589509451, -3.5289301287186734, 0
1404, 3.5289301287186734, 0.49777375895094567, 0
1405, -0.4128856606996552, -3.2290277676915964, 0
1406, -3.2290277676915973, 0.4128856606996549, 0
1407, 3.2290277676915973, -0.4128856606996554, 0
1408, 0.4128856606996549, 3.2290277676915973, 0
1409, -3.2404770550336948, -0.4531282145166823, 0
1410, -0.4531282145166825, 3.2404770550336965, 0
1411, 0.45312821451668206, -3.240477055033696, 0
1412, 3.2404770550336965, 0.4531282145166825, 0
1413, -3.3719924100708787, -0.2788958487785548, 0
1414, -3.3749780663201707, -0.11236757521409231, 0
1415, -0.2788958487785547, 3.3719924100708787, 0
1416, -0.11236757521409271, 3.3749780663201716, 0
1417, 0.2788958487785525, -3.37199241007088, 0
1418, 0.11236757521409169, -3.3749780663201707, 0
1419, 3.3719924100708787, 0.2788958487785547, 0
1420, 3.3749780663201716, 0.11236757521409271, 0
1421, -3.483409198854831, -0.45672005615520667, 0
1422, -0.4567200561552073, 3.48340919885483, 0
1423, 0.4567200561552068, -3.48340919885483, 0
1424, 3.48340919885483, 0.4567200561552073, 0
1425, -0.3569611059681924, -3.2442013845197377, 0
1426, -3.244201384519739, 0.3569611059681917, 0
1427, 3.244201384519739, -0.3569611059681922, 0
1428, 0.3569611059681917, 3.244201384519739, 0
1429, -3.254851912417181, -0.3956106732211362, 0
1430, -0.3956106732211363, 3.2548519124171835, 0
1431, 0.39561067322113574, -3.254851912417183, 0
1432, 3.2548519124171835, 0.3956106732211363, 0
1433, -3.388356498076535, -0.4696811125327143, 0
1434, -0.4696811125327133, 3.3883564980765253, 0
1435, 0.46968111253271255, -3.3883564980765244, 0
1436, 3.3883564980765253, 0.4696811125327133, 0
1437, -0.3227550990470397, -3.3223066825673295, 0
1438, -3.322306682567333, 0.32275509904703753, 0
1439, 3.322306682567333, -0.32275509904703803, 0
1440, 0.32275509904703753, 3.322306682567333, 0
1441, -7.284636015988321, -6.945764735382019, 0
1442, -7.256062126750749, -7.005854789478494, 0
1443, -7.005854789478495, -7.256062126750749, 0
1444, -6.94576473538202, -7.28463601598832, 0
1445, -7.275218793268518, -6.495247800046989, 0
1446, -6.569371118131463, -7.298414025320982, 0
1447, -7.313378224490623, 6.633153783411648, 0
1448, -7.275218793268518, 6.4952478000469895, 0
1449, -7.284636015988321, 6.94576473538202, 0
1450, -7.2560621267507495, 7.005854789478495, 0
1451, -7.005854789478496, 7.256062126750749, 0
1452, -6.94576473538202, 7.284636015988321, 0
1453, -6.569371118131463, 7.298414025320983, 0
1454, 6.495247800046989, -7.27521879326852, 0
1455, 6.945764735382019, -7.284636015988322, 0
1456, 7.0058547894784935, -7.25606212675075, 0
1457, 7.256062126750749, -7.005854789478496, 0
1458, 7.28463601598832, -6.945764735382021, 0
1459, 7.275218793268517, -6.495247800046991, 0
1460, 6.569371118131463, 7.298414025320983, 0
1461, 7.298414025320983, 6.569371118131463, 0
1462, 6.94576473538202, 7.284636015988321, 0
1463, 7.005854789478495, 7.2560621267507495, 0
1464, 7.284636015988321, 6.94576473538202, 0
1465, 7.256062126750749, 7.005854789478496, 0
1466, -3.1918835193444544, -0.20823198247991412, 0
1467, -0.20823198247991495, 3.191883519344455, 0
1468, 0.2082319824799139, -3.191883519344455, 0
1469, 3.191883519344455, 0.20823198247991495, 0
1470, -3.90924690644687, -0.1671596420556724, 0
1471, -0.16715964205567269, 3.9092469064468705, 0
1472, 0.1671596420556722, -3.9092469064468705, 0
1473, 3.9092469064468705, 0.16715964205567263, 0
1474, -0.6191321990228316, -3.4822563781642106, 0
1475, -0.5253569430416577, -3.3112979363616946, 0
1476, -0.4676691989225738, -3.2721480172852506, 0
1477, -3.4822563781642106, 0.6191321990228315, 0
1478, -3.311297936361695, 0.5253569430416575, 0
1479, -3.2721480172852515, 0.4676691989225732, 0
1480, 3.4822563781642106, -0.619132199022832, 0
1481, 3.3112979363616946, -0.525356943041658, 0
1482, 3.2721480172852515, -0.46766919892257364, 0
1483, 0.5253569430416575, 3.311297936361695, 0
1484, 0.4676691989225732, 3.2721480172852515, 0
1485, 0.6191321990228315, 3.4822563781642106, 0
1486, -3.2821561563075132, -0.22945873614673173, 0
1487, -0.22945873614673182, 3.282156156307514, 0
1488, 0.22945873614673154, -3.282156156307514, 0
1489, 3.282156156307514, 0.22945873614673182, 0
1490, -3.4972645663629187, -0.6519223591827983, 0
1491, -3.5237687329124054, -0.5770401997570805, 0
1492, -0.6519223591827996, 3.4972645663629183, 0
1493, -0.5770401997570815, 3.523768732912405, 0
1494, 0.6519223591827981, -3.497264566362919, 0
1495, 0.5770401997570803, -3.523768732912405, 0
1496, 3.4972645663629183, 0.6519223591827996, 0
1497, 3.523768732912405, 0.5770401997570815, 0
1498, -3.4197660008148256, -0.07825780152050861, 0
1499, -3.141698175584659, 0.018088407739818707, 0
1500, -3.382222576931578, -0.004841115406894074, 0
1501, -3.4232647688398674, -0.13214408856231602, 0
1502, -0.07825780152050885, 3.419766000814826, 0
1503, 0.01808840773981857, 3.141698175584659, 0
1504, -0.004841115406894331, 3.3822225769315786, 0
1505, -0.13214408856231635, 3.423264768839868, 0
1506, 0.0782578015205084, -3.419766000814826, 0
1507, -0.01808840773981893, -3.1416981755846596, 0
1508, 0.004841115406893998, -3.3822225769315786, 0
1509, 0.13214408856231571, -3.4232647688398674, 0
1510, 3.419766000814826, 0.07825780152050885, 0
1511, 3.1416981755846596, -0.018088407739818846, 0
1512, 3.3822225769315786, 0.004841115406894331, 0
1513, 3.423264768839868, 0.13214408856231635, 0
1514, -3.329835762733096, -0.5627398152126142, 0
1515, -3.2850970153066217, -0.5079824343132509, 0
1516, -0.5627398152126152, 3.3298357627330937, 0
1517, -0.5079824343132501, 3.285097015306623, 0
1518, 0.5627398152126146, -3.3298357627330937, 0
1519, 0.5079824343132497, -3.2850970153066226, 0
1520, 3.3298357627330937, 0.5627398152126152, 0
1521, 3.285097015306623, 0.5079824343132501, 0
1522, -7.227003130922137, -6.515895022372164, 0
1523, -6.631967094322562, -7.330255667387278, 0
1524, -7.227003130922137, 6.515895022372165, 0
1525, -6.631967094322562, 7.330255667387279, 0
1526, 6.515895022372164, -7.227003130922139, 0
1527, 7.227003130922136, -6.515895022372166, 0
1528, 6.631967094322562, 7.330255667387279, 0
1529, 7.330255667387279, 6.631967094322562, 0
1530, -5.036852052326535, 0.16715964205567235, 0
1531, 0.16715964205567235, 5.036852052326535, 0
1532, -0.16715964205567288, -5.036852052326535, 0
1533, 5.036852052326535, -0.1671596420556733, 0
1534, -0.594807723784372, -3.5508047861842624, 0
1535, -0.5410981229249929, -3.258388780021977, 0
1536, -0.6039145099602737, -3.3058736768924204, 0
1537, -0.4591249050643235, -3.346814762437027, 0
1538, -3.550804786184263, 0.5948077237843719, 0
1539, -3.2583887800219773, 0.5410981229249927, 0
1540, -3.305873676892421, 0.6039145099602735, 0
1541, -3.3468147624370275, 0.459124905064324, 0
1542, 3.550804786184263, -0.5948077237843724, 0
1543, 3.258388780021977, -0.5410981229249933, 0
1544, 3.3058736768924204, -0.6039145099602738, 0
1545, 3.346814762437027, -0.4591249050643249, 0
1546, 0.5410981229249927, 3.2583887800219773, 0
1547, 0.6039145099602735, 3.305873676892421, 0
1548, 0.459124905064324, 3.3468147624370275, 0
1549, 0.5948077237843719, 3.550804786184263, 0
1550, -3.2638016616889147, -0.2819423525028575, 0
1551, -0.281942352502858, 3.2638016616889165, 0
1552, 0.28194235250285715, -3.263801661688915, 0
1553, 3.2638016616889165, 0.281942352502858, 0
1554, -3.2743207302649786, -0.5798547559422129, 0
1555, -3.3245953074587913, -0.6443349542446211, 0
1556, -3.333389008666164, -0.4798332814989861, 0
1557, -0.5798547559422137, 3.2743207302649773, 0
1558, -0.644334954244621, 3.3245953074587895, 0
1559, -0.4798332814989858, 3.33338900866616, 0
1560, 0.5798547559422131, -3.2743207302649773, 0
1561, 0.6443349542446205, -3.3245953074587895, 0
1562, 0.47983328149898535, -3.3333890086661593, 0
1563, 3.2743207302649773, 0.5798547559422137, 0
1564, 3.3245953074587895, 0.644334954244621, 0
1565, 3.33338900866616, 0.4798332814989858, 0
1566, -6.618311424505283, -7.27965264835055, 0
1567, -6.649982703206212, 7.278703215291711, 0
1568, 6.618311424505283, 7.279652648350551, 0
1569, 7.278703215291711, 6.649982703206212, 0
1570, -3.88661053823913, 0.16715964205567263, 0
1571, 0.16715964205567263, 3.88661053823913, 0
1572, -0.1671596420556729, -3.88661053823913, 0
1573, 3.88661053823913, -0.16715964205567324, 0
1574, -0.5291799047512369, -3.5297403596016883, 0
1575, -0.6968654005460968, -3.5484300740316175, 0
1576, -3.5297403596016887, 0.5291799047512367, 0
1577, -3.5484300740316175, 0.6968654005460971, 0
1578, 3.5297403596016883, -0.5291799047512372, 0
1579, 3.5484300740316175, -0.6968654005460977, 0
1580, 0.5291799047512367, 3.5297403596016887, 0
1581, 0.6968654005460971, 3.5484300740316175, 0
1582, -0.6465006352954941, -3.5781572094654925, 0
1583, -3.578157209465493, 0.6465006352954943, 0
1584, 3.578157209465493, -0.6465006352954948, 0
1585, 0.6465006352954943, 3.578157209465493, 0
1586, -7.1719697898037325, -7.1194745733616305, 0
1587, -7.119474573361632, -7.171969789803732, 0
1588, -7.218631220557456, -7.064079777033374, 0
1589, -7.064079777033375, -7.218631220557454, 0
1590, -7.223392684623312, -6.360140754299548, 0
1591, -6.4195117577782845, -7.244248169365155, 0
1592, -7.223392684623312, 6.360140754299548, 0
1593, -7.218631220557456, 7.064079777033375, 0
1594, -7.119474573361632, 7.1719697898037325, 0
1595, -7.1719697898037325, 7.119474573361632, 0
1596, -7.064079777033375, 7.218631220557456, 0
1597, -6.342003451708953, 7.206102901092022, 0
1598, -6.4316112146168605, 7.2550233029861015, 0
1599, -6.5054393876918, 7.25141926513264, 0
1600, -6.470919937282616, 7.3022750447907585, 0
1601, 6.360140754299547, -7.223392684623313, 0
1602, 7.064079777033374, -7.218631220557457, 0
1603, 7.1194745733616305, -7.171969789803733, 0
1604, 7.171969789803732, -7.119474573361633, 0
1605, 7.218631220557455, -7.064079777033376, 0
1606, 7.206102901092021, -6.342003451708954, 0
1607, 6.342003451708953, 7.206102901092023, 0
1608, 6.4316112146168605, 7.2550233029861015, 0
1609, 6.5054393876918, 7.25141926513264, 0
1610, 6.470919937282616, 7.3022750447907585, 0
1611, 7.206102901092022, 6.342003451708953, 0
1612, 7.2550233029861015, 6.4316112146168605, 0
1613, 7.25141926513264, 6.5054393876918, 0
1614, 7.3022750447907585, 6.470919937282616, 0
1615, 7.064079777033375, 7.218631220557456, 0
1616, 7.119474573361632, 7.1719697898037325, 0
1617, 7.1719697898037325, 7.119474573361632, 0
1618, 7.218631220557456, 7.064079777033375, 0
1619, -0.24925496546477238, -3.2065440000311614, 0
1620, -3.206544000031162, 0.24925496546477147, 0
1621, 3.206544000031162, -0.24925496546477194, 0
1622, 0.24925496546477147, 3.206544000031162, 0
1623, -7.319514798192594, -6.778815965776276, 0
1624, -6.778159268272537, -7.311504588244239, 0
1625, -6.778815965776276, 7.3195147981925945, 0
1626, 6.778159268272535, -7.311504588244244, 0
1627, 7.319514798192594, -6.778815965776278, 0
1628, 7.311504588244243, 6.778159268272535, 0
1629, 6.7788159657762765, 7.3195147981925945, 0
1630, -0.2748352996903804, -3.382784307085761, 0
1631, -3.3827843070857577, 0.2748352996903826, 0
1632, 3.3827843070857644, -0.27483529969037984, 0
1633, 0.2748352996903826, 3.3827843070857577, 0
1634, -0.4074474352628571, -3.426174517537841, 0
1635, -3.4261745175378406, 0.4074474352628558, 0
1636, 3.426174517537841, -0.4074474352628568, 0
1637, 0.4074474352628558, 3.4261745175378406, 0
1638, -3.3873931518347216, -0.35862348924540915, 0
1639, -3.320125276250141, -0.3735434777417752, 0
1640, -3.3644658966552767, -0.4143553567661417, 0
1641, -0.3586234892454115, 3.3873931518347193, 0
1642, -0.37354347774177776, 3.3201252762501414, 0
1643, -0.41435535676614077, 3.364465896655276, 0
1644, 0.3586234892454128, -3.387393151834716, 0
1645, 0.37354347774177865, -3.3201252762501396, 0
1646, 0.41435535676614166, -3.3644658966552727, 0
1647, 3.3873931518347193, 0.3586234892454115, 0
1648, 3.3201252762501414, 0.37354347774177776, 0
1649, 3.364465896655276, 0.41435535676614077, 0
1650, -0.26368883590620945, -3.294961415597854, 0
1651, -3.294961415597855, 0.26368883590620806, 0
1652, 3.294961415597855, -0.26368883590620856, 0
1653, 0.26368883590620806, 3.294961415597855, 0
1654, -7.284254835618257, -6.421635894458911, 0
1655, -7.2761173282993505, -6.368824231034881, 0
1656, -7.32921136769903, -6.488309644993795, 0
1657, -7.311796042887583, -6.566337567305143, 0
1658, -7.258842719416023, -6.58266157109731, 0
1659, -7.3054199900129735, -6.639703795845159, 0
1660, -7.355100907984849, -6.630220172344309, 0
1661, -6.559855428791416, -7.34815455616081, 0
1662, -6.494754668280097, -7.3039854402582645, 0
1663, -6.509794904641688, -7.241248205253864, 0
1664, -7.3234093969398355, 6.563945716331256, 0
1665, -7.265038327773859, 6.580580708725156, 0
1666, -7.322499939556854, 6.7063381172805, 0
1667, -7.32921136769903, 6.488309644993797, 0
1668, -7.284254835618258, 6.421635894458912, 0
1669, -7.2761173282993505, 6.368824231034882, 0
1670, -6.559855428791416, 7.348154556160811, 0
1671, 6.421635894458911, -7.284254835618259, 0
1672, 6.368824231034881, -7.276117328299351, 0
1673, 6.488309644993795, -7.329211367699032, 0
1674, 6.566337567305142, -7.311796042887584, 0
1675, 6.58266157109731, -7.258842719416025, 0
1676, 6.639703795845159, -7.305419990012976, 0
1677, 6.630220172344309, -7.355100907984851, 0
1678, 7.3122669715868, -6.565787519941334, 0
1679, 7.25916777795507, -6.582552396655742, 0
1680, 7.299123940965302, -6.642578568076899, 0
1681, 7.342424912397101, -6.668683004313488, 0
1682, 7.329211367699029, -6.488309644993798, 0
1683, 7.284254835618256, -6.421635894458913, 0
1684, 7.266153425889244, -6.361235069742439, 0
1685, 6.559855428791416, 7.348154556160811, 0
1686, 7.348154556160811, 6.559855428791416, 0
1687, -0.7383558052253932, -3.414712009358358, 0
1688, -3.4147120093583583, 0.738355805225393, 0
1689, 3.4147120093583583, -0.7383558052253941, 0
1690, 0.738355805225393, 3.4147120093583583, 0
1691, -3.5705213375211464, -0.7058172626420487, 0
1692, -3.4289396442699083, -0.7726453592234213, 0
1693, -3.564701450652309, -0.6336597193220597, 0
1694, -0.705817262642049, 3.570521337521147, 0
1695, -0.7726453592234218, 3.428939644269908, 0
1696, -0.6336597193220609, 3.564701450652309, 0
1697, 0.7058172626420485, -3.570521337521147, 0
1698, 0.772645359223421, -3.4289396442699087, 0
1699, 0.633659719322059, -3.5647014506523096, 0
1700, 3.570521337521147, 0.705817262642049, 0
1701, 3.428939644269908, 0.7726453592234218, 0
1702, 3.564701450652309, 0.6336597193220609, 0
1703, -3.3183697555178497, -0.054546358317495894, 0
1704, -3.3728941198763196, 0.08408684602075922, 0
1705, -3.4361997144907495, 0.016810093960166847, 0
1706, -0.05454635831749652, 3.3183697555178515, 0
1707, 0.0840868460207592, 3.3728941198763187, 0
1708, 0.01681009396016646, 3.43619971449075, 0
1709, 0.0545463583174952, -3.3183697555178493, 0
1710, -0.08408684602075704, -3.3728941198763214, 0
1711, -0.01681009396016686, -3.43619971449075, 0
1712, 3.3183697555178515, 0.05454635831749652, 0
1713, 3.372894119876318, -0.08408684602075683, 0
1714, 3.43619971449075, -0.016810093960166222, 0
1715, -0.569362561816231, -3.3770428344841563, 0
1716, -0.38715150088949546, -3.35564100181724, 0
1717, -0.3552049398220999, -3.4030204095886356, 0
1718, -3.3770428344841568, 0.5693625618162308, 0
1719, -3.3556410018172422, 0.38715150088949507, 0
1720, -3.403020409588637, 0.3552049398220974, 0
1721, 3.3770428344841563, -0.5693625618162312, 0
1722, 3.3556410018172427, -0.38715150088949574, 0
1723, 3.403020409588637, -0.35520493982209944, 0
1724, 0.5693625618162308, 3.3770428344841568, 0
1725, 0.38715150088949507, 3.3556410018172422, 0
1726, 0.3552049398220974, 3.403020409588637, 0
1727, -3.4126482539029643, -0.6090243089153, 0
1728, -3.33653275558669, -0.7177925793041221, 0
1729, -0.6090243089153001, 3.4126482539029634, 0
1730, -0.717792579304122, 3.3365327555866906, 0
1731, 0.6090243089152997, -3.4126482539029634, 0
1732, 0.7177925793041215, -3.3365327555866906, 0
1733, 3.4126482539029634, 0.6090243089153001, 0
1734, 3.3365327555866906, 0.717792579304122, 0
1735, -6.668893638385134, -7.289481484575531, 0
1736, 6.668893638385134, 7.289481484575532, 0
1737, -0.7439407347464839, -3.6067362033442003, 0
1738, -3.6067362033442008, 0.7439407347464837, 0
1739, 3.6067362033442008, -0.7439407347464841, 0
1740, 0.7439407347464837, 3.6067362033442008, 0
1741, -7.161404169195522, -6.36864200532291, 0
1742, -7.147993299606014, -6.271359041430157, 0
1743, -7.185724007160006, -6.315723557808218, 0
1744, -7.21325078911126, -6.254086161845312, 0
1745, -7.242522265274392, -6.30573627816343, 0
1746, -7.160806853714218, -6.187860179933762, 0
1747, -6.444801724900165, -7.195117213072744, 0
1748, -6.415266746098717, -7.302918895035108, 0
1749, -6.3460955339449425, -7.256604692152852, 0
1750, -6.372412436820459, -7.188880824952966, 0
1751, -6.274341086680254, -7.189746348270618, 0
1752, -6.323549340319452, -7.208868245546128, 0
1753, -6.3189412708537915, -7.147849481406103, 0
1754, -7.161404169195522, 6.3686420053229105, 0
1755, -7.179288965609802, 6.268801208224958, 0
1756, -7.186532809901567, 6.32162109936834, 0
1757, -7.235842515676481, 6.287951985660026, 0
1758, -6.340594230528707, 7.269613340352695, 0
1759, -6.371767200728415, 7.156160180592417, 0
1760, -6.412184873935388, 7.19923848506027, 0
1761, -6.413696571188033, 7.307520112681573, 0
1762, 6.36864200532291, -7.161404169195523, 0
1763, 6.271359041430158, -7.147993299606014, 0
1764, 6.315723557808218, -7.185724007160006, 0
1765, 6.254086161845311, -7.21325078911126, 0
1766, 6.305736278163428, -7.242522265274392, 0
1767, 6.187860179933762, -7.160806853714216, 0
1768, 7.156160180592416, -6.371767200728416, 0
1769, 7.212885043518112, -6.415510313275567, 0
1770, 6.3717672007284145, 7.156160180592417, 0
1771, 6.412184873935387, 7.19923848506027, 0
1772, 6.340594230528705, 7.269613340352695, 0
1773, 6.413696571188033, 7.307520112681573, 0
1774, 7.156160180592417, 6.371767200728415, 0
1775, 7.19923848506027, 6.412184873935388, 0
1776, 7.269613340352695, 6.340594230528707, 0
1777, 7.307520112681573, 6.413696571188033, 0
1778, -0.4566218315789683, -3.442210973171682, 0
1779, -3.442210973171682, 0.4566218315789674, 0
1780, 3.442210973171682, -0.4566218315789683, 0
1781, 0.4566218315789674, 3.442210973171682, 0
1782, -3.4374406190801268, -0.35527559416855925, 0
1783, -0.35527559416856014, 3.437440619080124, 0
1784, 0.3552755941685602, -3.4374406190801214, 0
1785, 3.437440619080124, 0.35527559416856014, 0
1786, -7.21380275768825, -6.435183414070471, 0
1787, -7.213593809394153, 6.43070417534401, 0
1788, 6.43518341407047, -7.213802757688251, 0
1789, 7.3392937509671805, -6.609933498348222, 0
1790, -0.7620080249122647, -3.3463666797960245, 0
1791, -0.8399636022424259, -3.4116100293260465, 0
1792, -0.6756309009112567, -3.3547395280275354, 0
1793, -0.7885693666220825, -3.393824062686987, 0
1794, -0.7161883106497141, -3.323409250479801, 0
1795, -3.346366679796025, 0.7620080249122645, 0
1796, -3.411610029326047, 0.8399636022424258, 0
1797, -3.354739528027536, 0.6756309009112564, 0
1798, -3.3938240626869876, 0.7885693666220823, 0
1799, -3.3234092504798016, 0.7161883106497139, 0
1800, 3.346366679796025, -0.7620080249122654, 0
1801, 3.4116100293260465, -0.8399636022424264, 0
1802, 3.354739528027536, -0.6756309009112569, 0
1803, 3.393824062686987, -0.7885693666220831, 0
1804, 3.3234092504798016, -0.7161883106497146, 0
1805, 0.7620080249122645, 3.346366679796025, 0
1806, 0.8399636022424258, 3.411610029326047, 0
1807, 0.6756309009112564, 3.354739528027536, 0
1808, 0.7885693666220823, 3.3938240626869876, 0
1809, 0.7161883106497139, 3.3234092504798016, 0
1810, -3.617667149115551, -0.6883588594886294, 0
1811, -3.6099927372008938, -0.7774299485042341, 0
1812, -3.3601596596962686, -0.7968318988840996, 0
1813, -3.3814276935584084, -0.7474233243145402, 0
1814, -3.3951543086472236, -0.6777988924979563, 0
1815, -3.4261163970610853, -0.8745059240022985, 0
1816, -3.443314489437819, -0.653436997736087, 0
1817, -3.472105969919378, -0.7173797261657149, 0
1818, -3.374744416936076, -0.8512878084588225, 0
1819, -3.519730183361643, -0.6981205865937457, 0
1820, -3.53445596838956, -0.7723799760319778, 0
1821, -0.6883588594886297, 3.6176671491155514, 0
1822, -0.7774299485042344, 3.609992737200894, 0
1823, -0.7968318988841, 3.3601596596962686, 0
1824, -0.7474233243145407, 3.381427693558408, 0
1825, -0.6777988924979571, 3.395154308647225, 0
1826, -0.8745059240022989, 3.426116397061085, 0
1827, -0.653436997736086, 3.443314489437819, 0
1828, -0.7173797261657144, 3.4721059699193755, 0
1829, -0.8512878084588226, 3.3747444169360765, 0
1830, -0.698120586593748, 3.5197301833616423, 0
1831, -0.7723799760319766, 3.534455968389563, 0
1832, 0.6883588594886292, -3.6176671491155514, 0
1833, 0.7774299485042339, -3.609992737200894, 0
1834, 0.7968318988840993, -3.360159659696269, 0
1835, 0.7474233243145398, -3.3814276935584084, 0
1836, 0.6777988924979562, -3.3951543086472245, 0
1837, 0.8745059240022985, -3.4261163970610857, 0
1838, 0.6534369977360859, -3.4433144894378196, 0
1839, 0.717379726165714, -3.4721059699193777, 0
1840, 0.8512878084588223, -3.374744416936077, 0
1841, 0.6981205865937459, -3.5197301833616432, 0
1842, 0.7723799760319773, -3.534455968389561, 0
1843, 3.6176671491155514, 0.6883588594886297, 0
1844, 3.609992737200894, 0.7774299485042344, 0
1845, 3.3601596596962686, 0.7968318988841, 0
1846, 3.381427693558408, 0.7474233243145407, 0
1847, 3.395154308647225, 0.6777988924979571, 0
1848, 3.426116397061085, 0.8745059240022989, 0
1849, 3.443314489437819, 0.653436997736086, 0
1850, 3.4721059699193755, 0.7173797261657144, 0
1851, 3.3747444169360765, 0.8512878084588226, 0
1852, 3.5197301833616423, 0.698120586593748, 0
1853, 3.534455968389563, 0.7723799760319766, 0
1854, -3.3713325613535154, -0.05671771064628615, 0
1855, -3.297242217818069, -0.13185173942419748, 0
1856, -0.05671771064628599, 3.3713325613535168, 0
1857, -0.13185173942419792, 3.29724221781807, 0
1858, 0.05671771064628632, -3.3713325613535154, 0
1859, 0.13185173942419684, -3.297242217818069, 0
1860, 3.3713325613535168, 0.05671771064628599, 0
1861, 3.29724221781807, 0.13185173942419792, 0
1862, -0.5189148590255521, -3.3632096595101935, 0
1863, -0.5586915216488835, -3.4464687545981496, 0
1864, -0.5694912413380102, -3.4971614854008943, 0
1865, -3.3632096595101935, 0.5189148590255521, 0
1866, -3.44646875459815, 0.558691521648883, 0
1867, -3.4971614854008948, 0.5694912413380101, 0
1868, 3.3632096595101935, -0.5189148590255523, 0
1869, 3.44646875459815, -0.5586915216488838, 0
1870, 3.4971614854008948, -0.5694912413380108, 0
1871, 0.5189148590255521, 3.3632096595101935, 0
1872, 0.558691521648883, 3.44646875459815, 0
1873, 0.5694912413380101, 3.4971614854008948, 0
1874, -3.3601906519072986, -0.6056552146246742, 0
1875, -3.4634849313122946, -0.5766214648383778, 0
1876, -3.4036368839538778, -0.538806270681886, 0
1877, -0.6056552146246745, 3.3601906519072977, 0
1878, -0.5766214648383786, 3.463484931312294, 0
1879, -0.5388062706818846, 3.403636883953877, 0
1880, 0.6056552146246741, -3.3601906519072977, 0
1881, 0.5766214648383781, -3.463484931312294, 0
1882, 0.5388062706818839, -3.4036368839538764, 0
1883, 3.3601906519072977, 0.6056552146246745, 0
1884, 3.463484931312294, 0.5766214648383786, 0
1885, 3.403636883953877, 0.5388062706818846, 0
1886, -7.210824306647334, -6.169493589133536, 0
1887, -7.092088204316341, -6.220047365957282, 0
1888, -7.11915804845012, -6.111597384094275, 0
1889, 6.169493589133538, -7.210824306647333, 0
1890, 6.220047365957285, -7.092088204316343, 0
1891, 6.111597384094274, -7.119158048450122, 0
1892, -0.8001419642904923, -3.513203368455316, 0
1893, -0.784351337520894, -3.45448353242001, 0
1894, -0.7375028628920082, -3.498564859468137, 0
1895, -0.7581354866542218, -3.5516141470295093, 0
1896, -0.8437278316177506, -3.603044161229548, 0
1897, -0.6781425485817464, -3.491680680668524, 0
1898, -0.6587668958966428, -3.423542441450812, 0
1899, -0.6048400116622527, -3.4180289104142076, 0
1900, -0.6208552763857653, -3.3580701572947436, 0
1901, -0.6571431186883099, -3.304813475483531, 0
1902, -3.5132033684553168, 0.8001419642904931, 0
1903, -3.4544835324200105, 0.7843513375208939, 0
1904, -3.4985648594681384, 0.7375028628920093, 0
1905, -3.55161414702951, 0.758135486654223, 0
1906, -3.6030441612295525, 0.8437278316177556, 0
1907, -3.491680680668523, 0.678142548581747, 0
1908, -3.423542441450812, 0.658766895896642, 0
1909, -3.418028910414208, 0.604840011662252, 0
1910, -3.358070157294744, 0.6208552763857651, 0
1911, -3.3048134754835314, 0.6571431186883097, 0
1912, 3.5132033684553168, -0.8001419642904939, 0
1913, 3.4544835324200105, -0.7843513375208955, 0
1914, 3.4985648594681376, -0.7375028628920097, 0
1915, 3.5516141470295097, -0.758135486654223, 0
1916, 3.6030441612295507, -0.8437278316177523, 0
1917, 3.491680680668523, -0.6781425485817475, 0
1918, 3.423542441450812, -0.6587668958966425, 0
1919, 3.4180289104142076, -0.6048400116622525, 0
1920, 3.3580701572947436, -0.6208552763857655, 0
1921, 3.3048134754835314, -0.6571431186883101, 0
1922, 0.8001419642904931, 3.5132033684553168, 0
1923, 0.7843513375208939, 3.4544835324200105, 0
1924, 0.7375028628920093, 3.4985648594681384, 0
1925, 0.758135486654223, 3.55161414702951, 0
1926, 0.8437278316177556, 3.6030441612295525, 0
1927, 0.678142548581747, 3.491680680668523, 0
1928, 0.658766895896642, 3.423542441450812, 0
1929, 0.604840011662252, 3.418028910414208, 0
1930, 0.6208552763857651, 3.358070157294744, 0
1931, 0.6571431186883097, 3.3048134754835314, 0
1932, -3.6373565761003377, -0.8593864740692752, 0
1933, -0.8593864740692749, 3.637356576100338, 0
1934, 0.8593864740692744, -3.637356576100338, 0
1935, 3.637356576100338, 0.8593864740692749, 0
1936, -3.3433710610133827, -0.15107850037295661, 0
1937, -3.3024692781342853, 0.03174609453557391, 0
1938, -3.2052133011637913, -0.05775519013298427, 0
1939, -0.15107850037295642, 3.343371061013383, 0
1940, 0.03174609453557273, 3.3024692781342853, 0
1941, -0.0577551901329846, 3.205213301163792, 0
1942, 0.15107850037295645, -3.3433710610133827, 0
1943, -0.031746094535573866, -3.3024692781342866, 0
1944, 0.05775519013298421, -3.2052133011637918, 0
1945, 3.343371061013383, 0.15107850037295642, 0
1946, 3.302469278134287, -0.03174609453557077, 0
1947, 3.205213301163792, 0.057755190132984795, 0
1948, -3.3575342015504948, -0.5223975173304286, 0
1949, -0.5223975173304284, 3.3575342015504925, 0
1950, 0.5223975173304276, -3.357534201550492, 0
1951, 3.3575342015504925, 0.5223975173304284, 0
1952, -7.04094919279944, -6.231935004512743, 0
1953, -7.178172185537385, -6.073480475223172, 0
1954, -7.161191865965306, -6.13814584985805, 0
1955, -7.108979541721523, -6.166660158845517, 0
1956, -7.028614561624831, -6.123332319253326, 0
1957, 6.231935004512743, -7.040949192799442, 0
1958, 6.073480475223172, -7.178172185537386, 0
1959, 6.13814584985805, -7.161191865965307, 0
1960, 6.166660158845517, -7.10897954172152, 0
1961, 6.123332319253317, -7.028614561624826, 0
1962, -0.7948605274030727, -3.6326271171077567, 0
1963, -3.6326271171077567, 0.7948605274030739, 0
1964, 3.632627117107757, -0.794860527403073, 0
1965, 0.7948605274030739, 3.6326271171077567, 0
1966, -3.6456850197486514, -0.8110593391160459, 0
1967, -3.666255710816652, -0.9466595325747162, 0
1968, -3.568074892908543, -0.8369719921131858, 0
1969, -3.4917805973412404, -0.8356367164096143, 0
1970, -0.8110593391160459, 3.645685019748652, 0
1971, -0.9466595325747168, 3.6662557108166514, 0
1972, -0.8369719921131861, 3.5680748929085433, 0
1973, -0.835636716409612, 3.4917805973412395, 0
1974, 0.8110593391160453, -3.645685019748652, 0
1975, 0.9466595325747167, -3.6662557108166514, 0
1976, 0.8369719921131855, -3.5680748929085433, 0
1977, 0.8356367164096137, -3.4917805973412404, 0
1978, 3.645685019748652, 0.8110593391160459, 0
1979, 3.6662557108166514, 0.9466595325747168, 0
1980, 3.5680748929085433, 0.8369719921131861, 0
1981, 3.4917805973412395, 0.835636716409612, 0
1982, -3.353178482733125, 0.037065441002224156, 0
1983, -3.2880039912318058, 0.12475816835821349, 0
1984, -3.2598692587283526, -0.02071465719463559, 0
1985, -3.141356492235404, -0.07453561715792693, 0
1986, -3.1420398589339142, 0.11071243263756435, 0
1987, -3.266645321690383, -0.081949851355586, 0
1988, -3.2250529854227423, -0.1231185203353328, 0
1989, 0.03706544100222368, 3.353178482733125, 0
1990, 0.12475816835821242, 3.288003991231804, 0
1991, -0.02071465719463734, 3.259869258728355, 0
1992, -0.07453561715792713, 3.1413564922354045, 0
1993, 0.11071243263756428, 3.1420398589339142, 0
1994, -0.08194985135558602, 3.266645321690384, 0
1995, -0.12311852033533266, 3.2250529854227428, 0
1996, -0.03706544100222335, -3.3531784827331252, 0
1997, -0.12475816835821468, -3.288003991231808, 0
1998, 0.02071465719463448, -3.2598692587283518, 0
1999, 0.07453561715792671, -3.1413564922354045, 0
2000, -0.11071243263756457, -3.1420398589339147, 0
2001, 0.0819498513555856, -3.266645321690383, 0
2002, 0.12311852033533263, -3.2250529854227423, 0
2003, 3.3531784827331252, -0.03706544100222227, 0
2004, 3.288003991231802, -0.12475816835821103, 0
2005, 3.259869258728355, 0.02071465719463761, 0
2006, 3.1413564922354045, 0.07453561715792699, 0
2007, 3.1420398589339147, -0.11071243263756467, 0
2008, 3.266645321690384, 0.08194985135558608, 0
2009, 3.225052985422743, 0.12311852033533272, 0
2010, -7.064350920720257, -6.043892485691508, 0
2011, 6.043892485691509, -7.064350920720264, 0
2012, -3.6750369973098804, -0.8953304623875635, 0
2013, -3.5275703745671865, -0.9709985792893376, 0
2014, -3.581379951613353, -0.9141267287239659, 0
2015, -3.440518097182371, -0.8239356847497528, 0
2016, -3.48172375138165, -0.7828284170629091, 0
2017, -0.895330462387564, 3.6750369973098804, 0
2018, -0.9709985792893217, 3.527570374567182, 0
2019, -0.9141267287239618, 3.5813799516133553, 0
2020, -0.8239356847497531, 3.4405180971823697, 0
2021, -0.7828284170629052, 3.4817237513816512, 0
2022, 0.8953304623875636, -3.6750369973098804, 0
2023, 0.9709985792893338, -3.5275703745671865, 0
2024, 0.9141267287239645, -3.581379951613354, 0
2025, 0.8239356847497527, -3.440518097182371, 0
2026, 0.7828284170629081, -3.481723751381651, 0
2027, 3.6750369973098804, 0.895330462387564, 0
2028, 3.527570374567182, 0.9709985792893217, 0
2029, 3.5813799516133553, 0.9141267287239618, 0
2030, 3.4405180971823697, 0.8239356847497531, 0
2031, 3.4817237513816512, 0.7828284170629052, 0
2032, -3.31973616404574, 0.08206231120788762, 0
2033, 0.08206231120788693, 3.3197361640457386, 0
2034, -0.08206231120788784, -3.3197361640457412, 0
2035, 3.3197361640457377, -0.08206231120788601, 0
2036, -7.111235432117015, -6.061975104277033, 0
2037, -7.070923845612622, -6.094607340978674, 0
2038, -6.974595873987406, -6.051273778575703, 0
2039, -7.101480762966746, -5.999167815687529, 0
2040, 6.061975104277034, -7.111235432117019, 0
2041, 6.0946073409786745, -7.070923845612624, 0
2042, 6.051273778575678, -6.974595873987395, 0
2043, 5.999167815687528, -7.10148076296675, 0
2044, -3.4905073702221836, -0.9083857119060417, 0
2045, -3.4454500232556424, -0.9773328717044584, 0
2046, -3.6019397436258993, -0.9874714969211298, 0
2047, -0.9083857119060327, 3.4905073702221805, 0
2048, -0.9773328717044497, 3.4454500232556367, 0
2049, -0.9874714969211317, 3.6019397436258953, 0
2050, 0.9083857119060396, -3.4905073702221836, 0
2051, 0.9773328717044566, -3.445450023255642, 0
2052, 0.9874714969211283, -3.6019397436258984, 0
2053, 3.4905073702221805, 0.9083857119060327, 0
2054, 3.4454500232556367, 0.9773328717044497, 0
2055, 3.6019397436258953, 0.9874714969211317, 0
2056, -7.021512603891659, -6.0723794762121, 0
2057, 6.0723794762120855, -7.021512603891649, 0
2058, -3.5377971579801284, -0.8819178525659758, 0
2059, -3.4932816781560834, -1.0619539452424251, 0
2060, -3.390982054655286, -0.9769254304322761, 0
2061, -3.687418570317404, -1.0510943442853873, 0
2062, -0.8819178525659752, 3.5377971579801293, 0
2063, -1.061953945242419, 3.4932816781560865, 0
2064, -0.9769254304322779, 3.3909820546552822, 0
2065, -1.0510943442853904, 3.687418570317402, 0
2066, 0.8819178525659752, -3.5377971579801293, 0
2067, 1.061953945242424, -3.4932816781560856, 0
2068, 0.976925430432276, -3.390982054655286, 0
2069, 1.05109434428539, -3.6874185703174023, 0
2070, 3.5377971579801293, 0.8819178525659752, 0
2071, 3.4932816781560865, 1.061953945242419, 0
2072, 3.3909820546552822, 0.9769254304322779, 0
2073, 3.687418570317402, 1.0510943442853904, 0
2074, -3.441052752112814, -1.03564725130412, 0
2075, -3.489155272075385, -1.0084575332056018, 0
2076, -3.552954819399729, -1.0325089268363914, 0
2077, -3.6184235266864366, -1.0545579918049124, 0
2078, -3.6621087929749514, -1.2358438761732213, 0
2079, -3.657351702576259, -1.1410837547220511, 0
2080, -3.654797913826151, -1.0902128836981633, 0
2081, -3.6568534458025983, -1.0029264705513639, 0
2082, -3.7143500579830087, -1.0002233065532702, 0
2083, -1.035647251304113, 3.441052752112816, 0
2084, -1.008457533205593, 3.4891552720753833, 0
2085, -1.03250892683637, 3.5529548193997154, 0
2086, -1.054557991804929, 3.618423526686423, 0
2087, -1.2358438761732422, 3.6621087929749785, 0
2088, -1.1410837547220656, 3.657351702576268, 0
2089, -1.0902128836981735, 3.65479791382615, 0
2090, -1.0029264705513654, 3.6568534458025956, 0
2091, -1.000223306553272, 3.7143500579830078, 0
2092, 1.035647251304119, -3.441052752112815, 0
2093, 1.0084575332056, -3.489155272075386, 0
2094, 1.0325089268363863, -3.5529548193997273, 0
2095, 1.054557991804912, -3.618423526686434, 0
2096, 1.2358438761732153, -3.6621087929749407, 0
2097, 1.1410837547220485, -3.6573517025762525, 0
2098, 1.090212883698162, -3.654797913826147, 0
2099, 1.002926470551365, -3.6568534458025974, 0
2100, 1.0002233065532724, -3.714350057983009, 0
2101, 3.441052752112816, 1.035647251304113, 0
2102, 3.4891552720753833, 1.008457533205593, 0
2103, 3.5529548193997154, 1.03250892683637, 0
2104, 3.618423526686423, 1.054557991804929, 0
2105, 3.6621087929749785, 1.2358438761732422, 0
2106, 3.657351702576268, 1.1410837547220656, 0
2107, 3.65479791382615, 1.0902128836981735, 0
2108, 3.6568534458025956, 1.0029264705513654, 0
2109, 3.7143500579830078, 1.000223306553272, 0
2110, -6.13226568001117, -7.08715855833605, 0
2111, -1.054363540691783, -3.59530151821477, 0
2112, -7.087158558336051, 6.1322656800111695, 0
2113, -6.098784694957744, 7.049125700206448, 0
2114, -6.210489678238755, 7.139522542181072, 0
2115, -3.59530151821477, 1.054363540691783, 0
2116, 3.59530151821477, -1.0543635406917828, 0
2117, 7.108505451412432, -6.1816530230484075, 0
2118, 1.054363540691783, 3.59530151821477, 0
2119, 7.087158558336051, 6.1322656800111695, 0
2120, 6.098784694957744, 7.049125700206448, 0
2121, 6.210489678238755, 7.139522542181072, 0
2122, -3.2087174986007003, -0.3046853538167806, 0
2123, -0.30468535381678047, 3.2087174986006994, 0
2124, 0.30468535381677986, -3.2087174986007, 0
2125, 3.2087174986006994, 0.30468535381678047, 0
2126, -3.6949036192245623, 0.16715964205567269, 0
2127, -3.497509493408066, 0.010374273346733666, 0
2128, -4.315297112683745, -0.1671596420556724, 0
2129, -5.1273975251574955, -0.1671596420556724, 0
2130, -3.511563650590064, 0.05978896069502431, 0
2131, -3.7062218033284324, -0.1671596420556724, 0
2132, -3.5266119903176687, -0.053852851479063366, 0
2133, -4.270024376268265, 0.16715964205567252, 0
2134, -3.604709251769213, -0.1671596420556724, 0
2135, 0.16715964205567269, 3.6949036192245623, 0
2136, 0.010374273346733423, 3.4975094934080664, 0
2137, -0.16715964205567266, 4.315297112683746, 0
2138, -0.16715964205567263, 5.127397525157496, 0
2139, 0.05978896069502419, 3.5115636505900634, 0
2140, -0.1671596420556727, 3.7062218033284324, 0
2141, -0.053852851479063615, 3.526611990317669, 0
2142, 0.16715964205567252, 4.270024376268265, 0
2143, -0.1671596420556727, 3.6047092517692136, 0
2144, -0.1671596420556729, -3.6949036192245623, 0
2145, -0.010374273346733881, -3.4975094934080664, 0
2146, 0.16715964205567221, -4.315297112683746, 0
2147, 0.16715964205567224, -5.127397525157496, 0
2148, -0.05978896069502465, -3.5115636505900634, 0
2149, 0.1671596420556722, -3.7062218033284324, 0
2150, 0.05385285147906315, -3.526611990317669, 0
2151, -0.1671596420556729, -4.270024376268265, 0
2152, 0.1671596420556722, -3.6047092517692136, 0
2153, 3.6949036192245623, -0.16715964205567324, 0
2154, 3.497509493408066, -0.01037427334673325, 0
2155, 4.315297112683746, 0.16715964205567257, 0
2156, 5.127397525157496, 0.16715964205567244, 0
2157, 3.51156365059006, -0.0597889606950241, 0
2158, 3.7062218033284324, 0.16715964205567269, 0
2159, 3.526611990317669, 0.053852851479063706, 0
2160, 4.270024376268265, -0.16715964205567327, 0
2161, 3.6047092517692136, 0.16715964205567269, 0
2162, -6.268213854343359, 7.221323123032361, 0
2163, -6.290881672450849, 7.1447387768312565, 0
2164, -6.214879285710787, 7.197692316075302, 0
2165, -6.3062036857409725, 7.096167006675474, 0
2166, 7.22132312303236, -6.26821385434336, 0
2167, 7.251427640243797, -6.311018677342601, 0
2168, 7.179427186638721, -6.2060182839300415, 0
2169, 7.144738776831256, -6.29088167245085, 0
2170, 7.214152944995354, -6.167579735313286, 0
2171, 7.129744711517752, -6.235231519803235, 0
2172, 7.096167006675473, -6.306203685740973, 0
2173, 6.268213854343359, 7.221323123032362, 0
2174, 6.214879285710787, 7.197692316075302, 0
2175, 6.290881672450849, 7.144738776831257, 0
2176, 6.253401420011195, 7.100275922489228, 0
2177, 6.183874178929698, 7.0673386235320494, 0
2178, 6.306203685740972, 7.096167006675475, 0
2179, 6.230913478296442, 7.042321662364853, 0
2180, 6.131615767654691, 7.127605996765614, 0
2181, 6.150405721201325, 7.01582840657662, 0
2182, 6.1633672665712975, 7.174387042277366, 0
2183, 6.085654227790266, 7.159324290360725, 0
2184, 6.066753310608868, 7.101190632901676, 0
2185, 6.004817973989752, 7.093564237410246, 0
2186, 5.985161755892093, 6.969017549325306, 0
2187, 5.979085164436837, 7.033801006375944, 0
2188, 5.915463744358468, 7.030115954511844, 0
2189, 6.043327921918899, 7.0071501648957515, 0
2190, 6.049583949417288, 6.934178806577837, 0
2191, 6.136814920364422, 7.079323662626592, 0
2192, 6.099152703939583, 6.9832845798045895, 0
2193, 7.1425032960335955, 6.275050164428333, 0
2194, 7.221323123032361, 6.268213854343359, 0
2195, -0.40686668811210547, -3.4910220124959, 0
2196, -0.3533474691164514, -3.486670025160118, 0
2197, -3.4910220124958995, 0.4068666881121049, 0
2198, -3.4866700251601186, 0.3533474691164512, 0
2199, 3.4910220124959, -0.40686668811210575, 0
2200, 3.486670025160118, -0.35334746911645165, 0
2201, 0.4068666881121049, 3.4910220124958995, 0
2202, 0.3533474691164512, 3.4866700251601186, 0
2203, -3.390284201642579, 0.14795447951685248, 0
2204, -3.4390166347607716, 0.12067329108847573, 0
2205, -3.3355965187856413, 0.15199876752124225, 0
2206, 0.14795447951685234, 3.390284201642579, 0
2207, 0.12067329108847577, 3.439016634760772, 0
2208, 0.1519987675212416, 3.3355965187856405, 0
2209, -0.1479544795168522, -3.3902842016425776, 0
2210, -0.12067329108847591, -3.4390166347607707, 0
2211, -0.15199876752124516, -3.3355965187856413, 0
2212, 3.3902842016425767, -0.1479544795168526, 0
2213, 3.4390166347607707, -0.12067329108847741, 0
2214, 3.3355965187856373, -0.15199876752124603, 0
2215, -7.102348949932214, -6.30204734729285, 0
2216, -6.256761120704246, -7.244195979442753, 0
2217, -6.192603352578602, -7.170631035874552, 0
2218, -6.158431880764917, -7.230063198500397, 0
2219, -6.135897460268793, -7.148076978401734, 0
2220, -6.073480475223173, -7.178172185537385, 0
2221, -6.247992393093022, -7.1180999302942825, 0
2222, -6.188058773632964, -7.110372427880842, 0
2223, -6.180717992174246, -7.049360987816951, 0
2224, -6.11056964491326, -7.009392594268942, 0
2225, -6.231943571848892, -7.066516815199677, 0
2226, -6.155705108670586, -6.979045454034829, 0
2227, -6.049943748929943, -7.068216183420065, 0
2228, -6.042146274361432, -6.950722383987712, 0
2229, -6.081613789522373, -7.1189341138523075, 0
2230, -6.000303743800819, -7.099889196242738, 0
2231, -6.091052451297387, -6.962920229126935, 0
2232, -6.05144590112023, -7.009110853739681, 0
2233, -5.957788922206518, -6.994092935212521, 0
2234, -5.996898918307245, -7.039816904072127, 0
2235, -7.17573193056343, 6.189670511648972, 0
2236, -7.210487766200591, 6.227753483547745, 0
2237, -7.230063198500398, 6.158431880764917, 0
2238, -7.148011591964536, 6.135406880458263, 0
2239, -7.1781721855373855, 6.073480475223173, 0
2240, -7.109889360626358, 6.232275522019794, 0
2241, -7.115281527746233, 6.178461846162476, 0
2242, -7.052745460371473, 6.184873770500109, 0
2243, -7.009277706577455, 6.118880188799027, 0
2244, -7.112474205373375, 6.295239781008374, 0
2245, -6.962658028611935, 6.169015265037263, 0
2246, -7.061892493001082, 6.046011353170004, 0
2247, -6.957495336346133, 6.036210283266609, 0
2248, -7.053417472202394, 6.095321597225515, 0
2249, -6.965074716728219, 6.089015294528843, 0
2250, 6.302047347292851, -7.102348949932215, 0
2251, -0.8542398198007383, -3.3551135876176947, 0
2252, -0.9295367591998484, -3.426470436060646, 0
2253, -3.3551135876176947, 0.8542398198007382, 0
2254, -3.4264704360606464, 0.9295367591998484, 0
2255, 3.3551135876176947, -0.8542398198007385, 0
2256, 3.426470436060647, -0.9295367591998489, 0
2257, 0.8542398198007382, 3.3551135876176947, 0
2258, 0.9295367591998484, 3.4264704360606464, 0
2259, -0.9219652013217627, -3.655083761641135, 0
2260, -3.655083761641141, 0.9219652013217603, 0
2261, 3.655083761641137, -0.9219652013217626, 0
2262, 0.9219652013217603, 3.655083761641141, 0
2263, -7.05227193608459, -6.175647215370238, 0
2264, -6.981698905689744, -6.153549928370633, 0
2265, 6.175647215370233, -7.0522719360845825, 0
2266, 6.153549928370634, -6.981698905689746, 0
2267, -3.2601911272893003, 0.0728018356061606, 0
2268, -3.2137366517792225, 0.13109193814665923, 0
2269, -3.1676473300238226, 0.15693061119461515, 0
2270, -3.253783499476517, 0.1620838535379976, 0
2271, 0.07280183560615858, 3.2601911272892976, 0
2272, 0.1310919381466573, 3.2137366517792216, 0
2273, 0.15693061119461513, 3.167647330023823, 0
2274, 0.16208385353799723, 3.253783499476515, 0
2275, -0.07280183560616166, -3.2601911272893025, 0
2276, -0.13109193814666084, -3.2137366517792234, 0
2277, -0.1569306111946155, -3.167647330023823, 0
2278, -0.1620838535379987, -3.2537834994765182, 0
2279, 3.260191127289298, -0.07280183560615565, 0
2280, 3.2137366517792216, -0.13109193814665124, 0
2281, 3.1676473300238253, -0.15693061119461568, 0
2282, 3.2537834994765125, -0.16208385353799656, 0
2283, -6.917558009884834, -6.0712123919010486, 0
2284, -6.918471337257277, -5.982272461632388, 0
2285, -7.013826115708918, -5.978913315625157, 0
2286, -6.966841384596029, -6.000255106573197, 0
2287, -7.028990077302708, -5.916340389305453, 0
2288, -6.9435248179387905, -5.898673755902768, 0
2289, -6.857243725395625, -5.918369857025178, 0
2290, -6.952343404788672, -5.829753901446919, 0
2291, -6.847237779775129, -5.812294935629264, 0
2292, -6.902801528500201, -5.802898125354082, 0
2293, -6.863710231283313, -5.7407234202231345, 0
2294, -6.731818799287036, -5.748049470499292, 0
2295, -6.798824593012875, -5.763471104115027, 0
2296, -6.770000379597685, -5.84046779812402, 0
2297, -6.78102882922902, -5.687514020708902, 0
2298, -6.905965530645777, -5.932971169281747, 0
2299, -6.8238051195089415, -5.868014702328517, 0
2300, -6.886001606084182, -5.862992916186376, 0
2301, -6.770994809484749, -5.90484475785374, 0
2302, -6.65454976004216, -5.840267854987433, 0
2303, -6.672034337161655, -5.776437296810119, 0
2304, -6.612153422043841, -5.699697813446702, 0
2305, -6.722668677168383, -5.805926045827836, 0
2306, -6.628223598801198, -5.748890733379487, 0
2307, -6.562187896071922, -5.752945438204284, 0
2308, -6.812667464117291, -5.6202240918160715, 0
2309, -6.694716248886959, -5.667618888136747, 0
2310, -6.732993231344046, -5.698734729504479, 0
2311, 6.07121239190105, -6.917558009884833, 0
2312, 5.982272461632453, -6.918471337257255, 0
2313, 5.978913315625165, -7.013826115708938, 0
2314, 6.000255106573172, -6.966841384596037, 0
2315, 5.9163403893054545, -7.028990077302706, 0
2316, 5.898673755902774, -6.943524817938738, 0
2317, 5.918369857025271, -6.857243725395637, 0
2318, 5.829753901446925, -6.952343404788666, 0
2319, 5.812294935629273, -6.847237779775026, 0
2320, 5.802898125354089, -6.902801528500143, 0
2321, 5.740723420223146, -6.86371023128324, 0
2322, 5.748049470499258, -6.731818799286991, 0
2323, 5.763471104115018, -6.798824593012809, 0
2324, 5.84046779812396, -6.770000379597601, 0
2325, 5.687514020708869, -6.7810288292289975, 0
2326, 5.932971169281812, -6.90596553064579, 0
2327, 5.8680147023286, -6.8238051195088545, 0
2328, 5.8629929161864025, -6.886001606084112, 0
2329, 5.904844757853732, -6.770994809484538, 0
2330, 5.840267854987433, -6.654549760042161, 0
2331, 5.776437296810131, -6.672034337161645, 0
2332, 5.699697813446699, -6.6121534220438445, 0
2333, 5.805926045827759, -6.722668677168371, 0
2334, 5.748890733379486, -6.628223598801196, 0
2335, 5.752945438204283, -6.562187896071922, 0
2336, 5.6202240918160715, -6.812667464117292, 0
2337, 5.667618888136705, -6.694716248886943, 0
2338, 5.698734729504445, -6.7329932313440235, 0
2339, -3.5015156412115696, -1.147861655274596, 0
2340, -3.564396403629429, -1.106756552456623, 0
2341, -3.437666001126061, -1.1728878881243792, 0
2342, -3.4681250179352943, -1.1077135796765243, 0
2343, -3.559137040422316, -1.2332415605416052, 0
2344, -3.5106311636179166, -1.2038435372486451, 0
2345, -3.5642425301893943, -1.1701020028843043, 0
2346, -3.507332139175392, -1.264002480066267, 0
2347, -3.6113521495538374, -1.2056875002558876, 0
2348, -1.147861655274594, 3.5015156412115758, 0
2349, -1.1067565524565866, 3.56439640362939, 0
2350, -1.1728878881243796, 3.437666001126062, 0
2351, -1.1077135796765212, 3.4681250179352965, 0
2352, -1.2332415605416152, 3.5591370404223297, 0
2353, -1.2038435372486496, 3.510631163617926, 0
2354, -1.1701020028842917, 3.564242530189421, 0
2355, -1.2640024800662704, 3.507332139175403, 0
2356, -1.205687500255895, 3.611352149553861, 0
2357, 1.1478616552745955, -3.501515641211571, 0
2358, 1.106756552456616, -3.564396403629423, 0
2359, 1.1728878881243792, -3.437666001126062, 0
2360, 1.1077135796765232, -3.468125017935295, 0
2361, 1.233241560541602, -3.559137040422311, 0
2362, 1.203843537248643, -3.510631163617914, 0
2363, 1.1701020028842994, -3.5642425301893925, 0
2364, 1.2640024800662653, -3.507332139175387, 0
2365, 1.2056875002558853, -3.611352149553829, 0
2366, 3.5015156412115758, 1.147861655274594, 0
2367, 3.56439640362939, 1.1067565524565866, 0
2368, 3.437666001126062, 1.1728878881243796, 0
2369, 3.4681250179352965, 1.1077135796765212, 0
2370, 3.5591370404223297, 1.2332415605416152, 0
2371, 3.510631163617926, 1.2038435372486496, 0
2372, 3.564242530189421, 1.1701020028842917, 0
2373, 3.507332139175403, 1.2640024800662704, 0
2374, 3.611352149553861, 1.205687500255895, 0
2375, -3.7388371058700254, -1.1182916905265983, 0
2376, -3.740360980574625, -1.063854570901903, 0
2377, -3.794712926456777, -1.1104887245808048, 0
2378, -3.7137756191344047, -1.1857506623485534, 0
2379, -3.773884743355072, -1.1696968825511118, 0
2380, -3.8206945922043802, -1.2165718665405978, 0
2381, -3.7592915727360494, -1.3649555844378134, 0
2382, -3.7469214965890187, -1.2716293165260415, 0
2383, -3.7121136073065553, -1.2357279832470631, 0
2384, -3.7677709744754186, -1.2226120501459927, 0
2385, -1.1182916905265952, 3.738837105870026, 0
2386, -1.0638545709018996, 3.740360980574624, 0
2387, -1.1104887245808048, 3.7947129264567776, 0
2388, -1.185750662348561, 3.7137756191344233, 0
2389, -1.1696968825510963, 3.773884743355076, 0
2390, -1.2165718665406016, 3.8206945922043722, 0
2391, -1.3649555844378025, 3.7592915727360765, 0
2392, -1.2716293165260177, 3.7469214965890303, 0
2393, -1.2357279832470567, 3.7121136073065686, 0
2394, -1.2226120501459694, 3.767770974475414, 0
2395, 1.118291690526605, -3.7388371058700263, 0
2396, 1.0638545709019076, -3.7403609805746245, 0
2397, 1.1104887245808048, -3.794712926456777, 0
2398, 1.1857506623485514, -3.7137756191343927, 0
2399, 1.1696968825511271, -3.7738847433550706, 0
2400, 1.2165718665405936, -3.8206945922043904, 0
2401, 1.3649555844378256, -3.759291572736019, 0
2402, 1.271629316526053, -3.746921496589019, 0
2403, 1.2357279832470685, -3.7121136073065517, 0
2404, 1.2226120501460096, -3.7677709744754315, 0
2405, 3.738837105870026, 1.1182916905265952, 0
2406, 3.740360980574624, 1.0638545709018996, 0
2407, 3.7947129264567776, 1.1104887245808048, 0
2408, 3.7137756191344233, 1.185750662348561, 0
2409, 3.773884743355076, 1.1696968825510963, 0
2410, 3.8206945922043722, 1.2165718665406016, 0
2411, 3.7592915727360765, 1.3649555844378025, 0
2412, 3.7469214965890303, 1.2716293165260177, 0
2413, 3.7121136073065686, 1.2357279832470567, 0
2414, 3.767770974475414, 1.2226120501459694, 0
2415, -1.0175483744679676, -3.6877946865607725, 0
2416, -6.106084387538061, 7.12769349227717, 0
2417, -6.073480475223173, 7.1781721855373855, 0
2418, -6.155184398084779, 7.160992421829876, 0
2419, -6.164056654110423, 7.082684317877856, 0
2420, -6.227032800010777, 7.0786224709586705, 0
2421, -6.1537483312034205, 7.022477418896278, 0
2422, -6.054407804860631, 7.092871735268797, 0
2423, -6.002872653621844, 6.996211964484567, 0
2424, -5.9866057654209985, 7.119081648934487, 0
2425, -6.042979199173485, 7.036896880536579, 0
2426, -6.084234815420675, 6.982076264848798, 0
2427, -5.98739226347058, 7.051582944358322, 0
2428, -5.897807751358392, 7.052791588691701, 0
2429, -6.067939515220401, 6.921292354744675, 0
2430, -5.923131265524001, 6.973976444490274, 0
2431, -5.94221409678953, 7.02358363673843, 0
2432, -5.982996422841181, 6.913389730938272, 0
2433, -5.847565871890289, 6.931159487024299, 0
2434, -5.969908220829508, 6.960326856599543, 0
2435, -6.022646295474463, 6.9476704224792885, 0
2436, -5.985535320842788, 6.847478716753949, 0
2437, -5.886982102927711, 6.8405677730840635, 0
2438, -5.933841634234855, 6.878491877825834, 0
2439, -5.807086433035353, 6.9793020048090275, 0
2440, -5.87374317313588, 6.973049717299638, 0
2441, -5.795356268776908, 6.854572408263666, 0
2442, -5.901956056802305, 6.9232582845129995, 0
2443, -5.801153316814483, 6.906709794001814, 0
2444, -3.6877946865607725, 1.0175483744679676, 0
2445, 3.6877946865607725, -1.0175483744679676, 0
2446, 7.057151201645679, -6.219875883341476, 0
2447, 7.128221618185262, -6.1057432738980975, 0
2448, 7.178172185537385, -6.073480475223175, 0
2449, 7.044197692031736, -6.040051713113255, 0
2450, 7.099195716267369, -6.056287447545407, 0
2451, 7.10227830116616, -5.9985985991737225, 0
2452, 7.045626528140831, -6.124806043442234, 0
2453, 6.986303650229054, -6.083416932615704, 0
2454, 6.948601371009942, -5.972755242127322, 0
2455, 6.923922118756034, -6.0656347218412625, 0
2456, 6.985452956572674, -6.021953361254642, 0
2457, 7.0317496679553, -5.976068469237522, 0
2458, 6.904076069253938, -6.0106428409703865, 0
2459, 6.867655644417729, -5.922735007565899, 0
2460, 6.844251959499922, -5.988559498555647, 0
2461, 7.032468181118709, -5.913632223520905, 0
2462, 1.0175483744679676, 3.6877946865607725, 0
2463, 7.072155979894436, 6.208707858390558, 0
2464, 7.1546488376857305, 6.185204650268495, 0
2465, 7.094340198369525, 6.255652608804506, 0
2466, 7.146732120999874, 6.125807296044249, 0
2467, 7.207721910456105, 6.171277361409684, 0
2468, 7.178666176664981, 6.234195063762597, 0
2469, 7.0091061593182715, 6.131289272900786, 0
2470, 6.971700316951784, 6.023760669875713, 0
2471, 6.970783047508278, 6.084350222876112, 0
2472, 6.913515899730208, 6.074755002067548, 0
2473, 7.050812283254365, 6.055260071221396, 0
2474, 7.032233869874313, 5.986824391705987, 0
2475, 6.954474412792387, 5.927458465253086, 0
2476, 7.024354441115518, 5.919949847785103, 0
2477, 7.092466382378047, 6.005601531710943, 0
2478, 6.981811539691309, 5.972260310481826, 0
2479, 7.108607774222235, 6.07506131634449, 0
2480, -3.5864566805008202, -0.048250641112345796, 0
2481, -3.7051699018768285, 0.02698754447434276, 0
2482, -3.654047806846446, -0.023624231124478534, 0
2483, -3.593755646626087, 0.03678671813923878, 0
2484, -3.7504202477548336, -0.06984372925452548, 0
2485, -3.649482529666265, 0.032111745636854344, 0
2486, -3.6469768894709205, 0.13090835550378388, 0
2487, -3.68865320796039, -0.0750513951833449, 0
2488, -3.7157113013464533, -0.027074975963386552, 0
2489, -3.818745816208814, 0.021074214430917712, 0
2490, -3.7732371951102284, -0.015858269433589686, 0
2491, -3.8592411652798417, -0.07532896791497218, 0
2492, -3.5527978860595737, -0.0025297000794555075, 0
2493, -3.696459598152627, 0.0968115998946772, 0
2494, -3.790757078731846, 0.16715964205567266, 0
2495, -3.764342097879266, 0.06982438393258253, 0
2496, -3.742830348978204, 0.1330284708416649, 0
2497, -3.8403048722927307, 0.09986500944077062, 0
2498, -3.5990501597172786, 0.16715964205567269, 0
2499, -3.5147653270930768, 0.11404979551380387, 0
2500, -3.587684995617931, 0.10232721891383391, 0
2501, -3.838683808485488, 0.16715964205567263, 0
2502, -3.9072634282949528, 0.10336945850455352, 0
2503, -3.9157947550027004, 0.036864226757351425, 0
2504, -3.8636649879296416, 0.0511281845182679, 0
2505, -3.874257923902912, -0.012548340844880497, 0
2506, -4.078317457253697, 0.16715964205567257, 0
2507, -3.824389853989985, -0.0338064642633979, 0
2508, -3.9122146610691124, -0.054813644194119826, 0
2509, -4.112272009565308, -0.1671596420556724, 0
2510, -3.9824639977464136, 0.1671596420556726, 0
2511, -3.9345372679927717, 0.1474381246967135, 0
2512, -3.9889573681941455, 0.08328370003559991, 0
2513, -4.0303907275000554, 0.12868063763087667, 0
2514, -4.15801109953676, 0.018812294058633466, 0
2515, -4.07254931583922, 0.04859650124926594, 0
2516, -3.9982732472447524, -0.012265462341726985, 0
2517, -3.9694561913854387, 0.033153646542026044, 0
2518, -0.048250641112345276, 3.586456680500821, 0
2519, 0.026987544474342623, 3.70516990187683, 0
2520, -0.023624231124478437, 3.6540478068464473, 0
2521, 0.03678671813924043, 3.5937556466260885, 0
2522, -0.06984372925452602, 3.7504202477548354, 0
2523, 0.03211174563685452, 3.6494825296662663, 0
2524, 0.13090835550378174, 3.6469768894709205, 0
2525, -0.07505139518334551, 3.6886532079603915, 0
2526, -0.02707497596338696, 3.715711301346455, 0
2527, 0.021074214430918663, 3.8187458162088177, 0
2528, -0.01585826943358945, 3.7732371951102315, 0
2529, -0.07532896791497104, 3.8592411652798453, 0
2530, -0.002529700079454286, 3.552797886059575, 0
2531, 0.09681159989467729, 3.69645959815263, 0
2532, 0.16715964205567266, 3.790757078731846, 0
2533, 0.06982438393258084, 3.764342097879268, 0
2534, 0.13302847084166697, 3.742830348978204, 0
2535, 0.09986500944077177, 3.8403048722927307, 0
2536, 0.16715964205567269, 3.5990501597172786, 0
2537, 0.11404979551380368, 3.5147653270930754, 0
2538, 0.1023272189138347, 3.5876849956179306, 0
2539, 0.16715964205567263, 3.838683808485488, 0
2540, 0.10336945850455598, 3.907263428294949, 0
2541, 0.0368642267573575, 3.915794755002698, 0
2542, 0.05112818451827118, 3.863664987929641, 0
2543, -0.012548340844877832, 3.8742579239029125, 0
2544, 0.16715964205567257, 4.078317457253697, 0
2545, -0.033806464263398416, 3.824389853989987, 0
2546, -0.054813644194114663, 3.912214661069111, 0
2547, -0.16715964205567266, 4.1122720095653085, 0
2548, 0.1671596420556726, 3.9824639977464136, 0
2549, 0.1474381246967137, 3.9345372679927717, 0
2550, 0.08328370003559016, 3.9889573681941495, 0
2551, 0.12868063763087334, 4.0303907275000554, 0
2552, 0.0188122940586318, 4.158011099536769, 0
2553, 0.04859650124926664, 4.07254931583923, 0
2554, -0.01226546234171963, 3.9982732472447275, 0
2555, 0.03315364654203165, 3.9694561913854276, 0
2556, 0.04825064111234482, -3.586456680500821, 0
2557, -0.026987544474342998, -3.70516990187683, 0
2558, 0.02362423112447795, -3.6540478068464473, 0
2559, -0.036786718139240886, -3.5937556466260885, 0
2560, 0.06984372925452556, -3.750420247754835, 0
2561, -0.032111745636854996, -3.6494825296662663, 0
2562, -0.130908355503782, -3.6469768894709205, 0
2563, 0.07505139518334493, -3.688653207960391, 0
2564, 0.02707497596338653, -3.7157113013464547, 0
2565, -0.02107421443091784, -3.8187458162088155, 0
2566, 0.01585826943358974, -3.7732371951102297, 0
2567, 0.07532896791497176, -3.859241165279843, 0
2568, 0.0025297000794538282, -3.552797886059575, 0
2569, -0.09681159989467758, -3.69645959815263, 0
2570, -0.1671596420556729, -3.790757078731846, 0
2571, -0.06982438393258107, -3.764342097879267, 0
2572, -0.13302847084166725, -3.742830348978204, 0
2573, -0.09986500944077102, -3.8403048722927307, 0
2574, -0.1671596420556729, -3.5990501597172786, 0
2575, -0.11404979551380408, -3.5147653270930754, 0
2576, -0.10232721891383503, -3.5876849956179306, 0
2577, -0.1671596420556729, -3.838683808485488, 0
2578, -0.10336945850455452, -3.907263428294952, 0
2579, -0.03686422675735351, -3.9157947550027, 0
2580, -0.05112818451826896, -3.8636649879296416, 0
2581, 0.012548340844879602, -3.8742579239029125, 0
2582, -0.1671596420556729, -4.078317457253697, 0
2583, 0.033806464263397965, -3.824389853989986, 0
2584, 0.054813644194118244, -3.9122146610691124, 0
2585, 0.16715964205567221, -4.1122720095653085, 0
2586, -0.1671596420556729, -3.9824639977464136, 0
2587, -0.1474381246967139, -3.9345372679927717, 0
2588, -0.08328370003559792, -3.9889573681941464, 0
2589, -0.12868063763087617, -4.0303907275000554, 0
2590, -0.018812294058633383, -4.158011099536762, 0
2591, -0.04859650124926645, -4.072549315839223, 0
2592, 0.012265462341724487, -3.998273247244746, 0
2593, -0.03315364654202796, -3.9694561913854356, 0
2594, 3.5864566805008216, 0.04825064111234325, 0
2595, 3.705169901876831, -0.026987544474343275, 0
2596, 3.654047806846448, 0.02362423112447741, 0
2597, 3.593755646626089, -0.03678671813924526, 0
2598, 3.750420247754836, 0.06984372925452595, 0
2599, 3.649482529666267, -0.03211174563685615, 0
2600, 3.6469768894709205, -0.13090835550377872, 0
2601, 3.688653207960392, 0.0750513951833444, 0
2602, 3.715711301346456, 0.027074975963386302, 0
2603, 3.8187458162088204, -0.021074214430918718, 0
2604, 3.773237195110233, 0.01585826943358918, 0
2605, 3.8592411652798457, 0.07532896791497143, 0
2606, 3.552797886059576, 0.002529700079451011, 0
2607, 3.6964595981526354, -0.09681159989467818, 0
2608, 3.790757078731846, -0.16715964205567324, 0
2609, 3.7643420978792697, -0.06982438393257775, 0
2610, 3.742830348978204, -0.1330284708416712, 0
2611, 3.8403048722927307, -0.0998650094407724, 0
2612, 3.5990501597172786, -0.16715964205567324, 0
2613, 3.514765327093069, -0.11404979551380337, 0
2614, 3.5876849956179298, -0.10232721891383739, 0
2615, 3.838683808485488, -0.16715964205567324, 0
2616, 3.907263428294948, -0.10336945850455757, 0
2617, 3.9157947550027, -0.036864226757360834, 0
2618, 3.8636649879296425, -0.05112818451827269, 0
2619, 3.8742579239029156, 0.012548340844877437, 0
2620, 4.078317457253697, -0.16715964205567324, 0
2621, 3.8243898539899894, 0.03380646426339684, 0
2622, 3.912214661069114, 0.05481364419411673, 0
2623, 4.1122720095653085, 0.1671596420556726, 0
2624, 3.9824639977464136, -0.16715964205567324, 0
2625, 3.9345372679927717, -0.1474381246967144, 0
2626, 3.988957368194151, -0.08328370003558717, 0
2627, 4.0303907275000554, -0.12868063763087267, 0
2628, 4.158011099536773, -0.0188122940586318, 0
2629, 4.0725493158392325, -0.04859650124926721, 0
2630, 3.9982732472447218, 0.01226546234171725, 0
2631, 3.969456191385426, -0.03315364654203308, 0
2632, -5.911872843423627, -7.034727757199703, 0
2633, -5.961899645585813, -6.898364060870422, 0
2634, -7.113082802364548, 6.077844118873785, 0
2635, -7.099559712733546, 6.000538901758893, 0
2636, -7.0154773730735505, 5.979507685240236, 0
2637, -7.010509442995827, 6.032424130045439, 0
2638, -7.028854418786, 5.916446017478954, 0
2639, -6.898836466304851, 5.906265365164357, 0
2640, -6.961977656934061, 5.935209335799345, 0
2641, -6.9538549654837185, 5.869585814073121, 0
2642, -6.901802214421394, 5.98313874428609, 0
2643, -6.9793020048090275, 5.807086433035353, 0
2644, -6.883173696436791, 5.823168534354785, 0
2645, -6.846570392603329, 5.946775670356616, 0
2646, -6.788832265218995, 5.879087090957731, 0
2647, -6.822428098091979, 6.009013232779406, 0
2648, -6.898612897286469, 5.714441810451886, 0
2649, -6.84877556116634, 5.8726767148932995, 0
2650, -6.804762129854583, 5.756574541891314, 0
2651, -6.8128186716129, 5.819914030880836, 0
2652, -6.844913731961212, 5.720419560249224, 0
2653, -6.768617188212674, 5.676061591603465, 0
2654, -6.726499172251089, 5.798711417226415, 0
2655, -6.812667464117291, 5.6202240918160715, 0
2656, -6.743139568884334, 5.735869150906129, 0
2657, -6.6371249951473095, 5.655377226018224, 0
2658, -6.6685178940944825, 5.749733901547201, 0
2659, -6.700266783941664, 5.682275204758202, 0
2660, -6.729457698791096, 5.624340708956865, 0
2661, -6.692425948117691, 5.55518583979871, 0
2662, -6.562187896071922, 5.752945438204285, 0
2663, -6.5449044559496405, 5.53569627040887, 0
2664, -6.673238779710238, 5.609952882608684, 0
2665, -6.616815626935684, 5.559440957968419, 0
2666, -6.578837250950369, 5.688171185137211, 0
2667, -6.61476675373764, 5.73193325644522, 0
2668, -6.577643031435027, 5.617851502405675, 0
2669, -6.638610006791922, 5.4295208238439905, 0
2670, -6.644022067701139, 5.514242241765759, 0
2671, -6.561327162318872, 5.455752372041399, 0
2672, -6.589762689605777, 5.503252612559711, 0
2673, -6.498085906743037, 5.381811995573499, 0
2674, -6.546786811684867, 5.404173410842037, 0
2675, -6.461703069403002, 5.476945594972474, 0
2676, -6.516148684620231, 5.488130242832584, 0
2677, -0.9482922613709694, -3.3758126666093284, 0
2678, -1.0198920069523116, -3.4712811958506276, 0
2679, -0.898967437665986, -3.5207517654189577, 0
2680, -3.375812666609329, 0.9482922613709694, 0
2681, -3.471281195850628, 1.0198920069523119, 0
2682, -3.520751765418959, 0.8989674376659872, 0
2683, 3.375812666609329, -0.9482922613709698, 0
2684, 3.4712811958506267, -1.0198920069523123, 0
2685, 3.52075176541896, -0.8989674376659881, 0
2686, 0.9482922613709694, 3.375812666609329, 0
2687, 1.0198920069523119, 3.471281195850628, 0
2688, 0.8989674376659872, 3.520751765418959, 0
2689, -0.9019392557763248, -3.7062378235632676, 0
2690, -0.8642742737313216, -3.6569858403480797, 0
2691, -3.706237823563272, 0.9019392557763231, 0
2692, -3.656985840348083, 0.8642742737313217, 0
2693, 3.7062378235632694, -0.9019392557763247, 0
2694, 3.656985840348081, -0.8642742737313227, 0
2695, 0.9019392557763231, 3.706237823563272, 0
2696, 0.8642742737313217, 3.656985840348083, 0
2697, -3.192278016850234, 0.06421446502390737, 0
2698, 0.06421446502390724, 3.1922780168502323, 0
2699, -0.06421446502390757, -3.1922780168502354, 0
2700, 3.1922780168502323, -0.06421446502390755, 0
2701, -6.852258395076551, -5.984430099180556, 0
2702, -6.551679267469854, -5.577722788986338, 0
2703, -6.748144277326723, -5.633003784063264, 0
2704, -6.67176691795281, -5.573656514792217, 0
2705, 5.984430099180601, -6.852258395076578, 0
2706, 5.57772278898634, -6.551679267469854, 0
2707, 5.633003784063243, -6.7481442773267055, 0
2708, 5.573656514792192, -6.671766917952827, 0
2709, -3.608137285713323, -1.332897343617695, 0
2710, -3.555012722048799, -1.3024326563682733, 0
2711, -3.5535252131684887, -1.3665784478904315, 0
2712, -1.3328973436177198, 3.608137285713333, 0
2713, -1.302432656368286, 3.5550127220488097, 0
2714, -1.3665784478904386, 3.5535252131684945, 0
2715, 1.332897343617685, -3.608137285713318, 0
2716, 1.302432656368267, -3.5550127220487946, 0
2717, 1.366578447890428, -3.5535252131684847, 0
2718, 3.608137285713333, 1.3328973436177198, 0
2719, 3.5550127220488097, 1.302432656368286, 0
2720, 3.5535252131684945, 1.3665784478904386, 0
2721, -3.8175921953242598, -1.309745097730918, 0
2722, -3.7684661691926493, -1.3162565836999438, 0
2723, -3.6899041943373283, -1.3266697035317596, 0
2724, -3.897601455693374, -1.3076693334600513, 0
2725, -3.840211804803411, -1.3920178289557634, 0
2726, -3.6682966394797325, -1.4478501479744377, 0
2727, -3.6085271954372686, -1.410580588948154, 0
2728, -3.666027030789383, -1.3849288243196687, 0
2729, -3.608589182818704, -1.4770422898367135, 0
2730, -3.6460236301961353, -1.2904324367813573, 0
2731, -3.59706201296653, -1.2702206472633928, 0
2732, -3.8069668808585932, -1.3569121836429408, 0
2733, -3.858480018858322, -1.3427494465215113, 0
2734, -3.902347022259878, -1.4346558047878237, 0
2735, -3.769840417081108, -1.4679259638459055, 0
2736, -3.787856626068101, -1.4140547555196858, 0
2737, -3.7244408802219517, -1.4180900319088074, 0
2738, -3.8385424480674772, -1.4610435484481883, 0
2739, -3.822378704867445, -1.646034760387725, 0
2740, -3.8129595138428254, -1.552009986199497, 0
2741, -3.807900188042739, -1.5015065019135974, 0
2742, -1.3097450977308942, 3.8175921953242558, 0
2743, -1.3162565836999272, 3.768466169192646, 0
2744, -1.3266697035317694, 3.6899041943372133, 0
2745, -1.3076693334600518, 3.8976014556933745, 0
2746, -1.3920178289557033, 3.8402118048034217, 0
2747, -1.44785014797449, 3.668296639479805, 0
2748, -1.4105805889481735, 3.608527195437315, 0
2749, -1.3849288243197342, 3.6660270307894365, 0
2750, -1.4770422898367335, 3.6085891828187604, 0
2751, -1.290432436781334, 3.646023630196068, 0
2752, -1.2702206472634028, 3.5970620129664903, 0
2753, -1.3569121836429041, 3.806966880858601, 0
2754, -1.342749446521465, 3.8584800188583093, 0
2755, -1.4346558047878328, 3.9023470222598573, 0
2756, -1.4679259638458684, 3.7698404170811757, 0
2757, -1.4140547555196532, 3.7878566260681383, 0
2758, -1.4180900319088037, 3.724440880221992, 0
2759, -1.4610435484480628, 3.8385424480674706, 0
2760, -1.6460347603877996, 3.822378704867744, 0
2761, -1.5520099861995034, 3.8129595138429866, 0
2762, -1.5015065019135814, 3.8079001880428276, 0
2763, 1.3097450977309482, -3.8175921953242677, 0
2764, 1.3162565836999585, -3.7684661691926515, 0
2765, 1.3266697035317392, -3.6899041943374, 0
2766, 1.3076693334600513, -3.897601455693375, 0
2767, 1.3920178289558383, -3.8402118048034, 0
2768, 1.4478501479743795, -3.6682966394796526, 0
2769, 1.4105805889481369, -3.6085271954372167, 0
2770, 1.3849288243196014, -3.6660270307893184, 0
2771, 1.4770422898366946, -3.6085891828186454, 0
2772, 1.290432436781372, -3.6460236301961686, 0
2773, 1.2702206472633895, -3.5970620129665507, 0
2774, 1.3569121836429863, -3.806966880858587, 0
2775, 1.3427494465215697, -3.858480018858341, 0
2776, 1.4346558047878124, -3.9023470222599057, 0
2777, 1.4679259638459408, -3.769840417081028, 0
2778, 1.4140547555197203, -3.787856626068059, 0
2779, 1.4180900319088112, -3.724440880221906, 0
2780, 1.4610435484483424, -3.838542448067488, 0
2781, 1.6460347603876206, -3.822378704867052, 0
2782, 1.5520099861994798, -3.812959513842616, 0
2783, 1.5015065019136098, -3.8079001880426273, 0
2784, 3.8175921953242558, 1.3097450977308942, 0
2785, 3.768466169192646, 1.3162565836999272, 0
2786, 3.6899041943372133, 1.3266697035317694, 0
2787, 3.8976014556933745, 1.3076693334600518, 0
2788, 3.8402118048034217, 1.3920178289557033, 0
2789, 3.668296639479805, 1.44785014797449, 0
2790, 3.608527195437315, 1.4105805889481735, 0
2791, 3.6660270307894365, 1.3849288243197342, 0
2792, 3.6085891828187604, 1.4770422898367335, 0
2793, 3.646023630196068, 1.290432436781334, 0
2794, 3.5970620129664903, 1.2702206472634028, 0
2795, 3.806966880858601, 1.3569121836429041, 0
2796, 3.8584800188583093, 1.342749446521465, 0
2797, 3.9023470222598573, 1.4346558047878328, 0
2798, 3.7698404170811757, 1.4679259638458684, 0
2799, 3.7878566260681383, 1.4140547555196532, 0
2800, 3.724440880221992, 1.4180900319088037, 0
2801, 3.8385424480674706, 1.4610435484480628, 0
2802, 3.822378704867744, 1.6460347603877996, 0
2803, 3.8129595138429866, 1.5520099861995034, 0
2804, 3.8079001880428276, 1.5015065019135814, 0
2805, -0.9959999234499174, -3.741932280168018, 0
2806, -0.9613737433352956, -3.6959349545518116, 0
2807, -0.9866962365537235, -3.621941196816837, 0
2808, -0.9269786144889545, -3.585090843150755, 0
2809, -0.9954356834716243, -3.5448797021666834, 0
2810, -0.9575529331757112, -3.4914289062530437, 0
2811, -1.15654268234892, -3.6895453804153835, 0
2812, -5.897858520565473, 6.769963886977644, 0
2813, -5.79838480550285, 6.753847034691378, 0
2814, -5.84234616948975, 6.79755198715233, 0
2815, -5.851176305717218, 6.743052110907649, 0
2816, -5.812921714493448, 6.6806037884515055, 0
2817, -5.674218059352298, 6.674005812765486, 0
2818, -5.744471737097022, 6.658345968157916, 0
2819, -5.72672902084692, 6.586788375216741, 0
2820, -5.724187902372182, 6.732765033347546, 0
2821, -5.61230436857301, 6.577313122469267, 0
2822, -5.671122751334626, 6.562655754777221, 0
2823, -5.63601728827132, 6.495921250112215, 0
2824, -5.65389141214843, 6.618852802073369, 0
2825, -5.5696821255197495, 6.6615710344217245, 0
2826, -5.647644042540547, 6.747232023278329, 0
2827, -5.744429446097494, 6.802632961178327, 0
2828, -5.731654465996823, 6.866095570951198, 0
2829, -5.486984093977632, 6.489842642272465, 0
2830, -5.618679242252224, 6.6952856068113045, 0
2831, -5.6202240918160715, 6.812667464117291, 0
2832, -5.560473657471654, 6.518062400329595, 0
2833, -5.5470047778913685, 6.443337689426878, 0
2834, -5.492096123521563, 6.586330164185591, 0
2835, -5.575033362368695, 6.376182441267739, 0
2836, -5.463758345820107, 6.397882074731536, 0
2837, -5.52053276432089, 6.3928622967640205, 0
2838, -5.511059375445393, 6.536946285575144, 0
2839, -5.495454502912117, 6.438790083657302, 0
2840, -3.7419322801680184, 0.9959999234499173, 0
2841, -3.6959349545518134, 0.9613737433352966, 0
2842, -3.6219411968168362, 0.9866962365537202, 0
2843, -3.585090843150761, 0.9269786144889468, 0
2844, -3.5448797021666834, 0.9954356834716249, 0
2845, -3.491428906253044, 0.9575529331757117, 0
2846, -3.689545380415384, 1.1565426823489204, 0
2847, 3.741932280168018, -0.9959999234499176, 0
2848, 3.695934954551813, -0.9613737433352961, 0
2849, 3.621941196816837, -0.9866962365537227, 0
2850, 3.585090843150758, -0.9269786144889529, 0
2851, 3.5448797021666825, -0.9954356834716237, 0
2852, 3.491428906253042, -0.9575529331757114, 0
2853, 3.6895453804153835, -1.1565426823489202, 0
2854, 6.98926464228498, -6.147404903480331, 0
2855, 6.943781784732191, -5.890048865743701, 0
2856, 6.917183077864852, -5.933092479446595, 0
2857, 6.9808003261908445, -5.929385282608009, 0
2858, 6.957657616323131, -5.825285578833773, 0
2859, 6.852782318455873, -5.818711804446225, 0
2860, 6.90361678493665, -5.847575206343157, 0
2861, 0.9959999234499173, 3.7419322801680184, 0
2862, 0.9613737433352966, 3.6959349545518134, 0
2863, 0.9866962365537202, 3.6219411968168362, 0
2864, 0.9269786144889468, 3.585090843150761, 0
2865, 0.9954356834716249, 3.5448797021666834, 0
2866, 0.9575529331757117, 3.491428906253044, 0
2867, 1.1565426823489204, 3.689545380415384, 0
2868, 6.904237858833437, 5.9861361796479144, 0
2869, 6.84201266172092, 5.990658210637961, 0
2870, 6.852641116394647, 5.877910414452992, 0
2871, 6.86934359549296, 5.936359772770235, 0
2872, 6.9793020048090275, 5.807086433035353, 0
2873, 6.907875011130259, 5.828018636973732, 0
2874, 6.911123551387347, 5.8871349076995605, 0
2875, 6.961616675950045, 5.861082109427581, 0
2876, 6.807042737285262, 5.771909733922156, 0
2877, 6.898612897286469, 5.714441810451886, 0
2878, 6.842038071932022, 5.819663650817496, 0
2879, 6.775611004875589, 5.861844263183172, 0
2880, 6.866532833433227, 5.765013528724061, 0
2881, 6.727056317641275, 5.684036502281445, 0
2882, 6.805153998941821, 5.912894418713802, 0
2883, 6.741944980008303, 5.9257334620751845, 0
2884, 6.714024389406934, 5.7898601126187526, 0
2885, 6.7283858533637595, 5.839910583203695, 0
2886, -3.807734354887651, -0.1671596420556724, 0
2887, -4.174170916760981, 0.16715964205567255, 0
2888, -4.123178226483637, 0.05636670219785027, 0
2889, -4.08266974716204, 0.10506300057910972, 0
2890, -4.196721930195825, 0.0896492713896937, 0
2891, -4.142191117639498, 0.11581967645753584, 0
2892, -4.222097646514623, 0.13906783268117337, 0
2893, -4.2943383662781, 0.0707489558754306, 0
2894, -4.234461138650495, 0.02302984225314529, 0
2895, -4.72134731892062, -0.1671596420556724, 0
2896, -4.213784561124527, -0.1671596420556724, 0
2897, -4.2972580365615345, 0.005659317300490595, 0
2898, -4.327317691133315, -0.0458272587108687, 0
2899, -4.267381990304382, -0.059807975868680155, 0
2900, -4.6534382142974, 0.16715964205567244, 0
2901, -4.375402773542345, 0.04177489083917778, 0
2902, -4.313164979626648, -0.1037422921595105, 0
2903, -4.2146892820051995, -0.03278825818429688, 0
2904, -4.585556968013762, 0.015459235065723251, 0
2905, -4.21351428757703, -0.0999690846342016, 0
2906, -4.2645408369041355, -0.13712158465833657, 0
2907, -4.163028285344917, -0.1337679865226945, 0
2908, -4.0838474206907005, -0.06868212381107909, 0
2909, -4.461731295282832, 0.16715964205567246, 0
2910, -4.425255550073628, -0.02840797916447952, 0
2911, -4.4168096642429635, -0.1671596420556724, 0
2912, -4.518322215802183, -0.1671596420556724, 0
2913, -4.366053388463355, -0.1408040844469832, 0
2914, -4.520868893141147, -0.06297857944909148, 0
2915, -4.148632465130042, -0.04841723123263052, 0
2916, -4.100397936300105, -0.007904202926744985, 0
2917, -4.0500509784637595, -0.02683656337410411, 0
2918, -3.936835617801861, -0.11167623370552399, 0
2919, -4.466481754691166, -0.06389314959035611, 0
2920, -4.402401831482794, -0.09664974561212772, 0
2921, -4.378714739141784, -0.05076943101533786, 0
2922, -4.3658778357755486, 0.1671596420556725, 0
2923, -4.4792095782443315, 0.06271433307406983, 0
2924, -4.4926519851184565, -0.002580533298454875, 0
2925, -4.532649042820591, 0.039684897589215826, 0
2926, -4.5898288041642346, 0.09467604171032487, 0
2927, -4.543396361060916, -0.015663896094325374, 0
2928, -4.619834767361402, -0.1671596420556724, 0
2929, -4.351582692139841, 0.10301954197162522, 0
2930, -4.302055986374249, 0.12396651506069728, 0
2931, -4.41380456552919, 0.12281497674848474, 0
2932, -4.431963828003689, 0.029154408427545762, 0
2933, -4.557584754790116, 0.16715964205567246, 0
2934, -4.525611959534891, 0.1095230471781316, 0
2935, -4.605511484543758, 0.14506604196701933, 0
2936, -4.845145133311967, 0.1671596420556724, 0
2937, -4.64570370014129, 0.05193935408721012, 0
2938, -4.621001240836527, -0.028295796392704395, 0
2939, -4.67694587050564, -0.021892854486954633, 0
2940, -4.702088961445094, -0.09362690061687837, 0
2941, -4.772785808324035, 0.0621880893304336, 0
2942, -4.71094195460309, 0.03601880290042136, 0
2943, -4.7492916738046835, 0.1671596420556724, 0
2944, -4.924372422039058, -0.1671596420556724, 0
2945, -4.728600931562928, -0.013281857661934073, 0
2946, -4.693603116074118, 0.10659370476462769, 0
2947, -4.883216797733074, -0.06907123070800167, 0
2948, -4.748618168827107, 0.11189396402090056, 0
2949, -4.812509819056937, 0.1122306642786388, 0
2950, -4.940998592819251, 0.16715964205567238, 0
2951, -4.859029851466026, 0.03451503036459455, 0
2952, -4.799138745898114, -0.003909869055847087, 0
2953, -4.852741152462514, -0.021570258274007666, 0
2954, -4.934897727885395, -0.002387051402149558, 0
2955, -4.822859870479839, -0.1671596420556724, 0
2956, -4.929372997660178, 0.08269485875730469, 0
2957, -4.874723374752425, 0.11242672157786371, 0
2958, -5.025884973598277, -0.1671596420556724, 0
2959, -4.750163393872638, -0.06494364595956434, 0
2960, -4.8163349859991405, -0.07845446389673451, 0
2961, -4.772101249027053, -0.1262980438494937, 0
2962, -4.907916168592851, 0.03858124841084093, 0
2963, -4.988925322572893, 0.11753062941938983, 0
2964, -5.013027221838969, 0.04280981077844358, 0
2965, -5.803679728384805, 0.16715964205567216, 0
2966, -5.039372942310979, 0.11676929495333467, 0
2967, -4.934334567914363, -0.055319314514141044, 0
2968, -0.16715964205567269, 3.8077343548876517, 0
2969, 0.16715964205567255, 4.174170916760981, 0
2970, 0.05636670219785409, 4.123178226483649, 0
2971, 0.10506300057911541, 4.08266974716205, 0
2972, 0.08964927138969296, 4.196721930195847, 0
2973, 0.11581967645752483, 4.142191117639512, 0
2974, 0.1390678326811799, 4.222097646514623, 0
2975, 0.07074895587551097, 4.294338366278043, 0
2976, 0.02302984225313648, 4.234461138650507, 0
2977, -0.16715964205567263, 4.721347318920621, 0
2978, -0.16715964205567266, 4.213784561124527, 0
2979, 0.00565931730053126, 4.297258036561606, 0
2980, -0.04582725871079615, 4.327317691133525, 0
2981, -0.05980797586875066, 4.267381990304504, 0
2982, 0.16715964205567244, 4.6534382142974, 0
2983, 0.04177489083939662, 4.375402773542419, 0
2984, -0.10374229215948712, 4.313164979626881, 0
2985, -0.03278825818434199, 4.214689282005347, 0
2986, 0.01545923506643464, 4.585556968013343, 0
2987, -0.09996908463422374, 4.213514287577143, 0
2988, -0.13712158465814595, 4.264540836904136, 0
2989, -0.13376798652262034, 4.163028285344917, 0
2990, -0.06868212381111587, 4.083847420690629, 0
2991, 0.16715964205567246, 4.461731295282832, 0
2992, -0.02840797916425844, 4.425255550073839, 0
2993, -0.16715964205567263, 4.416809664242965, 0
2994, -0.16715964205567263, 4.518322215802184, 0
2995, -0.14080408444686837, 4.366053388463356, 0
2996, -0.06297857944897459, 4.5208688931413725, 0
2997, -0.04841723123274208, 4.148632465130101, 0
2998, -0.007904202926769625, 4.1003979363001735, 0
2999, -0.026836563374043984, 4.050050978463773, 0
3000, -0.11167623370552343, 3.936835617801949, 0
3001, -0.06389314959020716, 4.466481754691358, 0
3002, -0.09664974561198794, 4.402401831482849, 0
3003, -0.050769431015120214, 4.378714739142002, 0
3004, 0.1671596420556725, 4.3658778357755486, 0
3005, 0.06271433307425445, 4.4792095782442045, 0
3006, -0.002580533298258955, 4.492651985118701, 0
3007, 0.03968489758959867, 4.532649042820287, 0
3008, 0.09467604171052404, 4.589828804163364, 0
3009, -0.015663896094247585, 4.543396361061054, 0
3010, -0.16715964205567263, 4.619834767361402, 0
3011, 0.10301954197170883, 4.351582692139719, 0
3012, 0.12396651506071693, 4.302055986374169, 0
3013, 0.12281497674839251, 4.41380456552919, 0
3014, 0.02915440842771401, 4.4319638280036715, 0
3015, 0.16715964205567246, 4.557584754790116, 0
3016, 0.10952304717865116, 4.525611959534234, 0
3017, 0.14506604196696948, 4.605511484543758, 0
3018, 0.1671596420556724, 4.845145133311967, 0
3019, 0.05193935408805084, 4.64570370013925, 0
3020, -0.028295796394006603, 4.621001240834237, 0
3021, -0.021892854485102073, 4.676945870503379, 0
3022, -0.09362690061402246, 4.7020889614501655, 0
3023, 0.0621880893320708, 4.772785808321833, 0
3024, 0.036018802901965984, 4.710941954601078, 0
3025, 0.1671596420556724, 4.7492916738046835, 0
3026, -0.16715964205567263, 4.924372422039059, 0
3027, -0.01328185765946019, 4.728600931559032, 0
3028, 0.1065937047643837, 4.693603116071059, 0
3029, -0.06907123070227893, 4.883216797739108, 0
3030, 0.1118939640213836, 4.748618168823537, 0
3031, 0.11223066428124104, 4.812509819053085, 0
3032, 0.16715964205567238, 4.940998592819251, 0
3033, 0.03451503037092736, 4.859029851461729, 0
3034, -0.003909869055769802, 4.799138745896049, 0
3035, -0.021570258269781196, 4.85274115246341, 0
3036, -0.0023870513896195114, 4.934897727887248, 0
3037, -0.16715964205567263, 4.82285987047984, 0
3038, 0.08269485876391586, 4.929372997649515, 0
3039, 0.11242672157858036, 4.874723374743891, 0
3040, -0.16715964205567263, 5.025884973598277, 0
3041, -0.0649436459549388, 4.750163393878896, 0
3042, -0.0784544638967112, 4.81633498600522, 0
3043, -0.1262980438486357, 4.772101249029095, 0
3044, 0.03858124841665466, 4.907916168587143, 0
3045, 0.11753062941459813, 4.988925322572893, 0
3046, 0.04280981079447185, 5.0130272218453875, 0
3047, 0.16715964205567216, 5.803679728384805, 0
3048, 0.1167692949522962, 5.039372942312131, 0
3049, -0.05531931450886264, 4.9343345679278965, 0
3050, 0.1671596420556722, -3.8077343548876517, 0
3051, -0.1671596420556729, -4.174170916760981, 0
3052, -0.05636670219785181, -4.123178226483641, 0
3053, -0.10506300057911151, -4.082669747162043, 0
3054, -0.08964927138969354, -4.1967219301958325, 0
3055, -0.11581967645753233, -4.142191117639502, 0
3056, -0.13906783268117573, -4.222097646514623, 0
3057, -0.0707489558754573, -4.294338366278081, 0
3058, -0.023029842253141263, -4.234461138650499, 0
3059, 0.16715964205567224, -4.721347318920621, 0
3060, 0.16715964205567221, -4.213784561124527, 0
3061, -0.005659317300504115, -4.2972580365615585, 0
3062, 0.0458272587108446, -4.327317691133385, 0
3063, 0.05980797586870426, -4.267381990304422, 0
3064, -0.1671596420556729, -4.6534382142974, 0
3065, -0.04177489083925029, -4.37540277354237, 0
3066, 0.10374229215950254, -4.313164979626725, 0
3067, 0.032788258184312156, -4.214689282005249, 0
3068, -0.015459235065958348, -4.585556968013624, 0
3069, 0.09996908463420892, -4.213514287577067, 0
3070, 0.13712158465827373, -4.264540836904136, 0
3071, 0.13376798652267005, -4.163028285344917, 0
3072, 0.06868212381109179, -4.083847420690677, 0
3073, -0.1671596420556729, -4.461731295282832, 0
3074, 0.02840797916440671, -4.425255550073698, 0
3075, 0.16715964205567224, -4.416809664242965, 0
3076, 0.16715964205567224, -4.518322215802184, 0
3077, 0.14080408444694575, -4.366053388463356, 0
3078, 0.0629785794490539, -4.520868893141222, 0
3079, 0.048417231232667376, -4.148632465130063, 0
3080, 0.007904202926753007, -4.100397936300128, 0
3081, 0.026836563374084903, -4.050050978463765, 0
3082, 0.11167623370552376, -3.9368356178018913, 0
3083, 0.06389314959030763, -4.46648175469123, 0
3084, 0.09664974561208176, -4.402401831482813, 0
3085, 0.050769431015266625, -4.378714739141857, 0
3086, -0.1671596420556729, -4.3658778357755486, 0
3087, -0.0627143330741306, -4.479209578244291, 0
3088, 0.0025805332983907386, -4.492651985118538, 0
3089, -0.039684897589341725, -4.532649042820491, 0
3090, -0.09467604171039104, -4.589828804163948, 0
3091, 0.015663896094300547, -4.543396361060963, 0
3092, 0.16715964205567224, -4.619834767361402, 0
3093, -0.10301954197165308, -4.351582692139801, 0
3094, -0.12396651506070408, -4.3020559863742225, 0
3095, -0.12281497674845485, -4.41380456552919, 0
3096, -0.029154408427601253, -4.431963828003684, 0
3097, -0.1671596420556729, -4.557584754790116, 0
3098, -0.10952304717830336, -4.525611959534674, 0
3099, -0.1450660419670034, -4.605511484543758, 0
3100, -0.1671596420556729, -4.845145133311967, 0
3101, -0.051939354087488204, -4.645703700140617, 0
3102, 0.02829579639313748, -4.621001240835771, 0
3103, 0.021892854486342345, -4.676945870504894, 0
3104, 0.09362690061593276, -4.702088961446776, 0
3105, -0.062188089330974916, -4.772785808323309, 0
3106, -0.036018802900932075, -4.7109419546024265, 0
3107, -0.1671596420556729, -4.7492916738046835, 0
3108, 0.16715964205567224, -4.924372422039059, 0
3109, 0.013281857661115455, -4.72860093156164, 0
3110, -0.10659370476454774, -4.693603116073108, 0
3111, 0.06907123070610804, -4.883216797735073, 0
3112, -0.11189396402106058, -4.748618168825928, 0
3113, -0.11223066427949943, -4.8125098190556646, 0
3114, -0.1671596420556729, -4.940998592819251, 0
3115, -0.034515030366689466, -4.859029851464607, 0
3116, 0.003909869055822468, -4.799138745897433, 0
3117, 0.021570258272609433, -4.852741152462812, 0
3118, 0.002387051398004561, -4.934897727886008, 0
3119, 0.16715964205567224, -4.82285987047984, 0
3120, -0.08269485875949188, -4.929372997656653, 0
3121, -0.11242672157810174, -4.874723374749604, 0
3122, 0.16715964205567224, -5.025884973598277, 0
3123, 0.06494364595803265, -4.750163393874712, 0
3124, 0.07845446389672692, -4.816334986001155, 0
3125, 0.12629804384920987, -4.77210124902773, 0
3126, -0.03858124841276495, -4.9079161685909645, 0
3127, -0.11753062941780676, -4.988925322572893, 0
3128, -0.04280981078374993, -5.0130272218410905, 0
3129, -0.16715964205567285, -5.803679728384805, 0
3130, -0.1167692949529922, -5.03937294231136, 0
3131, 0.055319314512395315, -4.934334567918843, 0
3132, 3.8077343548876517, 0.16715964205567266, 0
3133, 4.174170916760981, -0.16715964205567324, 0
3134, 4.1231782264836525, -0.05636670219785517, 0
3135, 4.082669747162051, -0.10506300057911722, 0
3136, 4.196721930195852, -0.08964927138969365, 0
3137, 4.142191117639515, -0.1158196764575227, 0
3138, 4.222097646514623, -0.13906783268118234, 0
3139, 4.294338366278029, -0.07074895587553195, 0
3140, 4.234461138650509, -0.023029842253136413, 0
3141, 4.721347318920621, 0.16715964205567252, 0
3142, 4.213784561124527, 0.1671596420556726, 0
3143, 4.297258036561624, -0.005659317300542567, 0
3144, 4.327317691133579, 0.045827258710777474, 0
3145, 4.267381990304533, 0.05980797586876492, 0
3146, 4.6534382142974, -0.1671596420556733, 0
3147, 4.37540277354244, -0.04177489083945219, 0
3148, 4.3131649796269365, 0.10374229215948083, 0
3149, 4.21468928200538, 0.03278825818435145, 0
3150, 4.585556968013234, -0.015459235066617845, 0
3151, 4.213514287577171, 0.09996908463422834, 0
3152, 4.264540836904136, 0.1371215846581004, 0
3153, 4.163028285344918, 0.13376798652260194, 0
3154, 4.083847420690612, 0.06868212381112405, 0
3155, 4.461731295282832, -0.1671596420556733, 0
3156, 4.425255550073892, 0.028407979164205885, 0
3157, 4.416809664242965, 0.16715964205567255, 0
3158, 4.518322215802184, 0.16715964205567255, 0
3159, 4.366053388463356, 0.1408040844468407, 0
3160, 4.520868893141433, 0.06297857944895588, 0
3161, 4.148632465130113, 0.04841723123276678, 0
3162, 4.100397936300188, 0.007904202926775197, 0
3163, 4.050050978463775, 0.026836563374030772, 0
3164, 3.9368356178019748, 0.11167623370552582, 0
3165, 4.466481754691407, 0.06389314959017699, 0
3166, 4.4024018314828615, 0.09664974561195404, 0
3167, 4.378714739142057, 0.05076943101506652, 0
3168, 4.3658778357755486, -0.1671596420556733, 0
3169, 4.4792095782441805, -0.06271433307429856, 0
3170, 4.492651985118768, 0.002580533298215712, 0
3171, 4.532649042820209, -0.039684897589687164, 0
3172, 4.589828804163129, -0.0946760417105737, 0
3173, 4.543396361061095, 0.015663896094238492, 0
3174, 4.619834767361402, 0.16715964205567255, 0
3175, 4.351582692139689, -0.10301954197173008, 0
3176, 4.30205598637415, -0.12396651506072279, 0
3177, 4.41380456552919, -0.12281497674837032, 0
3178, 4.431963828003671, -0.029154408427754984, 0
3179, 4.557584754790116, -0.1671596420556733, 0
3180, 4.525611959534059, -0.10952304717879242, 0
3181, 4.605511484543758, -0.14506604196695333, 0
3182, 4.845145133311967, -0.1671596420556733, 0
3183, 4.645703700138699, -0.05193935408827542, 0
3184, 4.621001240833618, 0.028295796394381928, 0
3185, 4.676945870502773, 0.021892854484608884, 0
3186, 4.702088961451557, 0.09362690061324837, 0
3187, 4.772785808321239, -0.06218808933251163, 0
3188, 4.7109419546005356, -0.036018802902379354, 0
3189, 4.7492916738046835, -0.1671596420556733, 0
3190, 4.924372422039059, 0.16715964205567246, 0
3191, 4.7286009315579784, 0.01328185765879104, 0
3192, 4.693603116070235, -0.10659370476431704, 0
3193, 4.883216797740727, 0.0690712307007418, 0
3194, 4.748618168822575, -0.11189396402151432, 0
3195, 4.812509819052049, -0.1122306642819414, 0
3196, 4.940998592819251, -0.1671596420556733, 0
3197, 4.859029851460573, -0.03451503037262882, 0
3198, 4.79913874589549, 0.003909869055750803, 0
3199, 4.852741152463648, 0.02157025826864609, 0
3200, 4.934897727887741, 0.002387051386254023, 0
3201, 4.82285987047984, 0.1671596420556725, 0
3202, 4.929372997646649, -0.08269485876569226, 0
3203, 4.874723374741597, -0.11242672157877287, 0
3204, 5.025884973598277, 0.16715964205567246, 0
3205, 4.750163393880593, 0.06494364595367653, 0
3206, 4.816334986006858, 0.07845446389670188, 0
3207, 4.772101249029638, 0.1262980438483951, 0
3208, 4.907916168585606, -0.038581248418217355, 0
3209, 4.988925322572893, -0.11753062941331052, 0
3210, 5.013027221847112, -0.04280981079878171, 0
3211, 5.803679728384805, -0.16715964205567335, 0
3212, 5.03937294231244, -0.11676929495201785, 0
3213, 4.934334567931531, 0.055319314507445067, 0
3214, -5.990228545599728, -6.842471108581703, 0
3215, -6.015975669982793, -6.9031586960757005, 0
3216, -5.891157321101044, -6.943278989800043, 0
3217, -5.942177943636254, -6.9454698822274645, 0
3218, -5.825912027122284, -6.956912576403507, 0
3219, -5.8253037652311015, -6.821843310049395, 0
3220, -5.808412798381282, -6.889455378478647, 0
3221, -5.73819676576162, -6.872232037157727, 0
3222, -5.879156982905903, -6.87121291626394, 0
3223, -5.727671516252807, -6.753551732362358, 0
3224, -5.895629944953915, -6.7991871129524455, 0
3225, -5.714039808911058, -6.814567542401446, 0
3226, -5.931715603622485, -6.8453368946077795, 0
3227, -5.842677026126409, -6.755294527122411, 0
3228, -5.9257334620751845, -6.741944980008301, 0
3229, -5.6454986427163965, -6.785307762534011, 0
3230, -5.771169590973002, -6.795300408365708, 0
3231, -5.807039407175823, -6.686208155254183, 0
3232, -5.78350516650491, -6.7389132067161785, 0
3233, -5.6388340970882505, -6.645867847031632, 0
3234, -5.6653494435356135, -6.714479767306801, 0
3235, -5.595735492577099, -6.701952912354292, 0
3236, -5.723718902925062, -6.6524932200547395, 0
3237, -5.525133693544079, -6.725352101288019, 0
3238, -5.5486279907115765, -6.62115101441824, 0
3239, -5.715696099621545, -6.703413562663516, 0
3240, -5.588683309777137, -6.651931550110638, 0
3241, -5.686119480620587, -6.587131880938844, 0
3242, -5.7726018281934754, -6.651501127370394, 0
3243, -5.609973311286432, -6.574231944706245, 0
3244, -5.752945438204284, -6.56218789607192, 0
3245, -5.4973336144153135, -6.49052196050181, 0
3246, -5.541674273568887, -6.548496084178456, 0
3247, -5.4295208238439905, -6.638610006791921, 0
3248, -5.571601353520139, -6.479663081907273, 0
3249, -5.488565000553411, -6.5431722199632345, 0
3250, -5.4021030196209505, -6.501717135941506, 0
3251, -5.498295842822984, -6.634199783189075, 0
3252, -5.43981809155972, -6.578997357825047, 0
3253, -5.5750333623686945, -6.376182441267737, 0
3254, -5.642177158475067, -6.490029405187666, 0
3255, -5.601333890726434, -6.522668175704743, 0
3256, -5.441721538537282, -6.4280957843001145, 0
3257, -5.506712919164334, -6.397864649053542, 0
3258, -5.553645883395998, -6.427270343180574, 0
3259, -5.654434043090261, -6.542976698490336, 0
3260, -5.447679028455338, -6.478772552291281, 0
3261, -5.3379269842752315, -6.419710699425069, 0
3262, -5.387986673994168, -6.446649769679252, 0
3263, -5.342450675407478, -6.4876658027361405, 0
3264, -5.3333854827158085, -6.552441180628997, 0
3265, -6.741944980008302, 5.9257334620751845, 0
3266, -6.742851398256441, 5.850388083644356, 0
3267, -6.65454976004216, 5.840267854987434, 0
3268, -6.49970884760845, 5.601307284326112, 0
3269, -6.477072934776721, 5.540236716413603, 0
3270, -6.376182441267737, 5.575033362368694, 0
3271, -6.468750303854325, 5.664424265101996, 0
3272, -6.529692772555452, 5.651896037303284, 0
3273, -6.3583307981544, 5.410355638167184, 0
3274, -6.429618343579536, 5.566306240502931, 0
3275, -6.552441180628998, 5.3333854827158085, 0
3276, -0.9860086517831118, -3.426102346994396, 0
3277, -1.115697266984935, -3.5114529124711265, 0
3278, -1.0568428973089312, -3.5327585682583673, 0
3279, -0.8473538324559082, -3.545791880042848, 0
3280, -0.8527441314028108, -3.475220757772927, 0
3281, -3.4261023469943965, 0.9860086517831119, 0
3282, -3.5114529124711265, 1.1156972669849357, 0
3283, -3.5327585682583673, 1.0568428973089319, 0
3284, -3.545791880042851, 0.847353832455909, 0
3285, -3.4752207577729277, 0.852744131402812, 0
3286, 3.4261023469943956, -0.9860086517831121, 0
3287, 3.5114529124711265, -1.1156972669849354, 0
3288, 3.532758568258367, -1.0568428973089312, 0
3289, 3.54579188004285, -0.8473538324559097, 0
3290, 3.4752207577729273, -0.8527441314028132, 0
3291, 0.9860086517831119, 3.4261023469943965, 0
3292, 1.1156972669849357, 3.5114529124711265, 0
3293, 1.0568428973089319, 3.5327585682583673, 0
3294, 0.847353832455909, 3.545791880042851, 0
3295, 0.852744131402812, 3.4752207577729277, 0
3296, -6.558571721291903, -5.650284362169869, 0
3297, -6.488477708667389, -5.643799443053652, 0
3298, -6.6128348217688, -5.608521901784776, 0
3299, -6.662744155162466, -5.625643984805726, 0
3300, -6.72535210128802, -5.525133693544078, 0
3301, -6.609788009657505, -5.5185416175143684, 0
3302, -6.660556737247037, -5.523856481383118, 0
3303, -6.492632834763948, -5.461627884947899, 0
3304, -6.617579207732263, -5.4484855631335645, 0
3305, -6.557441304228275, -5.477258671485713, 0
3306, -6.511630775175012, -5.525028543490361, 0
3307, -6.538331890818179, -5.414320203021556, 0
3308, -6.4742668119140845, -5.579387020467972, 0
3309, -6.442885351739838, -5.3678455840326, 0
3310, -6.552441180628999, -5.3333854827158085, 0
3311, -6.405557970508458, -5.544903304547712, 0
3312, -6.483037350571919, -5.406632275128003, 0
3313, -6.403440408098946, -5.448855034708424, 0
3314, -6.494799771905068, -5.341511889527961, 0
3315, -6.453521951801335, -5.507894105411893, 0
3316, -6.3756743919164895, -5.497514665795892, 0
3317, -6.3121697338394345, -5.456913988478794, 0
3318, -6.308287739048461, -5.310764361733325, 0
3319, -6.290732991591722, -5.3843570168662325, 0
3320, -6.218934518554627, -5.368687225008676, 0
3321, -6.2124857174934895, -5.260858487938768, 0
3322, -6.196207804780479, -5.315939211025926, 0
3323, -6.1330812611552945, -5.273183667490315, 0
3324, -6.251742374653494, -5.302405594792871, 0
3325, -6.292079335641146, -5.224972577150314, 0
3326, -6.365418062552996, -5.363282271545851, 0
3327, -6.133761425096088, -5.106679266634956, 0
3328, -6.371412932724678, -5.254411297751225, 0
3329, -6.402231678967815, -5.398158535015998, 0
3330, -6.215792503133368, -5.1619820149720885, 0
3331, -6.113840650001925, -5.189851480699932, 0
3332, -6.322881815025339, -5.2635801469283585, 0
3333, -6.381823333302672, -5.1395473861751615, 0
3334, -6.287373807651549, -5.152981220248854, 0
3335, -6.2416970646814915, -5.078859752382352, 0
3336, -6.340204431813789, -5.185677544525749, 0
3337, -6.443185816877419, -5.257553221104284, 0
3338, -6.4048972436927345, -5.310855615134815, 0
3339, -6.238448989795844, -5.212233261446255, 0
3340, -6.040475211398114, -5.184194821981069, 0
3341, -6.034144457626492, -5.081685570681904, 0
3342, -6.080937807658682, -5.137999099382771, 0
3343, -6.017643874362996, -5.134154724286865, 0
3344, -6.159601801461433, -5.15684009990404, 0
3345, -6.191789415848973, -5.1085223779963735, 0
3346, -6.168695515874723, -5.217669302338421, 0
3347, -6.165593540240905, -5.018875945847039, 0
3348, -6.29737431213927, -5.0418446307626965, 0
3349, -6.28858632812415, -5.101099322599204, 0
3350, -6.2177305904093805, -5.03099735843508, 0
3351, 5.65028436216987, -6.558571721291904, 0
3352, 5.643799443053652, -6.48847770866739, 0
3353, 5.608521901784775, -6.612834821768817, 0
3354, 5.6256439848056825, -6.662744155162478, 0
3355, 5.525133693544078, -6.725352101288021, 0
3356, 5.518541617514364, -6.6097880096575015, 0
3357, 5.523856481383105, -6.660556737247028, 0
3358, 5.461627884947895, -6.4926328347639295, 0
3359, 5.448485563133563, -6.617579207732266, 0
3360, 5.4772586714857034, -6.557441304228266, 0
3361, 5.525028543490361, -6.511630775175004, 0
3362, 5.41432020302154, -6.538331890818159, 0
3363, 5.579387020467974, -6.4742668119140845, 0
3364, 5.3678455840325885, -6.442885351739797, 0
3365, 5.3333854827158085, -6.552441180629, 0
3366, 5.544903304547712, -6.405557970508459, 0
3367, 5.4066322751279925, -6.48303735057189, 0
3368, 5.448855034708434, -6.4034404080989065, 0
3369, 5.341511889527974, -6.494799771905057, 0
3370, 5.5078941054118955, -6.453521951801331, 0
3371, 5.497514665795909, -6.375674391916488, 0
3372, 5.456913988478788, -6.3121697338394425, 0
3373, 5.310764361733357, -6.308287739048442, 0
3374, 5.384357016866249, -6.290732991591714, 0
3375, 5.36868722500868, -6.218934518554624, 0
3376, 5.260858487938782, -6.212485717493491, 0
3377, 5.315939211025933, -6.196207804780479, 0
3378, 5.273183667490311, -6.133081261155299, 0
3379, 5.302405594792882, -6.251742374653487, 0
3380, 5.22497257715031, -6.292079335641171, 0
3381, 5.363282271545867, -6.36541806255297, 0
3382, 5.10667926663495, -6.133761425096082, 0
3383, 5.254411297751275, -6.371412932724707, 0
3384, 5.398158535016009, -6.402231678967793, 0
3385, 5.161982014972089, -6.215792503133373, 0
3386, 5.189851480699929, -6.113840650001923, 0
3387, 5.263580146928384, -6.322881815025348, 0
3388, 5.1395473861751615, -6.381823333302673, 0
3389, 5.152981220248793, -6.287373807651601, 0
3390, 5.078859752382344, -6.241697064681461, 0
3391, 5.18567754452574, -6.340204431813796, 0
3392, 5.257553221104267, -6.443185816877439, 0
3393, 5.310855615134872, -6.404897243692808, 0
3394, 5.212233261446263, -6.238448989795856, 0
3395, 5.1841948219810705, -6.040475211398113, 0
3396, 5.081685570681916, -6.034144457626492, 0
3397, 5.137999099382769, -6.080937807658677, 0
3398, 5.134154724286872, -6.017643874362995, 0
3399, 5.156840099904034, -6.159601801461434, 0
3400, 5.108522377996368, -6.191789415848957, 0
3401, 5.217669302338423, -6.1686955158747265, 0
3402, 5.018875945847025, -6.165593540240894, 0
3403, 5.0418446307626965, -6.2973743121392705, 0
3404, 5.101099322599144, -6.288586328124142, 0
3405, 5.030997358435065, -6.217730590409368, 0
3406, -3.896852421546195, -1.5265229716700164, 0
3407, -3.9179247731096476, -1.4816854146206695, 0
3408, -3.9639555836252454, -1.5426250250855633, 0
3409, -3.9254695558806727, -1.6385546903553083, 0
3410, -3.9193993447522963, -1.5804344435746578, 0
3411, -3.87192696731391, -1.6147696836819785, 0
3412, -3.862566660202881, -1.564482369513282, 0
3413, -3.72659557869522, -1.6081459153598219, 0
3414, -1.526522971669763, 3.8968524215461526, 0
3415, -1.4816854146205607, 3.917924773109715, 0
3416, -1.5426250250855957, 3.9639555836251708, 0
3417, -1.6385546903552735, 3.9254695558808184, 0
3418, -1.5804344435745858, 3.919399344752028, 0
3419, -1.6147696836822532, 3.8719269673141183, 0
3420, -1.5644823695134358, 3.8625666602031217, 0
3421, -1.6081459153599946, 3.7265955786953944, 0
3422, 1.5265229716703368, -3.8968524215462472, 0
3423, 1.4816854146208076, -3.9179247731095628, 0
3424, 1.5426250250855233, -3.9639555836253395, 0
3425, 1.6385546903553616, -3.9254695558804835, 0
3426, 1.580434443574754, -3.9193993447526334, 0
3427, 1.6147696836816354, -3.871926967313642, 0
3428, 1.5644823695130883, -3.8625666602025723, 0
3429, 1.6081459153595845, -3.7265955786949885, 0
3430, 3.8968524215461526, 1.526522971669763, 0
3431, 3.917924773109715, 1.4816854146205607, 0
3432, 3.9639555836251708, 1.5426250250855957, 0
3433, 3.9254695558808184, 1.6385546903552735, 0
3434, 3.919399344752028, 1.5804344435745858, 0
3435, 3.8719269673141183, 1.6147696836822532, 0
3436, 3.8625666602031217, 1.5644823695134358, 0
3437, 3.7265955786953944, 1.6081459153599946, 0
3438, -1.0865680162857778, -3.726581554580082, 0
3439, -1.0792596152069764, -3.6587843089330714, 0
3440, -1.1482981665306973, -3.7585902766592305, 0
3441, -1.2844112614072305, -3.739828595841456, 0
3442, -1.2074854466043927, -3.8047127796476743, 0
3443, -1.2139011377677933, -3.7314091200899515, 0
3444, -1.2583276288464618, -3.6103134535023362, 0
3445, -1.2187781285455948, -3.6645011172772493, 0
3446, -1.155113275352019, -3.5961430427597545, 0
3447, -1.286093841001929, -3.6721056128694727, 0
3448, -1.104600582206521, -3.6122231828217637, 0
3449, -1.2053545625892608, -3.6131771060207987, 0
3450, -1.2052785459390967, -3.5307919503855123, 0
3451, -1.3529785515524653, -3.6049166385079574, 0
3452, -1.3899111113641427, -3.7085673495013087, 0
3453, -1.3321040155953827, -3.7071311304291283, 0
3454, -1.3587880419292975, -3.7971838667737745, 0
3455, -1.093487635199969, -3.7854816078503597, 0
3456, -1.2775232194077908, -3.809705423081475, 0
3457, -1.3099399942591612, -3.8683612393949454, 0
3458, -1.1554475727588807, -3.5444700013271686, 0
3459, -1.253934563648935, -3.4697141908694316, 0
3460, -5.525133693544079, 6.725352101288021, 0
3461, -5.6833191115703325, 6.797150188616296, 0
3462, -5.4327639422462735, 6.541094475514452, 0
3463, -5.40821944912728, 6.460822346440077, 0
3464, -5.359420574635545, 6.523218664522953, 0
3465, -5.33110621355752, 6.336803062182682, 0
3466, -5.388268875631127, 6.3872437593295635, 0
3467, -5.411285896521989, 6.312165330702286, 0
3468, -5.306203573630832, 6.422634907651932, 0
3469, -5.484772730004384, 6.284484308312163, 0
3470, -5.473495093040976, 6.341040416006697, 0
3471, -5.3300614263321275, 6.474382102843809, 0
3472, -5.338891882569002, 6.385590400670811, 0
3473, -5.363228736968692, 6.433527361563271, 0
3474, -5.4295208238439905, 6.638610006791922, 0
3475, -5.516366721347609, 6.638925641432575, 0
3476, -5.5528288884391594, 6.590202218805435, 0
3477, -3.7265815545800822, 1.0865680162857778, 0
3478, -3.6587843089330714, 1.0792596152069767, 0
3479, -3.758590276659231, 1.1482981665306973, 0
3480, -3.7398285958414568, 1.2844112614072298, 0
3481, -3.8047127796476747, 1.2074854466043925, 0
3482, -3.7314091200899524, 1.213901137767793, 0
3483, -3.6103134535023376, 1.258327628846463, 0
3484, -3.66450111727725, 1.2187781285455956, 0
3485, -3.596143042759755, 1.1551132753520204, 0
3486, -3.672105612869474, 1.2860938410019294, 0
3487, -3.6122231828217637, 1.1046005822065215, 0
3488, -3.6131771060207996, 1.205354562589262, 0
3489, -3.5307919503855127, 1.2052785459390987, 0
3490, -3.6049166385079596, 1.3529785515524668, 0
3491, -3.7085673495013114, 1.3899111113641425, 0
3492, -3.7071311304291306, 1.3321040155953827, 0
3493, -3.797183866773779, 1.3587880419292966, 0
3494, -3.78548160785036, 1.0934876351999687, 0
3495, -3.8097054230814753, 1.2775232194077903, 0
3496, -3.868361239394946, 1.309939994259161, 0
3497, -3.5444700013271686, 1.155447572758882, 0
3498, -3.469714190869432, 1.2539345636489347, 0
3499, 3.726581554580082, -1.0865680162857778, 0
3500, 3.6587843089330714, -1.0792596152069764, 0
3501, 3.7585902766592305, -1.1482981665306973, 0
3502, 3.739828595841456, -1.28441126140723, 0
3503, 3.804712779647674, -1.2074854466043934, 0
3504, 3.731409120089952, -1.213901137767793, 0
3505, 3.610313453502337, -1.2583276288464627, 0
3506, 3.66450111727725, -1.2187781285455952, 0
3507, 3.5961430427597545, -1.1551132753520204, 0
3508, 3.6721056128694736, -1.2860938410019287, 0
3509, 3.6122231828217632, -1.1046005822065215, 0
3510, 3.6131771060207996, -1.2053545625892619, 0
3511, 3.5307919503855127, -1.2052785459390993, 0
3512, 3.604916638507959, -1.3529785515524668, 0
3513, 3.708567349501309, -1.3899111113641398, 0
3514, 3.7071311304291292, -1.3321040155953812, 0
3515, 3.797183866773774, -1.358788041929296, 0
3516, 3.7854816078503597, -1.0934876351999694, 0
3517, 3.809705423081475, -1.2775232194077915, 0
3518, 3.8683612393949454, -1.3099399942591612, 0
3519, 3.544470001327168, -1.1554475727588822, 0
3520, 3.4697141908694316, -1.2539345636489352, 0
3521, 6.866384598779757, -5.743462160319161, 0
3522, 6.727930360090692, -5.723008941151763, 0
3523, 6.791896070886632, -5.768851671066717, 0
3524, 6.793694429270991, -5.698794383899873, 0
3525, 6.812667464117291, -5.620224091816073, 0
3526, 6.736415891980162, -5.644643449556029, 0
3527, 6.718274159862847, -5.804030506400937, 0
3528, 6.673122492398197, -5.57280436545827, 0
3529, 6.666520633297529, -5.756776290534204, 0
3530, 6.56218789607192, -5.752945438204285, 0
3531, 6.654549760042159, -5.8402678549874345, 0
3532, 6.780204556419087, -5.860146049858571, 0
3533, 6.720993317045172, -5.594429738389116, 0
3534, 6.608097401385081, -5.656989015423365, 0
3535, 6.569913589466685, -5.697681017544738, 0
3536, 6.6269545576889595, -5.712944958988495, 0
3537, 6.524906674674185, -5.617187144957026, 0
3538, 6.673720319515631, -5.666029491296553, 0
3539, 6.646684046699827, -5.619588387715962, 0
3540, 6.587044809646434, -5.555022823248946, 0
3541, 6.803539662823549, -5.8167386147778934, 0
3542, 6.741944980008301, -5.925733462075185, 0
3543, 6.836310833352799, -5.874141813331864, 0
3544, 6.579597560972259, -5.609716852217942, 0
3545, 6.638825055159187, -5.521597815258588, 0
3546, 6.612578781082565, -5.452994749279044, 0
3547, 6.460502634212206, -5.451840225881124, 0
3548, 6.536684363304828, -5.433494875098307, 0
3549, 6.5010937139244795, -5.531246074935069, 0
3550, 6.523363819702433, -5.35929125214919, 0
3551, 6.5614837737293765, -5.4944166556713565, 0
3552, 6.537336340832697, -5.567473434627774, 0
3553, 6.507122732599395, -5.478086430702242, 0
3554, 6.401037830192855, -5.343827697351199, 0
3555, 6.464683430083387, -5.331920579699314, 0
3556, 6.438349191878686, -5.261810457222138, 0
3557, 6.442835509317679, -5.391191590135221, 0
3558, 6.349959114303725, -5.431028383232623, 0
3559, 6.40650387749732, -5.434672661135394, 0
3560, 6.410360351170297, -5.516049999160532, 0
3561, 6.3030008322798885, -5.249733131742807, 0
3562, 6.494037705266113, -5.402853101663916, 0
3563, 6.3636118380877456, -5.485295181640241, 0
3564, 6.376182441267737, -5.575033362368695, 0
3565, 6.45926001933585, -5.502553132242155, 0
3566, 6.372406124128643, -5.236371540960862, 0
3567, 6.353543683055562, -5.16413951798518, 0
3568, 6.348710628091265, -5.300227747782819, 0
3569, 6.254942778056501, -5.339173750186907, 0
3570, 6.338459158032997, -5.365731873703223, 0
3571, 6.29489368386285, -5.30300855298171, 0
3572, 6.224129036006327, -5.264985433922967, 0
3573, 6.2923120439054605, -5.407520192705699, 0
3574, 6.2844843083121615, -5.4847727300043845, 0
3575, 6.199671490443304, -5.318637075922835, 0
3576, 6.1936559049875965, -5.393642368009063, 0
3577, 6.103697231294042, -5.301642276382731, 0
3578, 6.237327846445747, -5.148462069418384, 0
3579, 6.143984112010403, -5.21783936577577, 0
3580, 6.254289073853403, -5.209392506775744, 0
3581, 6.30752762809108, -5.194686664275319, 0
3582, 6.197509804566718, -5.1923722019423435, 0
3583, 6.106299628317517, -5.069653403190828, 0
3584, 6.139781251611804, -5.140023511399899, 0
3585, 6.296805303614476, -5.134552953466493, 0
3586, 6.269792004342017, -5.065541019980852, 0
3587, 6.187456818990691, -5.0441809661824415, 0
3588, 6.0533280920261285, -5.138007122685271, 0
3589, 6.183787652428122, -4.968836154087132, 0
3590, 6.156867490205687, -5.088743774735518, 0
3591, 6.218644024514528, -5.0933317307389085, 0
3592, 6.097063525329987, -5.117198098232137, 0
3593, 5.994634652806612, -5.037819612638547, 0
3594, 6.014608287231498, -5.208772455125388, 0
3595, 6.095565342501827, -5.181433053621336, 0
3596, 6.1318781620122325, -5.0091258067993145, 0
3597, 6.061495687585357, -5.015051123236592, 0
3598, 6.089795851639017, -4.9302344770367394, 0
3599, 5.998152567285527, -5.10304480873029, 0
3600, 6.047789709311641, -5.071980666865961, 0
3601, 5.944039110136252, -5.07325594544192, 0
3602, 5.920575112777923, -4.985916349466692, 0
3603, 6.141756467749779, -4.93744665501065, 0
3604, 1.0865680162857778, 3.7265815545800822, 0
3605, 1.0792596152069767, 3.6587843089330714, 0
3606, 1.1482981665306973, 3.758590276659231, 0
3607, 1.2844112614072298, 3.7398285958414568, 0
3608, 1.2074854466043925, 3.8047127796476747, 0
3609, 1.213901137767793, 3.7314091200899524, 0
3610, 1.258327628846463, 3.6103134535023376, 0
3611, 1.2187781285455956, 3.66450111727725, 0
3612, 1.1551132753520204, 3.596143042759755, 0
3613, 1.2860938410019294, 3.672105612869474, 0
3614, 1.1046005822065215, 3.6122231828217637, 0
3615, 1.205354562589262, 3.6131771060207996, 0
3616, 1.2052785459390987, 3.5307919503855127, 0
3617, 1.3529785515524668, 3.6049166385079596, 0
3618, 1.3899111113641425, 3.7085673495013114, 0
3619, 1.3321040155953827, 3.7071311304291306, 0
3620, 1.3587880419292966, 3.797183866773779, 0
3621, 1.0934876351999687, 3.78548160785036, 0
3622, 1.2775232194077903, 3.8097054230814753, 0
3623, 1.309939994259161, 3.868361239394946, 0
3624, 1.155447572758882, 3.5444700013271686, 0
3625, 1.2539345636489347, 3.469714190869432, 0
3626, 6.65454976004216, 5.840267854987434, 0
3627, 6.752821978865837, 5.740923713537648, 0
3628, 6.793340644301431, 5.6882932155365395, 0
3629, 6.763530762367078, 5.634275521920308, 0
3630, 6.656420902737738, 5.594013001008942, 0
3631, 6.715611713780827, 5.599151200086462, 0
3632, 6.690886389755304, 5.540479939217162, 0
3633, 6.838241999003227, 5.718730044586398, 0
3634, -3.803233406403071, -0.10427497231788213, 0
3635, -3.7569780791080416, -0.1391890931535811, 0
3636, -3.8584906306672604, -0.13526813881270316, 0
3637, -3.9671588320330167, -0.057638762677821524, 0
3638, -4.010759458006088, -0.1671596420556724, 0
3639, -4.467565940022573, -0.12799425452387897, 0
3640, -4.670591043141011, -0.1411645321551284, 0
3641, -4.616291977925707, -0.09769306009411893, 0
3642, -4.569078491581792, -0.13492457560579937, 0
3643, -4.657919168125778, -0.06883519899371396, 0
3644, -5.042401407084889, -0.02999993807254201, 0
3645, -4.873616146259448, -0.13077762036549445, 0
3646, -4.926237439728221, -0.1109619165357297, 0
3647, -5.42026589035567, 0.16715964205567224, 0
3648, -5.228558971341102, 0.1671596420556723, 0
3649, -5.1327055118338185, 0.16715964205567233, 0
3650, -4.990609059499869, -0.008564716063834153, 0
3651, -4.961329361307212, 0.04204959414568992, 0
3652, -0.1042749723178816, 3.803233406403074, 0
3653, -0.13918909315357897, 3.756978079108042, 0
3654, -0.1352681388127025, 3.8584906306672613, 0
3655, -0.05763876267768519, 3.9671588320329434, 0
3656, -0.16715964205567269, 4.010759458006089, 0
3657, -0.12799425452378838, 4.467565940022574, 0
3658, -0.14116453215111027, 4.670591043141012, 0
3659, -0.09769306009482165, 4.616291977922627, 0
3660, -0.13492457560826956, 4.569078491581793, 0
3661, -0.06883519899519336, 4.657919168125903, 0
3662, -0.029999938039620477, 5.042401407085486, 0
3663, -0.13077762036130375, 4.873616146259449, 0
3664, -0.1109619165324774, 4.92623743973219, 0
3665, 0.16715964205567224, 5.42026589035567, 0
3666, 0.1671596420556723, 5.228558971341102, 0
3667, 0.16715964205567233, 5.1327055118338185, 0
3668, -0.008564716041390339, 4.990609059499597, 0
3669, 0.042049594160216835, 4.961329361310965, 0
3670, 0.10427497231788188, -3.803233406403072, 0
3671, 0.13918909315358022, -3.756978079108042, 0
3672, 0.1352681388127028, -3.8584906306672613, 0
3673, 0.05763876267777629, -3.9671588320329936, 0
3674, 0.1671596420556722, -4.010759458006089, 0
3675, 0.12799425452384927, -4.467565940022574, 0
3676, 0.14116453215379693, -4.670591043141012, 0
3677, 0.0976930600943524, -4.616291977924687, 0
3678, 0.13492457560661741, -4.569078491581793, 0
3679, 0.06883519899420515, -4.6579191681258205, 0
3680, 0.029999938061644943, -5.042401407085085, 0
3681, 0.13077762036410742, -4.873616146259449, 0
3682, 0.11096191653465372, -4.926237439729535, 0
3683, -0.16715964205567285, -5.42026589035567, 0
3684, -0.16715964205567285, -5.228558971341102, 0
3685, -0.16715964205567285, -5.1327055118338185, 0
3686, 0.008564716056404211, -4.9906090594997785, 0
3687, -0.04204959415049466, -4.9613293613084535, 0
3688, 3.8032334064030744, 0.1042749723178816, 0
3689, 3.756978079108042, 0.13918909315357864, 0
3690, 3.858490630667261, 0.13526813881270272, 0
3691, 3.967158832032929, 0.05763876267765441, 0
3692, 4.010759458006089, 0.16715964205567263, 0
3693, 4.467565940022575, 0.12799425452377014, 0
3694, 4.670591043141012, 0.14116453215001362, 0
3695, 4.61629197792179, 0.09769306009502314, 0
3696, 4.569078491581792, 0.13492457560894616, 0
3697, 4.657919168125941, 0.06883519899560717, 0
3698, 5.042401407085645, 0.029999938030769432, 0
3699, 4.873616146259449, 0.1307776203601782, 0
3700, 4.926237439733256, 0.11096191653160381, 0
3701, 5.42026589035567, -0.16715964205567332, 0
3702, 5.228558971341102, -0.1671596420556733, 0
3703, 5.1327055118338185, -0.1671596420556733, 0
3704, 4.990609059499521, 0.008564716035356346, 0
3705, 4.961329361311972, -0.042049594164118236, 0
3706, -5.263530007849963, -6.4363956188743, 0
3707, -5.250859694976268, -6.276367455618001, 0
3708, -5.284175700484654, -6.354245314518987, 0
3709, -5.233225967220531, -6.385110276640869, 0
3710, -5.1652303586709145, -6.352289273990651, 0
3711, -5.3496321865371215, -6.280177957040199, 0
3712, -5.145614820807317, -6.243915705819518, 0
3713, -5.219329479709191, -6.327055670760304, 0
3714, -5.171530428701414, -6.295186982642587, 0
3715, -5.2993424653274115, -6.301691807735145, 0
3716, -5.355008558297921, -6.3508863107139115, 0
3717, -5.418010416001961, -6.310537333730487, 0
3718, -5.469397849305111, -6.347054007322543, 0
3719, -5.484772730004384, -6.2844843083121615, 0
3720, -5.413009725813245, -6.373043796118847, 0
3721, -6.4312054525086335, 5.410758189384282, 0
3722, -6.433898314877254, 5.325243015778294, 0
3723, -6.395009731829356, 5.366818404805998, 0
3724, -6.326760401530661, 5.26400428132119, 0
3725, -6.373071064625414, 5.307322121752302, 0
3726, -6.466845622799248, 5.2367276701595316, 0
3727, -6.3891461076987595, 5.243722406611144, 0
3728, -6.3818233333026715, 5.1395473861751615, 0
3729, -6.485542834727679, 5.3313437241751105, 0
3730, -6.431016659969228, 5.273780882355048, 0
3731, -6.292502957067651, 5.174438830436124, 0
3732, -6.342592458739506, 5.206614551057297, 0
3733, -6.396018144352266, 5.503801874659797, 0
3734, -6.394549853088144, 5.450071175850518, 0
3735, -1.0789466714082354, -3.4647706413296016, 0
3736, -1.1397229953135928, -3.4549577848671267, 0
3737, -3.464770641329602, 1.0789466714082356, 0
3738, -3.4549577848671267, 1.1397229953135928, 0
3739, 3.4647706413296016, -1.0789466714082359, 0
3740, 3.4549577848671267, -1.1397229953135932, 0
3741, 1.0789466714082356, 3.464770641329602, 0
3742, 1.1397229953135928, 3.4549577848671267, 0
3743, -5.957286294188942, -5.086232168237749, 0
3744, -5.960155473857934, -4.9124146785217855, 0
3745, -5.990739973660074, -4.999851957770381, 0
3746, -5.993747018454666, -5.050684682120415, 0
3747, -5.9321777958306114, -5.0268399030002024, 0
3748, -5.865216799405547, -4.996485459261427, 0
3749, -5.860573552074879, -4.895600850928016, 0
3750, -5.920587710140103, -4.963373084811908, 0
3751, -5.84318240739059, -4.946950441751542, 0
3752, -6.096655260772189, -5.043554990769379, 0
3753, -6.10327367733927, -4.953417443986222, 0
3754, -6.1199326091367805, -4.999952392948832, 0
3755, -6.2134985593090395, -4.943619403922137, 0
3756, 5.086232168237749, -5.957286294188942, 0
3757, 4.9124146785217855, -5.9601554738579345, 0
3758, 4.999851957770382, -5.990739973660087, 0
3759, 5.050684682120417, -5.9937470184546715, 0
3760, 5.0268399030001945, -5.932177795830614, 0
3761, 4.996485459261428, -5.865216799405546, 0
3762, 4.895600850928018, -5.8605735520748805, 0
3763, 4.963373084811902, -5.920587710140097, 0
3764, 4.946950441751543, -5.843182407390591, 0
3765, 5.0435549907693735, -6.09665526077218, 0
3766, 4.953417443986208, -6.1032736773392475, 0
3767, 4.99995239294882, -6.1199326091367645, 0
3768, 4.943619403922137, -6.21349855930904, 0
3769, -3.9987510464710523, -1.6638696557388728, 0
3770, -3.9529278669880674, -1.822433796415315, 0
3771, -3.994996054499701, -1.7486877584622205, 0
3772, -4.06152073595243, -1.7729483023913077, 0
3773, -4.037151915639482, -1.8633653555407599, 0
3774, -4.067799510133073, -1.823132948025923, 0
3775, -3.890244578953081, -1.737804469263967, 0
3776, -4.010463507541488, -1.8063829660982174, 0
3777, -3.9448094663708777, -1.701294444294845, 0
3778, -3.9402235639819176, -1.7663148187307618, 0
3779, -3.784266300643923, -1.6023685917634356, 0
3780, -3.7457613614718053, -1.6997092059801184, 0
3781, -3.654239134188602, -1.5784245985658059, 0
3782, -3.6633356464349207, -1.5133599860507747, 0
3783, -3.713857952926726, -1.4842432241523114, 0
3784, -3.7161515217132193, -1.5466135189631143, 0
3785, -3.67741772854063, -1.6249328068127953, 0
3786, -1.6638696557388348, 3.9987510464711393, 0
3787, -1.8224337964154094, 3.952927866987864, 0
3788, -1.748687758462272, 3.9949960544996186, 0
3789, -1.7729483023913295, 4.061520735952384, 0
3790, -1.8633653555409295, 4.0371519156394085, 0
3791, -1.8231329480260172, 4.067799510133016, 0
3792, -1.7378044692639187, 3.8902445789529176, 0
3793, -1.806382966098345, 4.010463507541357, 0
3794, -1.701294444294944, 3.944809466370936, 0
3795, -1.7663148187307889, 3.940223563981772, 0
3796, -1.6023685917635242, 3.7842663006441355, 0
3797, -1.6997092059803194, 3.7457613614721232, 0
3798, -1.5784245985657395, 3.654239134188761, 0
3799, -1.5133599860507543, 3.663335646434923, 0
3800, -1.4842432241523862, 3.7138579529268054, 0
3801, -1.5466135189632564, 3.716151521713194, 0
3802, -1.6249328068128228, 3.6774177285407057, 0
3803, 1.6638696557389214, -3.9987510464709413, 0
3804, 1.8224337964151993, -3.952927866988324, 0
3805, 1.748687758462157, -3.9949960544998047, 0
3806, 1.7729483023912815, -4.061520735952488, 0
3807, 1.8633653555405498, -4.037151915639576, 0
3808, 1.8231329480258067, -4.067799510133145, 0
3809, 1.7378044692640346, -3.8902445789532916, 0
3810, 1.806382966098058, -4.010463507541653, 0
3811, 1.7012944442947262, -3.944809466370808, 0
3812, 1.7663148187307323, -3.9402235639821046, 0
3813, 1.6023685917633104, -3.7842663006436434, 0
3814, 1.6997092059798473, -3.7457613614713834, 0
3815, 1.5784245985658956, -3.654239134188389, 0
3816, 1.5133599860508091, -3.6633356464349296, 0
3817, 1.4842432241522252, -3.7138579529266362, 0
3818, 1.5466135189629282, -3.7161515217132544, 0
3819, 1.624932806812759, -3.677417728540532, 0
3820, 3.9987510464711393, 1.6638696557388348, 0
3821, 3.952927866987864, 1.8224337964154094, 0
3822, 3.9949960544996186, 1.748687758462272, 0
3823, 4.061520735952384, 1.7729483023913295, 0
3824, 4.0371519156394085, 1.8633653555409295, 0
3825, 4.067799510133016, 1.8231329480260172, 0
3826, 3.8902445789529176, 1.7378044692639187, 0
3827, 4.010463507541357, 1.806382966098345, 0
3828, 3.944809466370936, 1.701294444294944, 0
3829, 3.940223563981772, 1.7663148187307889, 0
3830, 3.7842663006441355, 1.6023685917635242, 0
3831, 3.7457613614721232, 1.6997092059803194, 0
3832, 3.654239134188761, 1.5784245985657395, 0
3833, 3.663335646434923, 1.5133599860507543, 0
3834, 3.7138579529268054, 1.4842432241523862, 0
3835, 3.716151521713194, 1.5466135189632564, 0
3836, 3.6774177285407057, 1.6249328068128228, 0
3837, -1.2696797328938383, -3.5452850544689176, 0
3838, -1.3311040528141407, -3.5474774533176148, 0
3839, -1.4473891423665317, -3.628895745008952, 0
3840, -1.5274771079929397, -3.806655636253763, 0
3841, -5.2463825842499325, 6.358750412164031, 0
3842, -5.247164020131863, 6.417968904391904, 0
3843, -5.259667643912337, 6.235531376642289, 0
3844, -5.168704993375408, 6.3482936279466795, 0
3845, -5.276276774193833, 6.299647809755477, 0
3846, -5.349286935203575, 6.2465253072606215, 0
3847, -5.204437190266084, 6.284048110200408, 0
3848, -5.135748747551244, 6.150159622712397, 0
3849, -5.186955857169102, 6.208452745243404, 0
3850, -5.362490685147578, 6.296153917796556, 0
3851, -5.251094955082315, 6.147388348003522, 0
3852, -5.0924233826200185, 6.239856221370341, 0
3853, -5.137751999422911, 6.289018571407069, 0
3854, -5.144165266580806, 6.237627321624136, 0
3855, -5.233904362060923, 6.193548684371654, 0
3856, -5.19347740286402, 6.151086156098795, 0
3857, -5.165976046214326, 6.06570152056787, 0
3858, -3.545285054468919, 1.26967973289384, 0
3859, -3.547477453317615, 1.3311040528141436, 0
3860, -3.6288957450089496, 1.4473891423665324, 0
3861, -3.8066556362537654, 1.527477107992936, 0
3862, 3.545285054468919, -1.2696797328938405, 0
3863, 3.547477453317615, -1.3311040528141438, 0
3864, 3.62889574500895, -1.4473891423665326, 0
3865, 3.806655636253762, -1.5274771079929395, 0
3866, 6.725352101288019, -5.525133693544079, 0
3867, 6.468750303854324, -5.664424265101996, 0
3868, 6.472686047896777, -5.585387045521223, 0
3869, 6.42611211870015, -5.564571237457302, 0
3870, 6.1577244099353114, -5.2760298749145935, 0
3871, 6.109006458332922, -4.862638526882902, 0
3872, 5.984087098998107, -4.863664524188664, 0
3873, 6.0020277460688485, -4.94997491026821, 0
3874, 6.0466971360138535, -4.881458146342995, 0
3875, 6.030282760943878, -4.820165947258327, 0
3876, 6.047466858648102, -4.745601535956738, 0
3877, 5.942045197510929, -4.772736580412949, 0
3878, 5.978245962509474, -4.811181937021495, 0
3879, 5.902573116252981, -4.846170414880594, 0
3880, 5.992239457199661, -4.749391993586633, 0
3881, 6.051411442523961, -4.9645567054482385, 0
3882, 5.939263285109214, -4.9180014727255585, 0
3883, 5.862858337734461, -4.933505738667682, 0
3884, 5.971766204047791, -4.991661526307954, 0
3885, 5.786040068842339, -4.736206273733711, 0
3886, 5.894896777316174, -4.895377275516431, 0
3887, 5.810534483925982, -4.857014449891901, 0
3888, 5.859121193302912, -4.775488766661422, 0
3889, 5.752559832829931, -4.924944613567295, 0
3890, 5.897718646526391, -4.687803157400722, 0
3891, 5.80096125087501, -4.796068201147984, 0
3892, 5.66694980729143, -4.828595873785909, 0
3893, 5.753652857475633, -4.834724235560869, 0
3894, 5.853716217500649, -4.82750848021174, 0
3895, 5.899481449850181, -4.740916826695815, 0
3896, 5.843690033142881, -4.716182414756322, 0
3897, 5.826167769135212, -4.617203775231776, 0
3898, 5.796557589503573, -4.673485997543801, 0
3899, 5.664420497684571, -4.5680383370914495, 0
3900, 5.7004921175907, -4.689618819637256, 0
3901, 5.740586261087771, -4.608109283893205, 0
3902, 5.790032883980447, -4.550023087628754, 0
3903, 5.680804373476706, -4.629318689440697, 0
3904, 5.596474641912642, -4.6190346650622365, 0
3905, 5.745060976723962, -4.66092619950332, 0
3906, 5.802718820155499, -4.444656198297929, 0
3907, 5.7252037417017325, -4.544925580582815, 0
3908, 5.657605849087911, -4.458634788408888, 0
3909, 5.678003707110443, -4.512278237694041, 0
3910, 5.581451050037522, -4.5182924158166795, 0
3911, 5.58220951138394, -4.7313774043735135, 0
3912, 5.5240483402867175, -4.611516826996536, 0
3913, 5.56472463326568, -4.572278161100158, 0
3914, 5.731100845617061, -4.461388258384408, 0
3915, 5.776710526127147, -4.49497198200902, 0
3916, 5.6355439863595755, -4.64956017243127, 0
3917, 5.6447142242764565, -4.72002508419836, 0
3918, 5.5925603426800645, -4.679832557659002, 0
3919, 5.839039587999443, -5.020423623717669, 0
3920, 5.871047816258106, -4.982472518372669, 0
3921, 1.26967973289384, 3.545285054468919, 0
3922, 1.3311040528141436, 3.547477453317615, 0
3923, 1.4473891423665324, 3.6288957450089496, 0
3924, 1.527477107992936, 3.8066556362537654, 0
3925, -4.061515733785698, -0.12846895181257287, 0
3926, -4.004442532112049, -0.10623521452030969, 0
3927, -5.076641249377886, -0.10369730158534485, 0
3928, -5.076641249377886, -0.1671596420556724, 0
3929, -5.000849032279261, -0.09510800950326487, 0
3930, -5.330422628275933, -0.1671596420556724, 0
3931, -4.9751286978186675, -0.1444205748677586, 0
3932, -5.324412430848386, 0.16715964205567227, 0
3933, -5.11385715793949, 0.041158192364023787, 0
3934, -5.1270551546454, -0.11540522174873899, 0
3935, -5.110641976525158, -0.04309793388764293, 0
3936, -5.1626563492545, -0.02954407120913478, 0
3937, -5.063093194206312, 0.02067810421583638, 0
3938, -0.1284689518126118, 4.061515733785699, 0
3939, -0.10623521452023892, 4.004442532112012, 0
3940, -0.10369730156780492, 5.076641249377887, 0
3941, -0.16715964205567263, 5.076641249377887, 0
3942, -0.09510800950682335, 5.000849032280743, 0
3943, -0.16715964205567263, 5.330422628275934, 0
3944, -0.1444205748696648, 4.9751286978186675, 0
3945, 0.16715964205567227, 5.324412430848386, 0
3946, 0.04115819239061912, 5.113857157945341, 0
3947, -0.1154052217453045, 5.1270551546456495, 0
3948, -0.043097933862992224, 5.110641976535767, 0
3949, -0.02954407121376613, 5.162656349267326, 0
3950, 0.02067810424279104, 5.06309319421477, 0
3951, 0.12846895181258594, -4.061515733785699, 0
3952, 0.10623521452028609, -4.004442532112037, 0
3953, 0.10369730157953852, -5.076641249377887, 0
3954, 0.16715964205567224, -5.076641249377887, 0
3955, 0.095108009504442, -5.000849032279752, 0
3956, 0.16715964205567224, -5.330422628275934, 0
3957, 0.1444205748683887, -4.9751286978186675, 0
3958, -0.16715964205567285, -5.324412430848386, 0
3959, -0.04115819237282663, -5.113857157941422, 0
3960, 0.11540522174760182, -5.127055154645483, 0
3961, 0.04309793387948068, -5.11064197652867, 0
3962, 0.029544071210668734, -5.162656349258746, 0
3963, -0.02067810422475841, -5.063093194209108, 0
3964, 4.061515733785699, 0.12846895181262058, 0
3965, 4.004442532112004, 0.10623521452022351, 0
3966, 5.076641249377887, 0.10369730156308876, 0
3967, 5.076641249377887, 0.16715964205567246, 0
3968, 5.000849032281141, 0.09510800950777949, 0
3969, 5.330422628275934, 0.1671596420556724, 0
3970, 4.975128697818668, 0.1444205748701771, 0
3971, 5.324412430848386, -0.1671596420556733, 0
3972, 5.113857157946911, -0.04115819239776804, 0
3973, 5.127055154645716, 0.11540522174438081, 0
3974, 5.11064197653862, 0.04309793385636333, 0
3975, 5.162656349270775, 0.029544071215011812, 0
3976, 5.063093194217042, -0.020678104250037375, 0
3977, -5.302689291807631, -6.214938293263948, 0
3978, -5.217996467589283, -6.196060119743502, 0
3979, -5.372805937251829, -6.213994791187176, 0
3980, -5.255410465032011, -6.227627413338192, 0
3981, -5.202533322500984, -6.249265705029088, 0
3982, -5.105228340884862, -6.1041646249600126, 0
3983, -5.301642276382729, -6.103697231294042, 0
3984, -5.147255301772231, -6.1677304672722775, 0
3985, -5.234413728964026, -6.126870781394133, 0
3986, -5.283267665053236, -6.1594956338471745, 0
3987, -5.17746283123648, -6.072040136859034, 0
3988, -5.065848525067303, -6.204087833349581, 0
3989, -5.180695948170357, -6.125673890011962, 0
3990, -5.11523325965882, -6.029386718776518, 0
3991, -5.208772455125387, -6.014608287231498, 0
3992, -5.115144833333529, -6.205149320547013, 0
3993, -4.971043889502449, -6.048153142732069, 0
3994, -5.085725862778796, -5.95782945502539, 0
3995, -5.04565913107943, -6.05813629777582, 0
3996, -4.980969969967112, -5.942789649225657, 0
3997, -5.034575415517896, -6.1340416634832655, 0
3998, -5.036302533438027, -5.9297299281137645, 0
3999, -5.032133028394241, -5.9945778266064895, 0
4000, -4.992602657977327, -5.868327262785906, 0
4001, -4.943619403922138, -6.213498559309039, 0
4002, -4.96164873910321, -6.142349029852962, 0
4003, -5.003346651811556, -6.190774394087354, 0
4004, -4.898085309106464, -6.088442695503648, 0
4005, -4.993528971682162, -6.097962299723757, 0
4006, -4.8171587830898694, -5.879058846752806, 0
4007, -4.8448717056534845, -6.130196074811983, 0
4008, -4.889866608176757, -5.987356291452789, 0
4009, -4.903638251894008, -5.853380721265915, 0
4010, -4.916755092041927, -6.036047465140551, 0
4011, -4.9515562815935965, -5.840403356163487, 0
4012, -6.24082306952297, 5.090428682019627, 0
4013, -6.214027303517618, 5.255788798731704, 0
4014, -5.783739432844924, -4.8969732145853815, 0
4015, -5.792006370756515, -4.718538876663626, 0
4016, -5.768221884372658, -4.806845605723364, 0
4017, -5.755116909026687, -4.855501586287096, 0
4018, -5.821224709985537, -4.844119602245509, 0
4019, -5.9272775411340906, -4.803838315578591, 0
4020, -5.880253004193771, -4.839780743661493, 0
4021, -5.845615945678745, -4.772255179187195, 0
4022, -5.933815181832868, -4.8611247105674344, 0
4023, -6.009237069706232, -4.823501168319378, 0
4024, -5.7969404879075785, -4.767224243938122, 0
4025, -5.881759284692647, -4.682573971535859, 0
4026, -5.98106272757223, -4.760293643547267, 0
4027, -5.9184694227073775, -4.737969438189017, 0
4028, -6.047466858648103, -4.7456015359567365, 0
4029, -5.944921429875704, -4.680578409547407, 0
4030, -6.072724510012134, -4.876538538580316, 0
4031, -5.844555421939284, -4.7197039148486475, 0
4032, -6.056679761985248, -4.831227678219174, 0
4033, -6.130196074811984, -4.844871705653484, 0
4034, -6.11912301853935, -4.902610359570556, 0
4035, -6.0309238862441585, -4.937657815519207, 0
4036, -6.056264172405632, -4.995277490519157, 0
4037, -6.014578022359413, -4.8816248164656475, 0
4038, 4.896973214585381, -5.783739432844925, 0
4039, 4.718538876663628, -5.792006370756513, 0
4040, 4.806845605723365, -5.768221884372658, 0
4041, 4.855501586287096, -5.755116909026688, 0
4042, 4.844119602245508, -5.8212247099855405, 0
4043, 4.8038383155786, -5.927277541134089, 0
4044, 4.839780743661498, -5.880253004193771, 0
4045, 4.7722551791871926, -5.8456159456787535, 0
4046, 4.861124710567441, -5.933815181832864, 0
4047, 4.823501168319388, -6.0092370697062325, 0
4048, 4.7672242439381245, -5.796940487907585, 0
4049, 4.682573971535852, -5.881759284692639, 0
4050, 4.760293643547271, -5.98106272757223, 0
4051, 4.73796943818902, -5.9184694227073695, 0
4052, 4.7456015359567365, -6.047466858648104, 0
4053, 4.680578409547407, -5.9449214298757, 0
4054, 4.876538538580305, -6.072724510012137, 0
4055, 4.719703914848646, -5.844555421939282, 0
4056, 4.831227678219168, -6.056679761985248, 0
4057, 4.844871705653484, -6.130196074811985, 0
4058, 4.902610359570549, -6.11912301853935, 0
4059, 4.937657815519181, -6.0309238862441354, 0
4060, 4.995277490519152, -6.056264172405598, 0
4061, 4.8816248164656315, -6.01457802235944, 0
4062, -4.1071278221248955, -1.8899364107504752, 0
4063, -4.048449956485163, -2.0578685882729557, 0
4064, -4.095858697450752, -1.9802163447208538, 0
4065, -4.1218653133457375, -1.9376193039576508, 0
4066, -4.0522869787528855, -1.928934240813903, 0
4067, -3.876444517388879, -1.6770308763854076, 0
4068, -3.8170218854462514, -1.722477780107335, 0
4069, -3.8323140032978684, -1.83199295633207, 0
4070, -3.8873530694465153, -1.8009353753951376, 0
4071, -3.8367457606740305, -1.775548886065842, 0
4072, -3.7101375320087033, -1.8281918115762488, 0
4073, -3.779316798502519, -1.8505144784928393, 0
4074, -3.8342858361126386, -1.922718592300686, 0
4075, -3.898341167353617, -1.8781771315364229, 0
4076, -3.9722397553539133, -1.912880061409702, 0
4077, -3.76155870015553, -1.773291413411827, 0
4078, -3.946796039432618, -1.8710278993486655, 0
4079, -3.9980363465891697, -1.9918440365625738, 0
4080, -4.0492061817647915, -2.0050320191252506, 0
4081, -3.945008157353538, -2.0845933098651632, 0
4082, -3.907535747039643, -1.9777137984335253, 0
4083, -3.991090634557585, -2.0494066411393157, 0
4084, -3.937636253563056, -2.027169181859176, 0
4085, -3.882730167569813, -2.0634030817384956, 0
4086, -3.815709096672533, -2.0584092041142052, 0
4087, -3.851439940870792, -2.0064744336655003, 0
4088, -3.8864906998646953, -1.9294648067527793, 0
4089, -3.9563805914219525, -1.96175676888884, 0
4090, -3.6594197736964866, -1.712220601577772, 0
4091, -3.6980583818703554, -1.6746881283331514, 0
4092, -1.8899364107504786, 4.107127822124888, 0
4093, -2.0578685882729464, 4.048449956485183, 0
4094, -1.9802163447208492, 4.095858697450761, 0
4095, -1.937619303957647, 4.12186531334574, 0
4096, -1.9289342408139263, 4.0522869787530125, 0
4097, -1.6770308763853614, 3.876444517389137, 0
4098, -1.7224777801067832, 3.8170218854464975, 0
4099, -1.8319929563313782, 3.832314003297172, 0
4100, -1.8009353753951478, 3.8873530694462857, 0
4101, -1.7755488860652728, 3.836745760674156, 0
4102, -1.8281918115762492, 3.7101375320087033, 0
4103, -1.850514478491621, 3.7793167985015863, 0
4104, -1.922718592299867, 3.8342858361109355, 0
4105, -1.878177131536827, 3.8983411673532085, 0
4106, -1.9128800614101027, 3.9722397553537445, 0
4107, -1.7732914134112592, 3.761558700155358, 0
4108, -1.8710278993489233, 3.946796039432359, 0
4109, -1.9918440365625472, 3.9980363465895836, 0
4110, -2.00503201912538, 4.049206181765025, 0
4111, -2.0845933098648812, 3.9450081573534703, 0
4112, -1.9777137984349191, 3.907535747038244, 0
4113, -2.049406641139225, 3.991090634557638, 0
4114, -2.0271691818591457, 3.9376362535634124, 0
4115, -2.063403081737991, 3.88273016756956, 0
4116, -2.0584092041142057, 3.815709096672533, 0
4117, -2.006474433665932, 3.8514399408698803, 0
4118, -1.9294648067535403, 3.886490699863351, 0
4119, -1.9617567688896385, 3.956380591421009, 0
4120, -1.7122206015777723, 3.6594197736964866, 0
4121, -1.6746881283332358, 3.6980583818706014, 0
4122, 1.8899364107504706, -4.107127822124905, 0
4123, 2.0578685882729704, -4.0484499564851335, 0
4124, 1.9802163447208614, -4.09585869745074, 0
4125, 1.9376193039576564, -4.121865313345733, 0
4126, 1.9289342408138739, -4.05228697875273, 0
4127, 1.6770308763854707, -3.8764445173885362, 0
4128, 1.7224777801080629, -3.8170218854459224, 0
4129, 1.8319929563329778, -3.832314003298778, 0
4130, 1.8009353753951274, -3.887353069446813, 0
4131, 1.7755488860665898, -3.8367457606738635, 0
4132, 1.8281918115762488, -3.7101375320087038, 0
4133, 1.8505144784944356, -3.779316798503739, 0
4134, 1.9227185923017585, -3.8342858361148657, 0
4135, 1.8781771315358924, -3.898341167354141, 0
4136, 1.9128800614092043, -3.9722397553541255, 0
4137, 1.7732914134125788, -3.761558700155757, 0
4138, 1.8710278993483433, -3.9467960394329555, 0
4139, 1.9918440365626058, -3.998036346588658, 0
4140, 2.005032019125094, -4.049206181764502, 0
4141, 2.084593309865506, -3.945008157353618, 0
4142, 1.977713798431768, -3.907535747041461, 0
4143, 2.0494066411394254, -3.9910906345575174, 0
4144, 2.027169181859217, -3.937636253562622, 0
4145, 2.0634030817391107, -3.8827301675701205, 0
4146, 2.058409204114205, -3.815709096672533, 0
4147, 2.006474433664945, -3.8514399408719657, 0
4148, 1.929464806751812, -3.8864906998664726, 0
4149, 1.961756768887832, -3.9563805914231764, 0
4150, 1.7122206015777715, -3.6594197736964866, 0
4151, 1.67468812833304, -3.6980583818700277, 0
4152, 4.107127822124888, 1.8899364107504786, 0
4153, 4.048449956485183, 2.0578685882729464, 0
4154, 4.095858697450761, 1.9802163447208492, 0
4155, 4.12186531334574, 1.937619303957647, 0
4156, 4.0522869787530125, 1.9289342408139263, 0
4157, 3.876444517389137, 1.6770308763853614, 0
4158, 3.8170218854464975, 1.7224777801067832, 0
4159, 3.832314003297172, 1.8319929563313782, 0
4160, 3.8873530694462857, 1.8009353753951478, 0
4161, 3.836745760674156, 1.7755488860652728, 0
4162, 3.7101375320087033, 1.8281918115762492, 0
4163, 3.7793167985015863, 1.850514478491621, 0
4164, 3.8342858361109355, 1.922718592299867, 0
4165, 3.8983411673532085, 1.878177131536827, 0
4166, 3.9722397553537445, 1.9128800614101027, 0
4167, 3.761558700155358, 1.7732914134112592, 0
4168, 3.946796039432359, 1.8710278993489233, 0
4169, 3.9980363465895836, 1.9918440365625472, 0
4170, 4.049206181765025, 2.00503201912538, 0
4171, 3.9450081573534703, 2.0845933098648812, 0
4172, 3.907535747038244, 1.9777137984349191, 0
4173, 3.991090634557638, 2.049406641139225, 0
4174, 3.9376362535634124, 2.0271691818591457, 0
4175, 3.88273016756956, 2.063403081737991, 0
4176, 3.815709096672533, 2.0584092041142057, 0
4177, 3.8514399408698803, 2.006474433665932, 0
4178, 3.886490699863351, 1.9294648067535403, 0
4179, 3.956380591421009, 1.9617567688896385, 0
4180, 3.6594197736964866, 1.7122206015777723, 0
4181, 3.6980583818706014, 1.6746881283332358, 0
4182, -1.4068625495920575, -3.590610789075907, 0
4183, -1.4759157236134022, -3.559918595072743, 0
4184, -1.391918965215574, -3.6494467023241817, 0
4185, -1.4445029281829478, -3.7775142161324364, 0
4186, -1.3954338932446417, -3.760280645817433, 0
4187, -1.4670013212308615, -3.703613880383124, 0
4188, -1.457795017712271, -3.8723643710922784, 0
4189, -1.5140326622591866, -3.65133600019091, 0
4190, -1.5830959883021845, -3.634879748536266, 0
4191, -1.545412754400874, -3.7268614365447936, 0
4192, -1.6190523202303257, -3.703320321063889, 0
4193, -1.4756574689347435, -3.8215047275536307, 0
4194, -1.411545205024578, -3.8304892774700994, 0
4195, -1.402961587877528, -3.886447958449604, 0
4196, -1.4979257368347487, -3.758100430264773, 0
4197, -1.6953064033271432, -3.6987258934118574, 0
4198, -1.7639113762438536, -3.8547906829491705, 0
4199, -1.7475483592277317, -3.7688722248418625, 0
4200, -1.7384537571285765, -3.72111855027873, 0
4201, -1.8142202195945751, -3.7415784330130717, 0
4202, -1.8573010372291532, -3.8285066827280483, 0
4203, -1.8002875742533457, -3.8026226676985546, 0
4204, -1.8531404469078574, -3.776429284353574, 0
4205, -1.645257006846723, -3.8328708131015423, 0
4206, -1.5952240216825977, -3.779970536607018, 0
4207, -1.6651967421821776, -3.7639011563662246, 0
4208, -1.7088461464816962, -3.820760374939488, 0
4209, -5.393642368009062, 6.193655904987597, 0
4210, -5.3097487131977985, 6.198057245707607, 0
4211, -5.301642276382729, 6.103697231294043, 0
4212, -5.02804900544161, 6.153450192289521, 0
4213, -5.041844630762697, 6.29737431213927, 0
4214, -5.2133661331007914, 6.097558992384933, 0
4215, -5.208772455125387, 6.0146082872315, 0
4216, -3.5906107890759063, 1.4068625495920575, 0
4217, -3.5599185950727437, 1.4759157236134022, 0
4218, -3.6494467023241843, 1.391918965215576, 0
4219, -3.7775142161324395, 1.4445029281829453, 0
4220, -3.7602806458174363, 1.3954338932446393, 0
4221, -3.703613880383125, 1.4670013212308648, 0
4222, -3.8723643710922806, 1.4577950177122685, 0
4223, -3.6513360001909088, 1.5140326622591855, 0
4224, -3.634879748536267, 1.583095988302184, 0
4225, -3.7268614365447936, 1.5454127544008827, 0
4226, -3.7033203210638823, 1.619052320230326, 0
4227, -3.8215047275536334, 1.4756574689347406, 0
4228, -3.830489277470102, 1.411545205024577, 0
4229, -3.8864479584496054, 1.4029615878775266, 0
4230, -3.758100430264768, 1.4979257368347483, 0
4231, -3.698725893411857, 1.6953064033271434, 0
4232, -3.8547906829491736, 1.7639113762438525, 0
4233, -3.7688722248418642, 1.747548359227731, 0
4234, -3.721118550278731, 1.7384537571285763, 0
4235, -3.741578433013073, 1.814220219594575, 0
4236, -3.8285066827280514, 1.8573010372291543, 0
4237, -3.8026226676985573, 1.800287574253346, 0
4238, -3.776429284353576, 1.8531404469078578, 0
4239, -3.832870813101544, 1.6452570068467205, 0
4240, -3.7799705366070264, 1.595224021682593, 0
4241, -3.7639011563662237, 1.6651967421821727, 0
4242, -3.82076037493949, 1.7088461464816946, 0
4243, 3.5906107890759063, -1.4068625495920577, 0
4244, 3.5599185950727437, -1.4759157236134026, 0
4245, 3.6494467023241826, -1.3919189652155761, 0
4246, 3.777514216132436, -1.444502928182947, 0
4247, 3.7602806458174336, -1.3954338932446406, 0
4248, 3.7036138803831227, -1.4670013212308581, 0
4249, 3.8723643710922784, -1.4577950177122712, 0
4250, 3.6513360001909114, -1.514032662259187, 0
4251, 3.6348797485362665, -1.5830959883021847, 0
4252, 3.7268614365447945, -1.5454127544008662, 0
4253, 3.703320321063896, -1.6190523202303266, 0
4254, 3.8215047275536302, -1.4756574689347433, 0
4255, 3.8304892774701, -1.411545205024577, 0
4256, 3.8864479584496046, -1.4029615878775283, 0
4257, 3.7581004302647765, -1.497925736834746, 0
4258, 3.6987258934118574, -1.6953064033271437, 0
4259, 3.85479068294917, -1.7639113762438539, 0
4260, 3.7688722248418625, -1.7475483592277319, 0
4261, 3.72111855027873, -1.7384537571285767, 0
4262, 3.741578433013072, -1.8142202195945756, 0
4263, 3.8285066827280487, -1.8573010372291536, 0
4264, 3.8026226676985555, -1.800287574253346, 0
4265, 3.7764292843535743, -1.8531404469078578, 0
4266, 3.8328708131015423, -1.6452570068467227, 0
4267, 3.779970536607014, -1.5952240216825988, 0
4268, 3.7639011563662255, -1.6651967421821798, 0
4269, 3.8207603749394874, -1.708846146481696, 0
4270, 5.808867837284935, -4.914296225546325, 0
4271, 5.965310910817394, -4.645808894831896, 0
4272, 5.704994786180315, -4.76424181442271, 0
4273, 5.736749755812598, -4.7248784144363976, 0
4274, 5.88107805804007, -4.6331107283182655, 0
4275, 5.865228283982291, -4.560447323377736, 0
4276, 5.5128669481325465, -4.352306909988507, 0
4277, 1.4068625495920575, 3.5906107890759063, 0
4278, 1.4759157236134022, 3.5599185950727437, 0
4279, 1.391918965215576, 3.6494467023241843, 0
4280, 1.4445029281829453, 3.7775142161324395, 0
4281, 1.3954338932446393, 3.7602806458174363, 0
4282, 1.4670013212308648, 3.703613880383125, 0
4283, 1.4577950177122685, 3.8723643710922806, 0
4284, 1.5140326622591855, 3.6513360001909088, 0
4285, 1.583095988302184, 3.634879748536267, 0
4286, 1.5454127544008827, 3.7268614365447936, 0
4287, 1.619052320230326, 3.7033203210638823, 0
4288, 1.4756574689347406, 3.8215047275536334, 0
4289, 1.411545205024577, 3.830489277470102, 0
4290, 1.4029615878775266, 3.8864479584496054, 0
4291, 1.4979257368347483, 3.758100430264768, 0
4292, 1.6953064033271434, 3.698725893411857, 0
4293, 1.7639113762438525, 3.8547906829491736, 0
4294, 1.747548359227731, 3.7688722248418642, 0
4295, 1.7384537571285763, 3.721118550278731, 0
4296, 1.814220219594575, 3.741578433013073, 0
4297, 1.8573010372291543, 3.8285066827280514, 0
4298, 1.800287574253346, 3.8026226676985573, 0
4299, 1.8531404469078578, 3.776429284353576, 0
4300, 1.6452570068467205, 3.832870813101544, 0
4301, 1.595224021682593, 3.7799705366070264, 0
4302, 1.6651967421821727, 3.7639011563662237, 0
4303, 1.7088461464816946, 3.82076037493949, 0
4304, -5.939497937631247, -0.1671596420556724, 0
4305, -5.18063224158746, 0.09557988745818448, 0
4306, -5.117353226066666, 0.1050456934591425, 0
4307, -5.18063224158746, 0.147414604794416, 0
4308, -5.228910076716714, -0.1671596420556724, 0
4309, -5.168952625210546, 0.0417335495052277, 0
4310, -5.23924083477234, 0.1081728076884025, 0
4311, -5.5334477313943715, -0.1671596420556724, 0
4312, -5.278602882214324, -0.0038692553720654915, 0
4313, -0.1671596420556726, 5.939497937631247, 0
4314, 0.09557988747277182, 5.18063224158746, 0
4315, 0.10504569347064974, 5.117353226080971, 0
4316, 0.14741460480497948, 5.18063224158746, 0
4317, -0.16715964205567263, 5.228910076716716, 0
4318, 0.04173354951965039, 5.168952625215611, 0
4319, 0.10817280769372241, 5.2392408347682276, 0
4320, -0.16715964205567263, 5.5334477313943715, 0
4321, -0.0038692553504520028, 5.27860288220322, 0
4322, 0.16715964205567227, -5.939497937631247, 0
4323, -0.09557988746301062, -5.18063224158746, 0
4324, -0.10504569346295144, -5.117353226071401, 0
4325, -0.14741460479791102, -5.18063224158746, 0
4326, 0.16715964205567224, -5.228910076716716, 0
4327, -0.04173354951000248, -5.168952625212216, 0
4328, -0.10817280769016227, -5.23924083477098, 0
4329, 0.16715964205567224, -5.5334477313943715, 0
4330, 0.0038692553648989048, -5.278602882210623, 0
4331, 5.939497937631247, 0.1671596420556723, 0
4332, 5.18063224158746, -0.09557988747669227, 0
4333, 5.117353226084816, -0.10504569347374342, 0
4334, 5.18063224158746, -0.14741460480781876, 0
4335, 5.228910076716716, 0.1671596420556724, 0
4336, 5.168952625216969, -0.0417335495235284, 0
4337, 5.239240834767123, -0.10817280769515249, 0
4338, 5.5334477313943715, 0.16715964205567235, 0
4339, 5.278602882200221, 0.003869255344633671, 0
4340, -5.082239301064095, -6.271051721446471, 0
4341, -4.846614404579333, -6.041750164120417, 0
4342, -4.773681444769765, -6.013566503755538, 0
4343, -4.742352397255921, -5.9291594281965745, 0
4344, -4.737673278671933, -5.97891383695793, 0
4345, -4.9144387678425865, -5.922186523947215, 0
4346, -4.850437396669742, -5.9352722373851625, 0
4347, -4.825593817409397, -5.987687845382939, 0
4348, -4.838102973158721, -5.791132261299803, 0
4349, -6.29002860803072, 5.118060120052946, 0
4350, -6.29737431213927, 5.041844630762697, 0
4351, -6.120322731743131, 5.022701189428156, 0
4352, -6.27231798883158, 5.233493484019155, 0
4353, -6.2061472778209925, 5.169660763475755, 0
4354, -6.155898478598261, 5.100465515472932, 0
4355, -6.136566171895668, 5.2194513748714755, 0
4356, -6.201302326406334, 5.120336435687653, 0
4357, -6.191473383117962, 5.037170864407565, 0
4358, -6.2134985593090395, 4.9436194039221375, 0
4359, -6.066083222215575, 4.926534694179226, 0
4360, -6.146013365860174, 4.958538681036495, 0
4361, -6.05288570010072, 5.10057217679625, 0
4362, -6.103697231294043, 5.301642276382729, 0
4363, -6.163094971895835, 5.288900034262949, 0
4364, -6.185938819109743, 5.214934172922062, 0
4365, -6.146647776552308, 5.160025945899563, 0
4366, -6.104415333568557, 5.122967954354177, 0
4367, -6.049761962978155, 5.178238692877397, 0
4368, -6.0864348814648395, 5.213018381414605, 0
4369, -6.016546189051029, 5.138006682602812, 0
4370, -5.972540783135646, 5.058932950630493, 0
4371, -5.694245897279836, -4.804573738409205, 0
4372, -5.690792730156827, -4.702090432467527, 0
4373, -5.733539107473707, -4.7514879382990065, 0
4374, -5.672690878718175, -4.754000203032877, 0
4375, -5.797506492310255, -4.602290049393425, 0
4376, -5.822505470693023, -4.660406129542928, 0
4377, -5.749694421202555, -4.659273105803537, 0
4378, -5.861463445158716, -4.609213354670405, 0
4379, -5.632568105993346, -4.560070936322901, 0
4380, -5.8349790439325835, -4.554997864907463, 0
4381, -5.732642415751258, -4.5124021763173845, 0
4382, -5.790146352899323, -4.51847861387894, 0
4383, -5.767436380874028, -4.4582623880392775, 0
4384, -5.679019632740356, -4.623972017736186, 0
4385, -5.6697281474375, -4.4337187286202395, 0
4386, -5.722718635181109, -4.429523677868932, 0
4387, -5.690903480111304, -4.364421851950238, 0
4388, -5.5164937468991075, -4.349010505023715, 0
4389, -5.60532836679128, -4.338272311303848, 0
4390, -5.63752825711439, -4.385995519962044, 0
4391, -5.563036520739238, -4.4709813087641646, 0
4392, -5.611474902585868, -4.438298875483925, 0
4393, -5.645252343125647, -4.495160889183002, 0
4394, -5.553577166590632, -4.404725380687337, 0
4395, -5.466605054222008, -4.450945602695418, 0
4396, -5.51843981255179, -4.443545157927966, 0
4397, -5.502765049369305, -4.518987490522131, 0
4398, -5.617912710618172, -4.6731277005752325, 0
4399, -5.695447133382152, -4.5631963834118, 0
4400, -5.752817034328512, -4.566191201550624, 0
4401, -5.567869651905566, -4.538887600857792, 0
4402, -5.580156163431329, -4.610755108788588, 0
4403, -5.498338945107461, -4.6332892053301045, 0
4404, -5.520651874835129, -4.576916675303296, 0
4405, -5.433830526302187, -4.518969554775757, 0
4406, -5.58220951138394, -4.731377404373512, 0
4407, -5.632577255478813, -4.722182789178043, 0
4408, -5.729157670093497, -4.611990831445883, 0
4409, 4.804573738409205, -5.694245897279837, 0
4410, 4.702090432467529, -5.690792730156827, 0
4411, 4.751487938299002, -5.733539107473715, 0
4412, 4.754000203032878, -5.672690878718175, 0
4413, 4.602290049393422, -5.797506492310237, 0
4414, 4.6604061295429275, -5.822505470693009, 0
4415, 4.659273105803554, -5.749694421202553, 0
4416, 4.6092133546703975, -5.861463445158707, 0
4417, 4.560070936322881, -5.63256810599335, 0
4418, 4.5549978649074605, -5.834979043932567, 0
4419, 4.512402176317391, -5.732642415751255, 0
4420, 4.518478613878924, -5.7901463528993204, 0
4421, 4.458262388039275, -5.7674363808740035, 0
4422, 4.623972017736179, -5.679019632740356, 0
4423, 4.433718728620209, -5.669728147437372, 0
4424, 4.42952367786892, -5.722718635181033, 0
4425, 4.364421851950235, -5.690903480111231, 0
4426, 4.349010505023548, -5.516493746899006, 0
4427, 4.3382723113037684, -5.60532836679121, 0
4428, 4.385995519961988, -5.637528257114291, 0
4429, 4.470981308764162, -5.563036520738932, 0
4430, 4.438298875483908, -5.6114749025856545, 0
4431, 4.495160889182952, -5.645252343125481, 0
4432, 4.404725380687293, -5.5535771665904, 0
4433, 4.4509456026952705, -5.466605054221842, 0
4434, 4.443545157927886, -5.518439812551587, 0
4435, 4.518987490521841, -5.5027650493690095, 0
4436, 4.673127700575228, -5.617912710618173, 0
4437, 4.563196383411798, -5.6954471333821495, 0
4438, 4.566191201550624, -5.752817034328501, 0
4439, 4.538887600857966, -5.567869651905316, 0
4440, 4.610755108788596, -5.58015616343149, 0
4441, 4.6332892053301045, -5.498338945107461, 0
4442, 4.576916675303082, -5.520651874834573, 0
4443, 4.518969554775926, -5.433830526301985, 0
4444, 4.731377404373512, -5.582209511383942, 0
4445, 4.7221827891780395, -5.632577255478815, 0
4446, 4.611990831445895, -5.729157670093503, 0
4447, -4.165275035245058, -2.00124419576023, 0
4448, -4.1418095034988776, -2.1016575967813056, 0
4449, -4.114908067326837, -2.0424224988122646, 0
4450, -4.17240434918053, -2.0558587614366326, 0
4451, -4.2170742376083945, -2.1158162593968033, 0
4452, -4.160273725426073, -2.286573469432276, 0
4453, -4.206806103685288, -2.2072263158881493, 0
4454, -4.232270140484157, -2.1638049625569757, 0
4455, -4.17039018378023, -2.1568539584007524, 0
4456, -4.044912015433804, -2.1868288435665755, 0
4457, -4.1039310327889735, -2.1562687918519816, 0
4458, -4.009594764489335, -2.1214101702640122, 0
4459, -4.1366066728750654, -2.2194735103110363, 0
4460, -4.084527087083666, -2.102368261559066, 0
4461, -3.9655488556393927, -2.1874316242825915, 0
4462, -4.005846415732417, -2.2682312602383, 0
4463, -4.083223515274715, -2.276026286068647, 0
4464, -3.9003106916025705, -2.158156395931415, 0
4465, -3.94885996581995, -2.1372944922433743, 0
4466, -3.953988509172991, -2.243645875284029, 0
4467, -4.005464692624488, -2.217972930456241, 0
4468, -4.107052881394788, -2.3886564805344457, 0
4469, -4.03729375072083, -2.344008483271891, 0
4470, -4.083693572910552, -2.222998016817362, 0
4471, -4.11534696968168, -2.3280657784022845, 0
4472, -4.195622952139031, -2.3699175566334825, 0
4473, -3.996601266151158, -2.316481860798802, 0
4474, -3.984406563766769, -2.399422724273646, 0
4475, -4.047657137603017, -2.4046371629932706, 0
4476, -3.7622339730007184, -1.9435880124217264, 0
4477, -3.788759194641979, -1.90035201481849, 0
4478, -2.0012441957602283, 4.165275035245063, 0
4479, -2.1016575967812874, 4.141809503498884, 0
4480, -2.0424224988122535, 4.114908067326843, 0
4481, -2.055858761436623, 4.172404349180535, 0
4482, -2.1158162593968073, 4.217074237608388, 0
4483, -2.2865734694322666, 4.160273725426093, 0
4484, -2.207226315888145, 4.206806103685296, 0
4485, -2.163804962556973, 4.232270140484161, 0
4486, -2.1568539584007564, 4.170390183780213, 0
4487, -2.1868288435664613, 4.044912015433867, 0
4488, -2.1562687918519208, 4.103931032789007, 0
4489, -2.121410170264012, 4.009594764489135, 0
4490, -2.2194735103110377, 4.136606672875011, 0
4491, -2.1023682615590285, 4.084527087083691, 0
4492, -2.1874316242827585, 3.965548855639476, 0
4493, -2.2682312602384322, 4.005846415732779, 0
4494, -2.2760262860686424, 4.083223515274913, 0
4495, -2.158156395931359, 3.9003106916026873, 0
4496, -2.137294492243261, 3.948859965820255, 0
4497, -2.2436458752843635, 3.953988509173076, 0
4498, -2.217972930456338, 4.005464692624671, 0
4499, -2.388656480534498, 4.1070528813948615, 0
4500, -2.344008483272411, 4.037293750721176, 0
4501, -2.222998016817361, 4.083693572910502, 0
4502, -2.328065778402343, 4.1153469696817675, 0
4503, -2.369917556633591, 4.195622952139345, 0
4504, -2.3164818607990747, 3.9966012661515005, 0
4505, -2.3994227242736463, 3.984406563766769, 0
4506, -2.4046371629936507, 4.047657137603328, 0
4507, -1.9435880124217269, 3.7622339730007184, 0
4508, -1.9003520148174435, 3.7887591946403454, 0
4509, 2.0012441957602336, -4.165275035245051, 0
4510, 2.1016575967813322, -4.141809503498868, 0
4511, 2.0424224988122806, -4.114908067326828, 0
4512, 2.0558587614366473, -4.172404349180523, 0
4513, 2.115816259396799, -4.217074237608404, 0
4514, 2.2865734694322906, -4.160273725426044, 0
4515, 2.207226315888157, -4.206806103685276, 0
4516, 2.1638049625569815, -4.232270140484153, 0
4517, 2.1568539584007476, -4.170390183780255, 0
4518, 2.18682884356674, -4.044912015433714, 0
4519, 2.1562687918520695, -4.103931032788926, 0
4520, 2.121410170264019, -4.009594764489582, 0
4521, 2.219473510311036, -4.136606672875143, 0
4522, 2.1023682615591213, -4.08452708708363, 0
4523, 2.1874316242823815, -3.965548855639282, 0
4524, 2.26823126023813, -4.005846415731933, 0
4525, 2.2760262860686473, -4.08322351527445, 0
4526, 2.15815639593149, -3.900310691602418, 0
4527, 2.13729449224351, -3.9488599658195622, 0
4528, 2.2436458752835944, -3.9539885091728753, 0
4529, 2.2179729304561215, -4.005464692624242, 0
4530, 2.3886564805343675, -4.107052881394678, 0
4531, 2.344008483271209, -4.037293750720378, 0
4532, 2.2229980168173604, -4.083693572910624, 0
4533, 2.3280657784022014, -4.115346969681556, 0
4534, 2.3699175566333386, -4.195622952138597, 0
4535, 2.3164818607984485, -3.9966012661507095, 0
4536, 2.3994227242736454, -3.9844065637667696, 0
4537, 2.40463716299277, -4.047657137602601, 0
4538, 1.9435880124217264, -3.7622339730007193, 0
4539, 1.9003520148198607, -3.7887591946441166, 0
4540, 4.165275035245063, 2.0012441957602283, 0
4541, 4.141809503498884, 2.1016575967812874, 0
4542, 4.114908067326843, 2.0424224988122535, 0
4543, 4.172404349180535, 2.055858761436623, 0
4544, 4.217074237608388, 2.1158162593968073, 0
4545, 4.160273725426093, 2.2865734694322666, 0
4546, 4.206806103685296, 2.207226315888145, 0
4547, 4.232270140484161, 2.163804962556973, 0
4548, 4.170390183780213, 2.1568539584007564, 0
4549, 4.044912015433867, 2.1868288435664613, 0
4550, 4.103931032789007, 2.1562687918519208, 0
4551, 4.009594764489135, 2.121410170264012, 0
4552, 4.136606672875011, 2.2194735103110377, 0
4553, 4.084527087083691, 2.1023682615590285, 0
4554, 3.965548855639476, 2.1874316242827585, 0
4555, 4.005846415732779, 2.2682312602384322, 0
4556, 4.083223515274913, 2.2760262860686424, 0
4557, 3.9003106916026873, 2.158156395931359, 0
4558, 3.948859965820255, 2.137294492243261, 0
4559, 3.953988509173076, 2.2436458752843635, 0
4560, 4.005464692624671, 2.217972930456338, 0
4561, 4.1070528813948615, 2.388656480534498, 0
4562, 4.037293750721176, 2.344008483272411, 0
4563, 4.083693572910502, 2.222998016817361, 0
4564, 4.1153469696817675, 2.328065778402343, 0
4565, 4.195622952139345, 2.369917556633591, 0
4566, 3.9966012661515005, 2.3164818607990747, 0
4567, 3.984406563766769, 2.3994227242736463, 0
4568, 4.047657137603328, 2.4046371629936507, 0
4569, 3.7622339730007184, 1.9435880124217269, 0
4570, 3.7887591946403454, 1.9003520148174435, 0
4571, -1.5541337950242389, -3.9047264552722125, 0
4572, -1.9266291453743456, -3.7992157697987303, 0
4573, -1.988107301876234, -3.964366266513326, 0
4574, -1.9754178850159265, -3.8750719350781413, 0
4575, -1.9684364656414557, -3.8259442893892364, 0
4576, -1.9123193640256217, -3.8620373696298507, 0
4577, -1.8347458764521793, -3.927419324753017, 0
4578, -1.862585194590098, -3.881739595387839, 0
4579, -1.9143429943543087, -3.93976849742646, 0
4580, -1.961029657909635, -3.9226654116928685, 0
4581, -1.9166656941670799, -4.055704999666913, 0
4582, -1.9361338608260077, -3.9973234518425613, 0
4583, -2.008424875233442, -4.053866674130398, 0
4584, -1.8571391992132835, -4.003418289946921, 0
4585, -1.8540481503577806, -4.066965052198861, 0
4586, -1.8952396542213803, -4.116293242125869, 0
4587, -1.7782625645222063, -4.049858914996517, 0
4588, -1.9658699847125742, -4.110531660665127, 0
4589, -2.0558293281895708, -4.133778649510229, 0
4590, -1.9980478160572874, -4.17169469609214, 0
4591, -2.015644552719545, -4.1036002479026585, 0
4592, -1.7185228029729889, -3.9561919497399316, 0
4593, -1.6891288653624423, -3.89023067340634, 0
4594, -1.63807897642594, -3.9525096990812476, 0
4595, -1.7911600754072172, -3.9815606240130332, 0
4596, -1.7309134266939106, -4.014173510514925, 0
4597, -1.6654904446610155, -4.011954643022859, 0
4598, -1.530950864901472, -3.991282990842814, 0
4599, -1.5795748181845468, -3.9576605892671903, 0
4600, -5.037387066349916, 6.213676305555507, 0
4601, -5.086378433837207, 6.181624546827826, 0
4602, -5.079781109946769, 6.082490794578905, 0
4603, -5.1278657915951005, 6.0997001563381374, 0
4604, -5.112357211726037, 6.020080212525461, 0
4605, -5.092542344908921, 5.950516782270303, 0
4606, -4.92253602318709, 5.973535578478326, 0
4607, -5.005057166839755, 5.943695134206149, 0
4608, -5.032809810067083, 6.018266374722602, 0
4609, -4.993299456448009, 5.868700803759339, 0
4610, -5.046972032582647, 5.970545850787797, 0
4611, -4.977464887487467, 5.996413825977925, 0
4612, -4.913214072556113, 6.073295900253621, 0
4613, -5.008824008208995, 6.085097400377133, 0
4614, -4.957634544535425, 6.136375037175965, 0
4615, -4.978185142628634, 6.194964158501398, 0
4616, -4.872012102213073, 5.863131918246535, 0
4617, -4.947757210028215, 5.914259837356252, 0
4618, -4.933572141194493, 5.845958488688089, 0
4619, -4.900610871848087, 5.779684551695928, 0
4620, -4.774521317620767, 5.783095925852746, 0
4621, -4.8370425943362685, 5.762040871391192, 0
4622, -4.80370642034675, 5.695231421318815, 0
4623, -4.822938582499595, 5.823513609720207, 0
4624, -4.725352076922936, 5.891205794762226, 0
4625, -4.802796764429525, 5.898664224944644, 0
4626, -4.764823850298089, 5.843921657625402, 0
4627, -4.659244117941185, 5.795903143446869, 0
4628, -4.705421646357328, 5.8344511438342375, 0
4629, -4.639752204136166, 5.866185508514711, 0
4630, -4.574571081274222, 5.8102642600421905, 0
4631, -4.666861266954289, 5.932377562735274, 0
4632, -4.581634877747202, 5.867978569119955, 0
4633, -4.757729322503257, 5.960819402840428, 0
4634, -4.864355790742422, 5.933398105535899, 0
4635, -4.849591352237818, 6.017035073904283, 0
4636, -4.694277845476162, 5.692189577571442, 0
4637, -4.497578394271457, 5.73643800391521, 0
4638, -4.745601535956737, 6.047466858648103, 0
4639, -4.7909812986080205, 6.009646055986131, 0
4640, -4.813917982942326, 5.958289718740051, 0
4641, -4.901951534805668, 6.021927791051144, 0
4642, -4.844871705653485, 6.130196074811985, 0
4643, -4.749543880334247, 5.673861704050306, 0
4644, -4.705414815264957, 5.612282703096502, 0
4645, -4.738750023066629, 5.733802595998223, 0
4646, -4.684890398524676, 5.746792421464114, 0
4647, -4.59337177286854, 5.702949950386186, 0
4648, -4.519841275929366, 5.790280852003188, 0
4649, -4.564401521264418, 5.753178599129716, 0
4650, -4.444656198297929, 5.8027188201555, 0
4651, -4.621648962869009, 5.752728188260777, 0
4652, -4.855924042017479, 6.073978116128705, 0
4653, -4.721836659254023, 5.784372698109383, 0
4654, -4.638072427364555, 5.6436264419064655, 0
4655, -4.498329116285849, 5.584831809379078, 0
4656, -4.560772934642166, 5.63188363792546, 0
4657, -4.609699443317884, 5.570106076770008, 0
4658, -4.49018879630958, 5.660596456202182, 0
4659, -4.633289205330106, 5.498338945107461, 0
4660, -4.553836880349456, 5.57612727569848, 0
4661, -4.513847973649428, 5.5024582621903555, 0
4662, -4.5745240287130695, 5.517786826799587, 0
4663, -4.536616424187057, 5.694353569969453, 0
4664, -4.384728515610512, 5.610945941797575, 0
4665, -4.434545410760443, 5.70429882788584, 0
4666, -4.433054512979153, 5.645125828263512, 0
4667, -4.362858193364261, 5.697480019648001, 0
4668, -4.337400473347635, 5.645015170359897, 0
4669, -4.290803441202423, 5.5303758189233685, 0
4670, -4.268550611035614, 5.607586858212945, 0
4671, -4.327998967368761, 5.582046828472944, 0
4672, -4.404058458019163, 5.502870684863955, 0
4673, -4.349955472501118, 5.52701821604037, 0
4674, -4.327427384778906, 5.40386049304177, 0
4675, -4.3170138866983345, 5.469404624071666, 0
4676, -4.376268000142317, 5.4452194772729205, 0
4677, -4.1829543978049415, 5.414506264735701, 0
4678, -4.452890962387154, 5.443807510980954, 0
4679, -4.373379138486181, 5.357036520899417, 0
4680, -4.237882643868458, 5.4715067954407, 0
4681, -4.232594909968526, 5.555411901552013, 0
4682, -4.161314497395166, 5.534143177602319, 0
4683, -4.459073886089161, 5.534787656079303, 0
4684, -4.437287814356076, 5.587887140727182, 0
4685, -4.519933081161174, 5.4351315220305345, 0
4686, -4.434503618350259, 5.333207001447533, 0
4687, -4.288005611312244, 5.309252560117805, 0
4688, -4.422245657922948, 5.392073591917371, 0
4689, -4.320591235517025, 5.351191807487466, 0
4690, -4.247768550203103, 5.374144316896217, 0
4691, -4.206833592033008, 5.511669242196347, 0
4692, -4.133288724215648, 5.467298314642444, 0
4693, -4.1844356489889085, 5.46565804186491, 0
4694, -4.073052724595503, 5.36087127991655, 0
4695, -4.0592275929885, 5.453960451868509, 0
4696, -4.119682356530413, 5.404739477559171, 0
4697, -4.165932166682559, 5.314950562162878, 0
4698, -4.126075990863644, 5.351226828049204, 0
4699, -4.082746665400464, 5.263588747202638, 0
4700, -4.273806971483405, 5.425971315915811, 0
4701, -4.0274730062373525, 5.401673216541089, 0
4702, -3.9796980269223647, 5.30244448340617, 0
4703, -3.956608360776084, 5.37467661980599, 0
4704, -4.0179295034971, 5.345152748720337, 0
4705, -4.194766559526571, 5.361253499264244, 0
4706, -3.904726455272212, 1.5541337950242344, 0
4707, -3.7992157697987308, 1.9266291453743456, 0
4708, -3.9643662665133266, 1.988107301876234, 0
4709, -3.8750719350781417, 1.9754178850159265, 0
4710, -3.825944289389237, 1.9684364656414557, 0
4711, -3.8620373696298502, 1.9123193640256233, 0
4712, -3.9274193247530276, 1.834745876452181, 0
4713, -3.8817395953878453, 1.8625851945900986, 0
4714, -3.9397684974264546, 1.9143429943543153, 0
4715, -3.922665411692868, 1.9610296579096407, 0
4716, -4.0557049996669114, 1.9166656941670717, 0
4717, -3.9973234518425604, 1.9361338608260057, 0
4718, -4.053866674130409, 2.0084248752334437, 0
4719, -4.003418289946916, 1.8571391992132933, 0
4720, -4.066965052198856, 1.854048150357772, 0
4721, -4.116293242125872, 1.8952396542213699, 0
4722, -4.04985891499653, 1.778262564522201, 0
4723, -4.1105316606651225, 1.9658699847125607, 0
4724, -4.1337786495102415, 2.0558293281895343, 0
4725, -4.171694696092111, 1.9980478160572586, 0
4726, -4.103600247902664, 2.015644552719524, 0
4727, -3.956191949739937, 1.7185228029729998, 0
4728, -3.890230673406346, 1.6891288653624406, 0
4729, -3.9525096990812627, 1.6380789764259533, 0
4730, -3.981560624013046, 1.7911600754072203, 0
4731, -4.01417351051493, 1.7309134266939132, 0
4732, -4.011954643022863, 1.6654904446610284, 0
4733, -3.991282990842815, 1.5309508649014718, 0
4734, -3.9576605892671872, 1.5795748181845557, 0
4735, 3.9047264552722125, -1.5541337950242409, 0
4736, 3.7992157697987308, -1.926629145374346, 0
4737, 3.9643662665133244, -1.9881073018762354, 0
4738, 3.8750719350781404, -1.9754178850159272, 0
4739, 3.825944289389236, -1.9684364656414564, 0
4740, 3.862037369629851, -1.9123193640256222, 0
4741, 3.9274193247530187, -1.8347458764521793, 0
4742, 3.88173959538784, -1.862585194590098, 0
4743, 3.9397684974264604, -1.914342994354309, 0
4744, 3.922665411692867, -1.961029657909635, 0
4745, 4.055704999666913, -1.916665694167084, 0
4746, 3.997323451842561, -1.9361338608260101, 0
4747, 4.053866674130395, -2.0084248752334455, 0
4748, 4.003418289946922, -1.8571391992132857, 0
4749, 4.066965052198864, -1.8540481503577846, 0
4750, 4.1162932421258684, -1.8952396542213863, 0
4751, 4.0498589149965145, -1.7782625645222088, 0
4752, 4.11053166066513, -1.9658699847125822, 0
4753, 4.1337786495102256, -2.055829328189586, 0
4754, 4.171694696092153, -1.9980478160572999, 0
4755, 4.103600247902658, -2.0156445527195546, 0
4756, 3.956191949739931, -1.7185228029729862, 0
4757, 3.8902306734063385, -1.6891288653624423, 0
4758, 3.9525096990812445, -1.6380789764259371, 0
4759, 3.981560624013035, -1.7911600754072234, 0
4760, 4.014173510514925, -1.7309134266939101, 0
4761, 4.011954643022859, -1.6654904446610124, 0
4762, 3.9912829908428145, -1.5309508649014725, 0
4763, 3.9576605892671917, -1.579574818184545, 0
4764, 5.570368642041996, -4.425709593517944, 0
4765, 1.5541337950242344, 3.904726455272212, 0
4766, 1.9266291453743456, 3.7992157697987308, 0
4767, 1.988107301876234, 3.9643662665133266, 0
4768, 1.9754178850159265, 3.8750719350781417, 0
4769, 1.9684364656414557, 3.825944289389237, 0
4770, 1.9123193640256233, 3.8620373696298502, 0
4771, 1.834745876452181, 3.9274193247530276, 0
4772, 1.8625851945900986, 3.8817395953878453, 0
4773, 1.9143429943543153, 3.9397684974264546, 0
4774, 1.9610296579096407, 3.922665411692868, 0
4775, 1.9166656941670717, 4.0557049996669114, 0
4776, 1.9361338608260057, 3.9973234518425604, 0
4777, 2.0084248752334437, 4.053866674130409, 0
4778, 1.8571391992132933, 4.003418289946916, 0
4779, 1.854048150357772, 4.066965052198856, 0
4780, 1.8952396542213699, 4.116293242125872, 0
4781, 1.778262564522201, 4.04985891499653, 0
4782, 1.9658699847125607, 4.1105316606651225, 0
4783, 2.0558293281895343, 4.1337786495102415, 0
4784, 1.9980478160572586, 4.171694696092111, 0
4785, 2.015644552719524, 4.103600247902664, 0
4786, 1.7185228029729998, 3.956191949739937, 0
4787, 1.6891288653624406, 3.890230673406346, 0
4788, 1.6380789764259533, 3.9525096990812627, 0
4789, 1.7911600754072203, 3.981560624013046, 0
4790, 1.7309134266939132, 4.01417351051493, 0
4791, 1.6654904446610284, 4.011954643022863, 0
4792, 1.5309508649014718, 3.991282990842815, 0
4793, 1.5795748181845557, 3.9576605892671872, 0
4794, -5.216573618781971, 0.0016100711824148725, 0
4795, -5.252082591103818, 0.049749039542107014, 0
4796, -5.240490763390992, -0.08147740365526843, 0
4797, -5.355041868243312, 0.06730622424424942, 0
4798, -5.298111887663296, 0.09048966242713863, 0
4799, -5.330190970475647, -0.07736553915718393, 0
4800, -5.279666352496323, -0.13039605285882455, 0
4801, -5.189693241128664, -0.11823541803752588, 0
4802, -5.284211565355625, -0.05478578960607025, 0
4803, 0.0016100711952777083, 5.216573618776881, 0
4804, 0.04974903955291113, 5.252082591088411, 0
4805, -0.08147740364809312, 5.2404907633926525, 0
4806, 0.06730622426053316, 5.35504186819757, 0
4807, 0.09048966242155751, 5.298111887632676, 0
4808, -0.07736553913730862, 5.330190970496568, 0
4809, -0.13039605285548655, 5.279666352496324, 0
4810, -0.11823541803373239, 5.189693241130651, 0
4811, -0.05478578959161436, 5.284211565363629, 0
4812, -0.0016100711866783163, -5.21657361878027, 0
4813, -0.049749039545685284, -5.252082591098692, 0
4814, 0.08147740365288907, -5.240490763391527, 0
4815, -0.06730622424964575, -5.355041868228126, 0
4816, -0.09048966242526349, -5.298111887653128, 0
4817, 0.0773655391505918, -5.330190970482571, 0
4818, 0.13039605285771003, -5.279666352496324, 0
4819, 0.11823541803627677, -5.189693241129318, 0
4820, 0.054785789601276794, -5.284211565358264, 0
4821, 5.216573618775504, -0.001610071198739401, 0
4822, 5.252082591084254, -0.04974903955581755, 0
4823, 5.240490763393092, 0.08147740364616154, 0
4824, 5.355041868185246, -0.06730622426491543, 0
4825, 5.298111887624426, -0.09048966242004207, 0
4826, 5.330190970502194, 0.07736553913195687, 0
4827, 5.279666352496324, 0.13039605285458467, 0
4828, 5.189693241131183, 0.11823541803271488, 0
4829, 5.2842115653657755, 0.0547857895877228, 0
4830, -4.668723245785576, -5.937306893859726, 0
4831, -4.662697502132984, -5.75910294707756, 0
4832, -4.696015592432472, -5.847180187396494, 0
4833, -4.701648104788467, -5.898081550171647, 0
4834, -4.906157748487199, -5.7735014717916355, 0
4835, -4.852947482432675, -5.841125991462272, 0
4836, -4.785449245523648, -5.715976849611952, 0
4837, -5.926389072799966, 5.115032904237033, 0
4838, -5.975983290562752, 5.108798770591889, 0
4839, -6.042083466976399, 5.02308128196914, 0
4840, -6.081369303782189, 5.057103198337651, 0
4841, -6.081002014974005, 4.981499488159534, 0
4842, -5.91615480980431, 4.949904391053566, 0
4843, -5.979166289441811, 4.986411695204038, 0
4844, -5.920537037103621, 5.014973131138912, 0
4845, -5.985583101094717, 4.902703851550885, 0
4846, -5.860622248013198, 4.9863263154887365, 0
4847, -6.016202656493274, 4.947150931274135, 0
4848, -6.04345206305678, 4.855102967924953, 0
4849, -5.857023443580786, 4.7882647344018014, 0
4850, -6.107799220450763, 4.874017248045517, 0
4851, -6.047466858648103, 4.745601535956737, 0
4852, -5.906913697487323, 4.861649384604341, 0
4853, -5.842729045282147, 4.908750456698094, 0
4854, -5.956710415504958, 4.778820955441552, 0
4855, -5.935227004589283, 4.90329603851087, 0
4856, -5.84770626238817, 4.848250149380919, 0
4857, -5.766625282828283, 4.80494001946792, 0
4858, -5.77281798515087, 4.906770908294203, 0
4859, -5.757790944126448, 4.856581012009699, 0
4860, -5.981214166102155, 4.8384160497273845, 0
4861, -6.024976947945422, 4.799601274524019, 0
4862, -5.551437017717533, -4.265264849991597, 0
4863, -5.391055256785585, -4.387367510742194, 0
4864, 4.2652648499915315, -5.551437017717534, 0
4865, 4.387367510742343, -5.391055256785403, 0
4866, -4.277178852602683, -2.226461073861662, 0
4867, -4.265002356195982, -2.3144494191913436, 0
4868, -4.228933595107036, -2.26462123896287, 0
4869, -4.207437616801368, -2.315738048984806, 0
4870, -4.1757110844759575, -2.4944875071318013, 0
4871, -4.095101682542199, -2.473195471231075, 0
4872, -4.147644533279169, -2.437509145090795, 0
4873, -4.123306841840194, -2.529649077621962, 0
4874, -4.207771931298313, -2.598902488817428, 0
4875, -4.136898957343282, -2.5992071515802038, 0
4876, -4.175987956120209, -2.5515321602472487, 0
4877, -4.270372909347676, -2.5225510554392057, 0
4878, -4.043396418157778, -2.5119438793541273, 0
4879, -2.2264610738616604, 4.277178852602687, 0
4880, -2.3144494191912597, 4.265002356196031, 0
4881, -2.264621238962841, 4.228933595107048, 0
4882, -2.315738048984823, 4.207437616801408, 0
4883, -2.4944875071318706, 4.17571108447601, 0
4884, -2.4731954712317834, 4.095101682542066, 0
4885, -2.4375091450911808, 4.147644533278734, 0
4886, -2.5296490776224205, 4.1233068418405265, 0
4887, -2.5989024888177408, 4.207771931299495, 0
4888, -2.599207151581558, 4.136898957343593, 0
4889, -2.5515321602475813, 4.175987956120882, 0
4890, -2.522551055438375, 4.270372909349034, 0
4891, -2.5119438793541278, 4.043396418157778, 0
4892, 2.2264610738616657, -4.277178852602676, 0
4893, 2.314449419191462, -4.265002356195914, 0
4894, 2.2646212389629126, -4.22893359510702, 0
4895, 2.3157380489847865, -4.207437616801311, 0
4896, 2.4944875071316948, -4.175711084475861, 0
4897, 2.473195471230128, -4.095101682542364, 0
4898, 2.437509145090273, -4.147644533279724, 0
4899, 2.5296490776213414, -4.123306841839736, 0
4900, 2.5989024888169987, -4.207771931296738, 0
4901, 2.599207151578382, -4.13689895734287, 0
4902, 2.5515321602467944, -4.175987956119301, 0
4903, 2.5225510554402724, -4.270372909345877, 0
4904, 2.511943879354127, -4.043396418157779, 0
4905, 4.277178852602687, 2.2264610738616604, 0
4906, 4.265002356196031, 2.3144494191912597, 0
4907, 4.228933595107048, 2.264621238962841, 0
4908, 4.207437616801408, 2.315738048984823, 0
4909, 4.17571108447601, 2.4944875071318706, 0
4910, 4.095101682542066, 2.4731954712317834, 0
4911, 4.147644533278734, 2.4375091450911808, 0
4912, 4.1233068418405265, 2.5296490776224205, 0
4913, 4.207771931299495, 2.5989024888177408, 0
4914, 4.136898957343593, 2.599207151581558, 0
4915, 4.175987956120882, 2.5515321602475813, 0
4916, 4.270372909349034, 2.522551055438375, 0
4917, 4.043396418157778, 2.5119438793541278, 0
4918, -1.4973198940703614, -3.9142792855931487, 0
4919, -1.5807893084813815, -3.844823010069032, 0
4920, -1.6227956936834274, -3.891557965969277, 0
4921, -2.043066188091552, -3.848152732849389, 0
4922, -2.086329866143403, -3.939714838519647, 0
4923, -2.0288449112045273, -3.91087461128763, 0
4924, -2.0823341518562786, -3.8856006044279665, 0
4925, -2.1282981160746965, -4.192079612731661, 0
4926, -1.7709376498245202, -3.9187946395446756, 0
4927, -4.964514345188563, 6.050879414024039, 0
4928, -4.3338062304138205, 5.251945624064085, 0
4929, -4.224693963391317, 5.263363775015628, 0
4930, -4.215047094749565, 5.193486073409917, 0
4931, -4.132822724792545, 5.198201653761774, 0
4932, -4.232466305715544, 5.319259630045237, 0
4933, -4.10362577231837, 5.126080876179632, 0
4934, -4.143495721638167, 5.2582441372822455, 0
4935, -3.9383603477546876, 5.141674413880545, 0
4936, -4.019113478988812, 5.113957228905746, 0
4937, -4.005362604750667, 5.041409166850235, 0
4938, -3.904903307391557, 5.046796990238814, 0
4939, -3.9646271384171206, 5.086707443697823, 0
4940, -3.9540701830381444, 5.02428701843193, 0
4941, -4.006189971787029, 5.2077994283504445, 0
4942, -4.069392056420639, 5.201492577527416, 0
4943, -3.9889654609915723, 5.157616367481395, 0
4944, -4.05701187733412, 5.1503963223453795, 0
4945, -3.9142792855931496, 1.4973198940703585, 0
4946, -3.8448230100690326, 1.5807893084813789, 0
4947, -3.8915579659692874, 1.6227956936834256, 0
4948, -3.8481527328493894, 2.043066188091552, 0
4949, -3.9397148385196474, 2.086329866143403, 0
4950, -3.9108746112876305, 2.0288449112045273, 0
4951, -3.885600604427967, 2.0823341518562786, 0
4952, -4.192079612731642, 2.1282981160747063, 0
4953, -3.918794639544676, 1.7709376498245253, 0
4954, 3.9142792855931487, -1.4973198940703627, 0
4955, 3.8448230100690313, -1.580789308481381, 0
4956, 3.891557965969275, -1.622795693683426, 0
4957, 3.8481527328493885, -2.0430661880915526, 0
4958, 3.939714838519645, -2.0863298661434024, 0
4959, 3.9108746112876287, -2.0288449112045273, 0
4960, 3.8856006044279656, -2.0823341518562786, 0
4961, 4.1920796127316695, -2.1282981160746925, 0
4962, 3.9187946395446764, -1.7709376498245195, 0
4963, 5.603998196033459, -4.468638755096361, 0
4964, 5.640757114771301, -4.371243875116501, 0
4965, 5.6963829052641675, -4.405839023605151, 0
4966, 5.722282677324312, -4.343296142888805, 0
4967, 5.469345922032523, -4.445624099060636, 0
4968, 1.4973198940703585, 3.9142792855931496, 0
4969, 1.5807893084813789, 3.8448230100690326, 0
4970, 1.6227956936834256, 3.8915579659692874, 0
4971, 2.043066188091552, 3.8481527328493894, 0
4972, 2.086329866143403, 3.9397148385196474, 0
4973, 2.0288449112045273, 3.9108746112876305, 0
4974, 2.0823341518562786, 3.885600604427967, 0
4975, 2.1282981160747063, 4.192079612731642, 0
4976, 1.7709376498245253, 3.918794639544676, 0
4977, -5.372339160602028, 0.12723647206591765, 0
4978, -5.611972809370237, 0.1671596420556722, 0
4979, -5.407938565529591, 0.08450031008800749, 0
4980, -5.4095169843308755, -0.010319603121495963, 0
4981, -5.4767629739917965, -0.12761450164594046, 0
4982, 0.12723647206776711, 5.372339160602028, 0
4983, 0.1671596420556722, 5.611972809370237, 0
4984, 0.08450031004278266, 5.4079385655671555, 0
4985, -0.010319603386461595, 5.40951698426381, 0
4986, -0.12761450159275378, 5.476762973828641, 0
4987, -0.12723647206652602, -5.372339160602028, 0
4988, -0.16715964205567285, -5.611972809370237, 0
4989, -0.08450031007298382, -5.407938565542071, 0
4990, 0.010319603209495348, -5.409516984308618, 0
4991, 0.12761450162828503, -5.476762973937633, 0
4992, 5.372339160602028, -0.12723647206826294, 0
4993, 5.611972809370237, -0.16715964205567335, 0
4994, 5.40793856557728, -0.08450031003059405, 0
4995, 5.409516984245747, 0.010319603457863605, 0
4996, 5.47676297378469, 0.12761450157842785, 0
4997, -4.6041622321949855, -5.831586270670395, 0
4998, -4.641729490645745, -5.881218091596147, 0
4999, -4.767717178043708, -5.820824057916784, 0
5000, -4.7612253204709925, -5.876441145108505, 0
5001, -4.715497286299555, -5.789470153354251, 0
5002, -4.718824482982597, -5.722599745165045, 0
5003, -4.7648610127150235, -5.766417961066095, 0
5004, -4.628818777182523, -5.645609576796998, 0
5005, -4.747455475103446, -5.672194629979869, 0
5006, -4.685566300180804, -5.670374501091928, 0
5007, -4.731377404373513, -5.58220951138394, 0
5008, -4.6779481338946045, -5.6104316829077385, 0
5009, -4.8285958737859085, -5.66694980729143, 0
5010, -4.8330404291116915, -5.738656816538663, 0
5011, -5.90745976575767, 4.693145726650513, 0
5012, -5.909046340609475, 4.806548348409443, 0
5013, -5.693255397974909, 4.805445434992987, 0
5014, -5.728742365126329, 4.631285706879595, 0
5015, -5.6878198967278095, 4.713642596905953, 0
5016, -5.67056916922592, 4.760726318043994, 0
5017, -5.621175133619285, -4.257964513143617, 0
5018, -5.557695415898388, -4.31703914630565, 0
5019, -5.508550387550088, -4.181008474640498, 0
5020, -5.410538846488109, -4.4408921050583015, 0
5021, -5.333207001447533, -4.434503618350259, 0
5022, -5.34555750971921, -4.258990115410715, 0
5023, -5.458557675525805, -4.383831367696111, 0
5024, -5.420566292093089, -4.304657576467734, 0
5025, -5.355016168374481, -4.327888947858454, 0
5026, -5.284225172111644, -4.3025086948633255, 0
5027, -5.424259048673226, -4.214157550950175, 0
5028, -5.397332618638136, -4.258384199068095, 0
5029, 4.257964513143613, -5.62117513361929, 0
5030, 4.317039146305573, -5.557695415898334, 0
5031, 4.181008474640459, -5.50855038755014, 0
5032, 4.440892105058328, -5.410538846488002, 0
5033, 4.434503618350258, -5.3332070014475335, 0
5034, 4.258990115410621, -5.345557509719325, 0
5035, 4.383831367695923, -5.458557675525645, 0
5036, 4.304657576468101, -5.420566292092537, 0
5037, 4.3278889478587255, -5.355016168373647, 0
5038, 4.302508694862419, -5.2842251721115625, 0
5039, 4.214157550950664, -5.424259048673576, 0
5040, 4.258384199068276, -5.397332618638161, 0
5041, -4.3344988643673075, -2.3387390725194517, 0
5042, -4.3191727076695745, -2.436483990264324, 0
5043, -4.346424527356712, -2.3906829966525707, 0
5044, -4.364047466565438, -2.663194529187778, 0
5045, -2.338739072519445, 4.334498864367321, 0
5046, -2.4364839902636954, 4.319172707669934, 0
5047, -2.3906829966522074, 4.346424527356925, 0
5048, -2.663194529185762, 4.364047466566083, 0
5049, 2.338739072519462, -4.334498864367289, 0
5050, 2.436483990265145, -4.319172707669107, 0
5051, 2.3906829966530454, -4.346424527356435, 0
5052, 2.6631945291904136, -4.364047466564575, 0
5053, 4.334498864367321, 2.338739072519445, 0
5054, 4.319172707669934, 2.4364839902636954, 0
5055, 4.346424527356925, 2.3906829966522074, 0
5056, 4.364047466566083, 2.663194529185762, 0
5057, -2.1546536761911215, -3.9074972722604717, 0
5058, -2.2108776835718755, -4.056215837035047, 0
5059, -2.1532254669657815, -3.993024421628723, 0
5060, -2.1980197781209165, -3.9509969378596326, 0
5061, -2.2703582152072403, -3.9586030396692995, 0
5062, -2.3109884802701073, -4.050289846466639, 0
5063, -2.229377505977611, -4.00056005417302, 0
5064, -2.308512806473488, -3.996541031566665, 0
5065, -2.124440861828704, -4.077180834116309, 0
5066, -2.16191030796593, -4.042995864355408, 0
5067, -2.080817325480872, -4.01525906556346, 0
5068, -2.0656438483602653, -4.072275846338739, 0
5069, -2.0275098270830756, -4.002477821196055, 0
5070, -2.097586694225451, -4.253578513765558, 0
5071, -2.0752565389674014, -4.18382065888328, 0
5072, -2.2653168711570992, -4.201613041570653, 0
5073, -3.8971806606861756, 4.969597060745139, 0
5074, -3.7189285764766873, 4.994816945144994, 0
5075, -3.8052720368549617, 4.962539942447783, 0
5076, -3.852863322456611, 4.944749318270823, 0
5077, -3.847580912219023, 5.013544970404148, 0
5078, -3.8178493140113097, 5.1308329831824935, 0
5079, -3.849412649490348, 5.076421672282021, 0
5080, -3.7770119582630794, 5.047065832193119, 0
5081, -3.878688595281746, 5.129764697853013, 0
5082, -3.8499164311692144, 5.224123294326321, 0
5083, -3.9153957942971904, 5.095737517332876, 0
5084, -3.7691129382678725, 4.997437771747593, 0
5085, -3.6767842266453874, 5.100076585892573, 0
5086, -3.717170929466274, 5.055180007007007, 0
5087, -3.745957672658882, 5.121688324495899, 0
5088, -3.6967425683489186, 5.15770402577288, 0
5089, -3.6315818420935972, 5.148001554584432, 0
5090, -3.750779109703661, 5.215358363789482, 0
5091, -3.776713237843641, 5.167064362223209, 0
5092, -3.798495157784366, 5.240695137282896, 0
5093, -4.02397994976624, 5.263809178751609, 0
5094, -3.907497272260472, 2.1546536761911215, 0
5095, -4.056215837035036, 2.210877683571874, 0
5096, -3.993024421628719, 2.1532254669657793, 0
5097, -3.950996937859632, 2.1980197781209165, 0
5098, -3.9586030396693, 2.2703582152072403, 0
5099, -4.05028984646664, 2.3109884802701077, 0
5100, -4.000560054173014, 2.229377505977611, 0
5101, -3.9965410315666654, 2.308512806473488, 0
5102, -4.077180834116319, 2.124440861828689, 0
5103, -4.042995864355412, 2.161910307965918, 0
5104, -4.015259065563461, 2.080817325480871, 0
5105, -4.07227584633874, 2.065643848360247, 0
5106, -4.002477821196061, 2.0275098270830716, 0
5107, -4.253578513765559, 2.097586694225451, 0
5108, -4.18382065888328, 2.0752565389674054, 0
5109, -4.20161304157067, 2.2653168711570904, 0
5110, 3.9074972722604717, -2.154653676191122, 0
5111, 4.056215837035053, -2.210877683571877, 0
5112, 3.9930244216287263, -2.153225466965781, 0
5113, 3.950996937859635, -2.1980197781209174, 0
5114, 3.9586030396692986, -2.2703582152072412, 0
5115, 4.0502898464666375, -2.310988480270107, 0
5116, 4.0005600541730235, -2.229377505977613, 0
5117, 3.9965410315666636, -2.3085128064734883, 0
5118, 4.077180834116307, -2.124440861828711, 0
5119, 4.042995864355407, -2.161910307965935, 0
5120, 4.015259065563462, -2.080817325480867, 0
5121, 4.0722758463387425, -2.0656438483602746, 0
5122, 4.002477821196052, -2.027509827083074, 0
5123, 4.253578513765559, -2.097586694225452, 0
5124, 4.183820658883281, -2.0752565389674, 0
5125, 4.2016130415706465, -2.2653168711571032, 0
5126, 5.5870421726292125, -4.2926864730208605, 0
5127, 5.576868540079059, -4.361393763411188, 0
5128, 5.514800756980519, -4.410016000279941, 0
5129, 5.400952261743013, -4.35691963741318, 0
5130, 5.457672188532243, -4.383905920775412, 0
5131, 5.403724416988328, -4.424193382575112, 0
5132, 5.352211194062401, -4.392622103762571, 0
5133, 5.441226657001934, -4.51282556085463, 0
5134, 5.510930737272108, -4.526027137483138, 0
5135, 5.5282735964410765, -4.468535559882317, 0
5136, 2.1546536761911215, 3.907497272260472, 0
5137, 2.210877683571874, 4.056215837035036, 0
5138, 2.1532254669657793, 3.993024421628719, 0
5139, 2.1980197781209165, 3.950996937859632, 0
5140, 2.2703582152072403, 3.9586030396693, 0
5141, 2.3109884802701077, 4.05028984646664, 0
5142, 2.229377505977611, 4.000560054173014, 0
5143, 2.308512806473488, 3.9965410315666654, 0
5144, 2.124440861828689, 4.077180834116319, 0
5145, 2.161910307965918, 4.042995864355412, 0
5146, 2.080817325480871, 4.015259065563461, 0
5147, 2.065643848360247, 4.07227584633874, 0
5148, 2.0275098270830716, 4.002477821196061, 0
5149, 2.097586694225451, 4.253578513765559, 0
5150, 2.0752565389674054, 4.18382065888328, 0
5151, 2.2653168711570904, 4.20161304157067, 0
5152, -5.343769894961385, -0.012980949875914957, 0
5153, -5.537009662322745, -0.03696172295283941, 0
5154, -5.431935179835152, -0.1671596420556724, 0
5155, -5.388139813105402, -0.06547762528326803, 0
5156, -0.012980949874419431, 5.343769894915359, 0
5157, -0.03696172307770347, 5.537009662152693, 0
5158, -0.16715964205567263, 5.431935179835152, 0
5159, -0.0654776253962849, 5.388139813016872, 0
5160, 0.01298094987541877, -5.343769894946101, 0
5161, 0.03696172299430267, -5.537009662266292, 0
5162, 0.16715964205567224, -5.431935179835152, 0
5163, 0.0654776253207866, -5.388139813075972, 0
5164, 5.343769894902958, 0.012980949874015504, 0
5165, 5.5370096621068825, 0.03696172311134743, 0
5166, 5.431935179835152, 0.16715964205567238, 0
5167, 5.3881398129930025, 0.06547762542673241, 0
5168, -4.654655311879292, -5.812485615582553, 0
5169, -4.54549378227896, -5.88372823131986, 0
5170, -4.552686629382958, -5.730138890028497, 0
5171, -5.9560986671902585, 4.722179068037684, 0
5172, -5.965310910817395, 4.645808894831895, 0
5173, -5.795424654231017, 4.707698137984572, 0
5174, -5.627751585304622, 4.632449676056848, 0
5175, -5.56313019666146, -4.1390086177862715, 0
5176, -5.5530383318974605, -4.211406909066424, 0
5177, -5.486746373964077, -4.287435322851554, 0
5178, -5.2997099193514385, -4.087011966336001, 0
5179, -5.436475876459232, -4.121480073746625, 0
5180, 4.1390086177862715, -5.56313019666146, 0
5181, 4.211406909066387, -5.553038331897477, 0
5182, 4.2874353228512, -5.486746373963655, 0
5183, 4.087011966336628, -5.299709919353276, 0
5184, 4.121480073746561, -5.436475876458737, 0
5185, -4.392509439947703, -2.450947430417278, 0
5186, -4.3768144780940474, -2.5568746632340122, 0
5187, -4.404387978651113, -2.5068337997135326, 0
5188, -4.4548922640444255, -2.5610596670782266, 0
5189, -4.336634924512429, -2.5021177360405624, 0
5190, -4.449134001625206, -2.6474067309319316, 0
5191, -4.398824258025534, -2.613444094544639, 0
5192, -4.51879362064724, -2.670580312302742, 0
5193, -4.456258780445561, -2.855031693136602, 0
5194, -4.505224863545918, -2.768806408124363, 0
5195, -4.531580175473577, -2.7223968499432156, 0
5196, -4.421188961572658, -2.7339761093085726, 0
5197, -4.469708953404202, -2.701843521491619, 0
5198, -4.411755559834348, -2.683135868336891, 0
5199, -4.2407249398433935, -2.448872524265691, 0
5200, -4.284880770147937, -2.473908763263957, 0
5201, -4.2263162195700295, -2.497474922658161, 0
5202, -4.196821509460348, -2.4215923392232286, 0
5203, -4.2708252108211955, -2.3849049106200804, 0
5204, -4.295729238081243, -2.607180021895891, 0
5205, -4.316603041034568, -2.5548127783817187, 0
5206, -4.254539311361972, -2.573408164783076, 0
5207, -4.267966372995508, -2.7107105664969477, 0
5208, -4.3052611900443285, -2.665223853222106, 0
5209, -4.242879404569036, -2.6521091434111557, 0
5210, -4.198701046641236, -2.7056921844258164, 0
5211, -4.183469663857846, -2.6506183114160025, 0
5212, -2.450947430417194, 4.392509439947858, 0
5213, -2.5568746632329646, 4.376814478094451, 0
5214, -2.5068337997129473, 4.404387978651392, 0
5215, -2.56105966707838, 4.454892264044153, 0
5216, -2.502117736039692, 4.336634924512928, 0
5217, -2.647406730931597, 4.449134001625621, 0
5218, -2.6134440945431647, 4.398824258026814, 0
5219, -2.67058031230262, 4.518793620647453, 0
5220, -2.8550316931371027, 4.456258780444713, 0
5221, -2.7688064081246138, 4.505224863545541, 0
5222, -2.7223968499433777, 4.531580175473429, 0
5223, -2.7339761093084176, 4.421188961571862, 0
5224, -2.7018435214918886, 4.4697089534041785, 0
5225, -2.683135868336437, 4.411755559834476, 0
5226, -2.448872524265019, 4.240724939843375, 0
5227, -2.4739087632628776, 4.284880770147999, 0
5228, -2.4974749226580606, 4.226316219570501, 0
5229, -2.421592339223357, 4.19682150945983, 0
5230, -2.3849049106197775, 4.270825210821497, 0
5231, -2.607180021894645, 4.2957292380819965, 0
5232, -2.554812778380852, 4.3166030410356875, 0
5233, -2.5734081647820397, 4.254539311362482, 0
5234, -2.7107105664964246, 4.267966372996051, 0
5235, -2.6652238532211667, 4.305261190044759, 0
5236, -2.6521091434111024, 4.242879404569818, 0
5237, -2.7056921844256467, 4.1987010466415375, 0
5238, -2.65061831141584, 4.183469663857837, 0
5239, 2.4509474304173873, -4.392509439947502, 0
5240, 2.5568746632353827, -4.376814478093518, 0
5241, 2.5068337997142986, -4.404387978650748, 0
5242, 2.561059667078027, -4.4548922640447834, 0
5243, 2.5021177360417006, -4.336634924511779, 0
5244, 2.647406730932381, -4.449134001624657, 0
5245, 2.6134440945465727, -4.398824258023853, 0
5246, 2.6705803123029033, -4.51879362064696, 0
5247, 2.8550316931359427, -4.456258780446678, 0
5248, 2.768806408124033, -4.505224863546414, 0
5249, 2.722396849943002, -4.531580175473774, 0
5250, 2.7339761093087986, -4.421188961573675, 0
5251, 2.701843521491294, -4.469708953404229, 0
5252, 2.683135868337498, -4.411755559834165, 0
5253, 2.4488725242665303, -4.240724939843396, 0
5254, 2.473908763265346, -4.28488077014783, 0
5255, 2.497474922658258, -4.226316219569391, 0
5256, 2.4215923392230465, -4.1968215094609995, 0
5257, 2.384904910620472, -4.270825210820826, 0
5258, 2.6071800218975105, -4.295729238080234, 0
5259, 2.5548127783828405, -4.316603041033076, 0
5260, 2.5734081647844156, -4.254539311361283, 0
5261, 2.7107105664976183, -4.267966372994775, 0
5262, 2.6652238532233232, -4.305261190043745, 0
5263, 2.6521091434112067, -4.24287940456799, 0
5264, 2.7056921844260144, -4.198701046640836, 0
5265, 2.650618311416198, -4.183469663857842, 0
5266, 4.392509439947858, 2.450947430417194, 0
5267, 4.376814478094451, 2.5568746632329646, 0
5268, 4.404387978651392, 2.5068337997129473, 0
5269, 4.454892264044153, 2.56105966707838, 0
5270, 4.336634924512928, 2.502117736039692, 0
5271, 4.449134001625621, 2.647406730931597, 0
5272, 4.398824258026814, 2.6134440945431647, 0
5273, 4.518793620647453, 2.67058031230262, 0
5274, 4.456258780444713, 2.8550316931371027, 0
5275, 4.505224863545541, 2.7688064081246138, 0
5276, 4.531580175473429, 2.7223968499433777, 0
5277, 4.421188961571862, 2.7339761093084176, 0
5278, 4.4697089534041785, 2.7018435214918886, 0
5279, 4.411755559834476, 2.683135868336437, 0
5280, 4.240724939843375, 2.448872524265019, 0
5281, 4.284880770147999, 2.4739087632628776, 0
5282, 4.226316219570501, 2.4974749226580606, 0
5283, 4.19682150945983, 2.421592339223357, 0
5284, 4.270825210821497, 2.3849049106197775, 0
5285, 4.2957292380819965, 2.607180021894645, 0
5286, 4.3166030410356875, 2.554812778380852, 0
5287, 4.254539311362482, 2.5734081647820397, 0
5288, 4.267966372996051, 2.7107105664964246, 0
5289, 4.305261190044759, 2.6652238532211667, 0
5290, 4.242879404569818, 2.6521091434111024, 0
5291, 4.1987010466415375, 2.7056921844256467, 0
5292, 4.183469663857837, 2.65061831141584, 0
5293, -2.3805958033761736, -4.020835740814487, 0
5294, -2.434170786535016, -4.182144152165679, 0
5295, -2.377840852292002, -4.111301808468732, 0
5296, -2.3584328026472647, -4.065435795817247, 0
5297, -2.4230692393551054, -4.067404160597573, 0
5298, -2.4953961932527795, -4.074516261443241, 0
5299, -2.5333753164256, -4.167349483766302, 0
5300, -2.454184268763031, -4.122300713703063, 0
5301, -2.5324274776829454, -4.113551799353341, 0
5302, -2.183669386846578, -4.132706614860748, 0
5303, -2.126219802532599, -4.134635248530279, 0
5304, -2.2647940852782225, -4.118478750851603, 0
5305, -2.196571034617222, -4.200244822925739, 0
5306, -2.261726658784743, -4.066659142546362, 0
5307, -2.3241606437066418, -4.159674216298795, 0
5308, -2.3798593538419572, -4.167513211264862, 0
5309, -2.3779725758440695, -4.282637160166391, 0
5310, -2.3934151644698765, -4.225312814559182, 0
5311, -2.4994829965283225, -4.284628606693797, 0
5312, -2.3249007405282587, -4.237597944028278, 0
5313, -2.4389785974294047, -4.268329344391905, 0
5314, -2.3167261514512876, -4.301018581358429, 0
5315, -2.4486539659360584, -4.352862113291382, 0
5316, -2.3618036312879034, -4.339989120152827, 0
5317, -2.2094474229504213, -4.31026658774677, 0
5318, -2.229925406351977, -4.252105572674988, 0
5319, -2.5501094388022603, -4.375390377247659, 0
5320, -2.431702443260537, -4.427871705105856, 0
5321, -2.504435500008005, -4.341366594094698, 0
5322, -2.4871106999944232, -4.398385274073271, 0
5323, -3.795859662249633, 4.888505432676517, 0
5324, -3.6927209334693787, 4.894861192412922, 0
5325, -3.746796848068444, 4.932358607536282, 0
5326, -3.743059691351883, 4.8717135219785455, 0
5327, -3.8507748329228177, 5.298872560222008, 0
5328, -3.914934170876937, 5.311568107371184, 0
5329, -3.9284435647680693, 5.219698432785641, 0
5330, -3.8915643505819455, 5.261203473510406, 0
5331, -3.8870368148772694, 5.183876221478311, 0
5332, -4.020835740814487, 2.3805958033761736, 0
5333, -4.182144152165691, 2.4341707865350175, 0
5334, -4.1113018084687365, 2.377840852292005, 0
5335, -4.065435795817249, 2.3584328026472665, 0
5336, -4.067404160597574, 2.4230692393551054, 0
5337, -4.07451626144324, 2.4953961932527795, 0
5338, -4.167349483766301, 2.533375316425597, 0
5339, -4.122300713703069, 2.4541842687630315, 0
5340, -4.11355179935334, 2.5324274776829445, 0
5341, -4.132706614860731, 2.1836693868465806, 0
5342, -4.134635248530275, 2.126219802532616, 0
5343, -4.118478750851583, 2.264794085278213, 0
5344, -4.200244822925713, 2.1965710346172234, 0
5345, -4.066659142546345, 2.2617266587847404, 0
5346, -4.159674216298793, 2.324160643706629, 0
5347, -4.1675132112648745, 2.37985935384195, 0
5348, -4.282637160166397, 2.3779725758440744, 0
5349, -4.225312814559189, 2.3934151644698773, 0
5350, -4.284628606693788, 2.499482996528294, 0
5351, -4.237597944028288, 2.3249007405282573, 0
5352, -4.268329344391904, 2.438978597429391, 0
5353, -4.301018581358439, 2.3167261514512942, 0
5354, -4.352862113291374, 2.448653965936044, 0
5355, -4.33998912015283, 2.361803631287911, 0
5356, -4.310266587746771, 2.2094474229504213, 0
5357, -4.252105572674981, 2.229925406351941, 0
5358, -4.375390377247646, 2.5501094388022536, 0
5359, -4.427871705105856, 2.4317024432605368, 0
5360, -4.34136659409469, 2.5044355000079923, 0
5361, -4.3983852740732665, 2.48711069999441, 0
5362, 4.020835740814487, -2.3805958033761745, 0
5363, 4.182144152165676, -2.4341707865350166, 0
5364, 4.111301808468731, -2.3778408522919996, 0
5365, 4.065435795817246, -2.358432802647264, 0
5366, 4.067404160597574, -2.4230692393551063, 0
5367, 4.07451626144324, -2.4953961932527804, 0
5368, 4.167349483766301, -2.5333753164255994, 0
5369, 4.122300713703062, -2.4541842687630333, 0
5370, 4.11355179935334, -2.5324274776829454, 0
5371, 4.132706614860757, -2.1836693868465797, 0
5372, 4.134635248530283, -2.1262198025325953, 0
5373, 4.11847875085161, -2.264794085278228, 0
5374, 4.200244822925752, -2.1965710346172216, 0
5375, 4.066659142546369, -2.261726658784745, 0
5376, 4.1596742162987965, -2.324160643706646, 0
5377, 4.1675132112648585, -2.37985935384196, 0
5378, 4.282637160166389, -2.3779725758440695, 0
5379, 4.225312814559179, -2.393415164469877, 0
5380, 4.284628606693797, -2.4994829965283274, 0
5381, 4.237597944028276, -2.3249007405282596, 0
5382, 4.268329344391904, -2.4389785974294074, 0
5383, 4.301018581358427, -2.316726151451287, 0
5384, 4.3528621132913825, -2.4486539659360615, 0
5385, 4.3399891201528265, -2.3618036312879034, 0
5386, 4.31026658774677, -2.2094474229504213, 0
5387, 4.252105572674992, -2.2299254063519935, 0
5388, 4.375390377247661, -2.550109438802264, 0
5389, 4.427871705105856, -2.4317024432605376, 0
5390, 4.341366594094699, -2.5044355000080087, 0
5391, 4.398385274073271, -2.4871106999944264, 0
5392, 5.63467820621329, -4.317757483215761, 0
5393, 5.642419802826298, -4.241413616051586, 0
5394, 5.469519336451767, -4.2224252882102205, 0
5395, 2.3805958033761736, 4.020835740814487, 0
5396, 2.4341707865350175, 4.182144152165691, 0
5397, 2.377840852292005, 4.1113018084687365, 0
5398, 2.3584328026472665, 4.065435795817249, 0
5399, 2.4230692393551054, 4.067404160597574, 0
5400, 2.4953961932527795, 4.07451626144324, 0
5401, 2.533375316425597, 4.167349483766301, 0
5402, 2.4541842687630315, 4.122300713703069, 0
5403, 2.5324274776829445, 4.11355179935334, 0
5404, 2.1836693868465806, 4.132706614860731, 0
5405, 2.126219802532616, 4.134635248530275, 0
5406, 2.264794085278213, 4.118478750851583, 0
5407, 2.1965710346172234, 4.200244822925713, 0
5408, 2.2617266587847404, 4.066659142546345, 0
5409, 2.324160643706629, 4.159674216298793, 0
5410, 2.37985935384195, 4.1675132112648745, 0
5411, 2.3779725758440744, 4.282637160166397, 0
5412, 2.3934151644698773, 4.225312814559189, 0
5413, 2.499482996528294, 4.284628606693788, 0
5414, 2.3249007405282573, 4.237597944028288, 0
5415, 2.438978597429391, 4.268329344391904, 0
5416, 2.3167261514512942, 4.301018581358439, 0
5417, 2.448653965936044, 4.352862113291374, 0
5418, 2.361803631287911, 4.33998912015283, 0
5419, 2.2094474229504213, 4.310266587746771, 0
5420, 2.229925406351941, 4.252105572674981, 0
5421, 2.5501094388022536, 4.375390377247646, 0
5422, 2.4317024432605368, 4.427871705105856, 0
5423, 2.5044355000079923, 4.34136659409469, 0
5424, 2.48711069999441, 4.3983852740732665, 0
5425, -5.478470180920516, 0.0012761312249295591, 0
5426, -5.475068123027842, -0.06786103530978661, 0
5427, -5.530745078193429, -0.10193802048243247, 0
5428, -5.736472834512809, -0.1671596420556724, 0
5429, -5.422287442453647, -0.11104247084549569, 0
5430, -5.634960282953591, -0.1671596420556724, 0
5431, -5.584204007173981, -0.13238959672429618, 0
5432, -5.6857165587331995, -0.0386358716634595, 0
5433, -5.645664447841841, -0.09710274930433671, 0
5434, -5.589473162041487, -0.07039966949089457, 0
5435, -5.7742282771336955, -0.0358746384363829, 0
5436, -5.714728905143725, -0.10146254460773553, 0
5437, -5.612046385648825, 0.02289337535964736, 0
5438, -5.6857165587331995, -0.1475117015331998, 0
5439, -5.854624909077797, 0.0012512322630034364, 0
5440, -5.436916840057655, 0.0375596024931072, 0
5441, -5.646686433557361, 0.07492750978018359, 0
5442, -5.541690170185375, 0.03413266110491124, 0
5443, -5.587491697355493, 0.09501400449656845, 0
5444, -5.5161193498629535, 0.16715964205567221, 0
5445, -5.490014541249202, 0.05758494040411122, 0
5446, -5.707826268877521, 0.1671596420556722, 0
5447, -5.464479360547271, 0.11831702789477508, 0
5448, -5.564046079616595, 0.14319617938437204, 0
5449, -5.520422650716981, 0.10610447338976364, 0
5450, 0.0012761311044588563, 5.4784701807943375, 0
5451, -0.06786103534250978, 5.475068122910238, 0
5452, -0.10193802054736192, 5.5307450779899305, 0
5453, -0.16715964205567263, 5.736472834512809, 0
5454, -0.11104247092867153, 5.42228744230909, 0
5455, -0.16715964205567263, 5.634960282953591, 0
5456, -0.13238959658781377, 5.584204007173981, 0
5457, -0.038635872031470564, 5.6857165587331995, 0
5458, -0.09710274946559525, 5.645664447826258, 0
5459, -0.07039966930858121, 5.589473162130287, 0
5460, -0.03587463877046716, 5.774228277386831, 0
5461, -0.10146254486879037, 5.714728904938218, 0
5462, 0.022893376580358372, 5.612046385678771, 0
5463, -0.14751170180693515, 5.6857165587331995, 0
5464, 0.0012512318707734102, 5.854624909637635, 0
5465, 0.0375596023028802, 5.436916839866364, 0
5466, 0.07492751029196629, 5.646686428592305, 0
5467, 0.034132660936025266, 5.541690170036416, 0
5468, 0.09501400510101365, 5.587491695968066, 0
5469, 0.16715964205567221, 5.5161193498629535, 0
5470, 0.05758494047424531, 5.4900145410825285, 0
5471, 0.1671596420556722, 5.707826268877521, 0
5472, 0.11831702791535414, 5.4644793604575135, 0
5473, 0.14319618023892916, 5.564046079616595, 0
5474, 0.10610447354449085, 5.520422650943711, 0
5475, -0.0012761311849214564, -5.478470180878627, 0
5476, 0.06786103532065194, -5.4750681229888105, 0
5477, 0.10193802050399307, -5.530745078125873, 0
5478, 0.16715964205567224, -5.736472834512809, 0
5479, 0.11104247087309771, -5.422287442405649, 0
5480, 0.16715964205567224, -5.634960282953591, 0
5481, 0.1323895966789905, -5.584204007173981, 0
5482, 0.03863587178562075, -5.6857165587331995, 0
5483, 0.09710274935786634, -5.645664447836668, 0
5484, 0.07039966943037737, -5.5894731620709655, 0
5485, 0.03587463854728211, -5.774228277217723, 0
5486, 0.10146254469439257, -5.714728905075507, 0
5487, -0.022893375764882595, -5.612046385658758, 0
5488, 0.14751170162406613, -5.6857165587331995, 0
5489, -0.0012512321328029402, -5.854624909263635, 0
5490, -0.03755960242993147, -5.436916839994139, 0
5491, -0.07492750995007352, -5.646686431909072, 0
5492, -0.03413266104882948, -5.54169017013592, 0
5493, -0.0950140046972258, -5.587491696894892, 0
5494, -0.16715964205567285, -5.5161193498629535, 0
5495, -0.057584940427403114, -5.490014541193862, 0
5496, -0.16715964205567285, -5.707826268877521, 0
5497, -0.1183170279016103, -5.464479360517467, 0
5498, -0.14319617966806494, -5.564046079616595, 0
5499, -0.10610447344113637, -5.520422650792244, 0
5500, 5.478470180760347, -0.0012761310719962993, 0
5501, 5.475068122878562, 0.06786103535132758, 0
5502, 5.530745077935111, 0.10193802056485653, 0
5503, 5.736472834512809, 0.16715964205567233, 0
5504, 5.422287442270146, 0.11104247095107267, 0
5505, 5.634960282953591, 0.16715964205567233, 0
5506, 5.584204007173981, 0.13238959655104912, 0
5507, 5.6857165587331995, 0.038635872130601406, 0
5508, 5.64566444782206, 0.09710274950903312, 0
5509, 5.589473162154208, 0.07039966925947219, 0
5510, 5.774228277455018, 0.03587463886045886, 0
5511, 5.71472890488286, 0.10146254493911033, 0
5512, 5.612046385686832, -0.022893376909195975, 0
5513, 5.6857165587331995, 0.14751170188067084, 0
5514, 5.854624909788439, -0.0012512317651192165, 0
5515, 5.436916839814825, -0.03755960225162019, 0
5516, 5.646686427254768, -0.07492751042982837, 0
5517, 5.541690169996285, -0.034132660890519084, 0
5518, 5.587491695594303, -0.09501400526384188, 0
5519, 5.5161193498629535, -0.16715964205567335, 0
5520, 5.490014541037623, -0.05758494049314382, 0
5521, 5.707826268877521, -0.16715964205567335, 0
5522, 5.46447936043333, -0.11831702792090015, 0
5523, 5.564046079616595, -0.14319618046913787, 0
5524, 5.520422651004787, -0.10610447358617658, 0
5525, -4.601191796579572, -5.769310149216206, 0
5526, -4.546077673560681, -5.803147875463157, 0
5527, -4.611672020005834, -5.706715419407797, 0
5528, -4.444656198297929, -5.802718820155499, 0
5529, -4.468317731044321, -5.721249403530863, 0
5530, -4.506595675891236, -5.762770244046262, 0
5531, -4.3885886546378545, -5.664856454770525, 0
5532, -4.521097194084634, -5.625138321826658, 0
5533, -4.569891758900245, -5.662032889608271, 0
5534, -4.514774678104161, -5.684213787146559, 0
5535, -4.455749085703012, -5.6480205443988645, 0
5536, -4.383426247031629, -5.501889608959991, 0
5537, -4.459864796807667, -5.555021197530328, 0
5538, -4.407847762788466, -5.599309914086736, 0
5539, -4.408493403473375, -5.547376893973503, 0
5540, -4.3097890138161645, -5.5721203065931455, 0
5541, -4.349898186576314, -5.617885630713891, 0
5542, -4.4148562497987385, -5.7122764621375035, 0
5543, -5.740393106534248, 4.688420331230996, 0
5544, -5.737712832167739, 4.750236423847281, 0
5545, -5.8057439452005, 4.763639905709229, 0
5546, -5.855196151122235, 4.726364529957847, 0
5547, -5.842517217073357, 4.631710805733515, 0
5548, -5.611610106795864, 4.705995476657878, 0
5549, -5.678544570591136, 4.657688297070689, 0
5550, -5.676761098687645, 4.502946898549579, 0
5551, -5.498338945107461, 4.633289205330105, 0
5552, -5.479338376963806, -4.230470668880825, 0
5553, -5.345258039311774, -4.166969630602467, 0
5554, -5.489959766793867, -4.130120614667504, 0
5555, -5.460526316643425, -4.054237135684396, 0
5556, -5.378530059811194, -4.062832419330999, 0
5557, -5.378963070260515, -4.12035460682925, 0
5558, -5.308697539423531, -3.975751526233731, 0
5559, -5.326310981000169, -4.033167570412025, 0
5560, -5.4062707893313, -3.9326312069713616, 0
5561, -5.3811134898488255, -3.9974917169845643, 0
5562, -5.2553039608360645, -3.8802703791557818, 0
5563, -5.349030452965245, -3.9350621924596334, 0
5564, -5.294291948671234, -3.921137647384332, 0
5565, -5.195431129068393, -3.97642115729416, 0
5566, -5.237744944472237, -3.9360531417224185, 0
5567, -5.252350241044472, -4.024446757934954, 0
5568, -5.138190791394763, -3.8740610375045805, 0
5569, -5.195948053386454, -3.892241576828543, 0
5570, -5.194768038703329, -3.795156324692494, 0
5571, -5.202781566745975, -4.11117592936039, 0
5572, -5.246085831566656, -4.078396112851494, 0
5573, -5.186364086676042, -4.044493592531209, 0
5574, -5.092032058190222, -4.129802265647911, 0
5575, -5.10358688893265, -3.998827851344518, 0
5576, -5.153876394380418, -4.005526261298525, 0
5577, -5.136895701266173, -3.940883925110695, 0
5578, -5.049678341087809, -3.929293083018533, 0
5579, -5.157655704024778, -4.136528689550743, 0
5580, -5.171553976311649, -4.232239112846371, 0
5581, -5.263095381058998, -4.143713644871191, 0
5582, -5.120647423471845, -4.066256212115364, 0
5583, -5.037491856288944, -3.994405307827544, 0
5584, -4.935597410840401, -3.9223193823579594, 0
5585, -5.2445828194766095, -4.216163165733887, 0
5586, -5.001223625795845, -3.934075072497443, 0
5587, -5.012568978694987, -3.801153913450706, 0
5588, -5.01923187416488, -3.868667383406589, 0
5589, -4.958033051647768, -3.865280735055469, 0
5590, -4.920546375276852, -3.7781474762724345, 0
5591, -5.080653903556265, -3.8285201362880814, 0
5592, -5.083181116444531, -3.884444053917022, 0
5593, -5.091498276538855, -3.7031622484659694, 0
5594, -5.1385035462613775, -3.81454907260796, 0
5595, -5.096342899861295, -3.766729346420586, 0
5596, -5.160301404494321, -3.729886732909432, 0
5597, -5.198228565755759, -4.17950134319261, 0
5598, -5.294289077769267, -4.190274328723223, 0
5599, -5.291025101927513, -4.247113835101386, 0
5600, -4.96086183150251, -3.8124332980951476, 0
5601, 4.230470668880633, -5.479338376964095, 0
5602, 4.1669696306029245, -5.345258039312787, 0
5603, 4.1301206146674385, -5.489959766793532, 0
5604, 4.054237135684447, -5.4605263166433575, 0
5605, 4.062832419330872, -5.378530059811937, 0
5606, 4.1203546068289585, -5.378963070260198, 0
5607, 3.9757515262339607, -5.308697539423444, 0
5608, 4.033167570412046, -5.3263109810008125, 0
5609, 3.9326312069713616, -5.406270789331302, 0
5610, 3.9974917169847424, -5.381113489849189, 0
5611, 3.8802703791560433, -5.255303960834192, 0
5612, 3.9350621924597085, -5.349030452965147, 0
5613, 3.921137647384128, -5.294291948670642, 0
5614, 3.9764211572942627, -5.1954311290705935, 0
5615, 3.9360531417223217, -5.237744944472775, 0
5616, 4.024446757935755, -5.252350241045485, 0
5617, 3.874061037510431, -5.1381907913982445, 0
5618, 3.89224157683139, -5.195948053387953, 0
5619, 3.7951563246945597, -5.194768038702914, 0
5620, 4.111175929361919, -5.202781566747802, 0
5621, 4.078396112852515, -5.246085831568282, 0
5622, 4.044493592532058, -5.186364086676677, 0
5623, 4.1298022656479105, -5.092032058190223, 0
5624, 3.9988278513429636, -5.10358688893294, 0
5625, 4.005526261298136, -5.153876394381331, 0
5626, 3.9408839251133903, -5.136895701267605, 0
5627, 3.9292930830142883, -5.049678341087889, 0
5628, 4.136528689552011, -5.15765570402664, 0
5629, 4.232239112846371, -5.17155397631165, 0
5630, 4.143713644872427, -5.2630953810611505, 0
5631, 4.066256212114593, -5.120647423471825, 0
5632, 3.994405307822998, -5.03749185628989, 0
5633, 3.922319382357959, -4.935597410840401, 0
5634, 4.216163165734129, -5.244582819476302, 0
5635, 3.9340750724975493, -5.001223625796229, 0
5636, 3.8011539134494554, -5.012568978683499, 0
5637, 3.8686673834049152, -5.019231874159453, 0
5638, 3.8652807350574947, -4.958033051645029, 0
5639, 3.778147476292896, -4.9205463752796454, 0
5640, 3.8285201362797268, -5.080653903558331, 0
5641, 3.8844440539103706, -5.083181116444039, 0
5642, 3.703162248443676, -5.091498276520585, 0
5643, 3.8145490726159164, -5.138503546265218, 0
5644, 3.7667293464055156, -5.0963428998765155, 0
5645, 3.7298867328537324, -5.160301404527164, 0
5646, 4.179501343193936, -5.198228565755978, 0
5647, 4.190274328725586, -5.294289077770615, 0
5648, 4.247113835100583, -5.291025101927837, 0
5649, 3.8124332981058666, -4.960861831502375, 0
5650, -4.579519755945312, -2.782274353288963, 0
5651, -4.564296018957949, -2.897272463955664, 0
5652, -4.531693410186228, -2.8344497157248956, 0
5653, -4.592210452334307, -2.842914809385956, 0
5654, -4.648929638283684, -2.8891708134761425, 0
5655, -4.618663724839449, -3.019110920866452, 0
5656, -4.6523277031408155, -2.9584571503144694, 0
5657, -4.71447633058385, -2.998726927492107, 0
5658, -4.585324817590233, -2.9609382487185822, 0
5659, -4.691063384032593, -3.1240471156694385, 0
5660, -4.496739509848044, -3.050346357837878, 0
5661, -4.721788483172, -3.064940176721243, 0
5662, -4.553385782100906, -3.0178822342739555, 0
5663, -4.782838681080333, -3.10693435309402, 0
5664, -4.658077939968513, -3.0693612856971697, 0
5665, -4.478196054965837, -2.952337325591537, 0
5666, -4.759208867857228, -3.2348589215674526, 0
5667, -4.568378964226734, -3.1607569966043725, 0
5668, -4.5044403062493465, -2.9981306149237135, 0
5669, -4.425209038377231, -3.0131212888174606, 0
5670, -4.532858400263823, -2.9429621012471414, 0
5671, -4.5048510890816615, -2.8900306987355346, 0
5672, -4.79002731488172, -3.174406909953847, 0
5673, -4.624995027102177, -3.1266072730644106, 0
5674, -4.556938164418915, -3.089733518070322, 0
5675, -4.852379784373214, -3.2147957961632887, 0
5676, -4.725177039559966, -3.1794278581396465, 0
5677, -4.830942679305223, -3.3416135060074277, 0
5678, -4.6377162361772, -3.271286732813599, 0
5679, -4.860789173343327, -3.281438014093269, 0
5680, -4.693630776183726, -3.236958074708369, 0
5681, -4.63008888721785, -3.199058383785068, 0
5682, -4.923198372882789, -3.3222562347599216, 0
5683, -4.796704198735222, -3.2871419924613328, 0
5684, -4.709555166701132, -3.3799163580127787, 0
5685, -4.76524640815504, -3.3449112082692287, 0
5686, -4.699184711951294, -3.3087054768888735, 0
5687, -4.804406938871672, -3.4690168340143823, 0
5688, -4.768617952673436, -3.4120785524655703, 0
5689, -4.83637038417935, -3.409209110111442, 0
5690, -4.720393161615033, -3.4821074678552706, 0
5691, -4.885322371025481, -3.371262710951378, 0
5692, -4.937536938935469, -3.4891690223073746, 0
5693, -4.896844679083717, -3.436674793260771, 0
5694, -4.9429554678962875, -3.3948315333553527, 0
5695, -5.006530006431615, -3.4216125488229543, 0
5696, -4.867600896436475, -3.5013628115767443, 0
5697, -5.003193150395789, -3.4872130764083207, 0
5698, -4.960034726660567, -3.443136885212844, 0
5699, -4.926674222697919, -3.63351905536569, 0
5700, -4.792910776326031, -3.5693803883509885, 0
5701, -5.100476679834543, -3.5136488020146017, 0
5702, -4.9138505340202805, -3.5599702989831266, 0
5703, -4.817492233262615, -3.521355883803657, 0
5704, -4.438030835624075, -3.075821182073688, 0
5705, -4.4911683028227944, -3.13676124876599, 0
5706, -4.359025930309809, -3.0659245174615477, 0
5707, -4.382848601709009, -2.9227074703532243, 0
5708, -4.636345828267812, -3.4987588631934985, 0
5709, -4.735085151995039, -3.5436644252640805, 0
5710, -4.744279611345817, -3.600861639152688, 0
5711, -5.032445673212842, -3.600944269136149, 0
5712, -5.079784894119191, -3.5676799603951657, 0
5713, -5.110030986616562, -3.633312471720451, 0
5714, -5.026309592581916, -3.54189493407258, 0
5715, -4.974292928843964, -3.5771436996867316, 0
5716, -5.1754902878679605, -3.619154969800329, 0
5717, -5.054983485074489, -3.656090596643123, 0
5718, -5.016566453907718, -3.7235903541235107, 0
5719, -4.989819251168967, -3.650543972407828, 0
5720, -5.1527549720570285, -3.6724440039825548, 0
5721, -4.940847843147206, -3.706563613560281, 0
5722, -4.856737704687688, -3.6078206039279963, 0
5723, -4.515032233414684, -3.1961922454278215, 0
5724, -4.571460975790312, -3.2417664202897467, 0
5725, -4.583414557056463, -3.3040495194063246, 0
5726, -4.6393934995985715, -3.353773449262904, 0
5727, -4.42398305149506, -2.9585654772600045, 0
5728, -5.04626381797363, -3.764005689310787, 0
5729, -4.87661158121307, -3.727016674292161, 0
5730, -4.811997849282452, -3.6914298092297293, 0
5731, -4.800463317759667, -3.631482699448661, 0
5732, -4.867395332604778, -3.6672984766151164, 0
5733, -4.656473035036193, -3.4151563252072, 0
5734, -4.673005910905307, -3.463360663414946, 0
5735, -4.446240593588376, -2.79232630568311, 0
5736, -4.331733107705011, -2.8069352463647235, 0
5737, -4.386897174730824, -2.783251523027262, 0
5738, -4.384158624143614, -2.8529587607494302, 0
5739, -4.334020919560442, -2.7361781491564985, 0
5740, -4.326115177450574, -2.8867552441700903, 0
5741, -4.326427549865089, -2.949001738439642, 0
5742, -4.372572732362136, -2.9806372816750506, 0
5743, -2.782274353289091, 4.579519755945096, 0
5744, -2.897272463956566, 4.564296018957765, 0
5745, -2.834449715725452, 4.531693410185985, 0
5746, -2.842914809386647, 4.592210452334331, 0
5747, -2.889170813475859, 4.648929638284152, 0
5748, -3.0191109208624884, 4.618663724840851, 0
5749, -2.9584571503123285, 4.652327703141721, 0
5750, -2.9987269274923354, 4.714476330583484, 0
5751, -2.960938248716154, 4.585324817593279, 0
5752, -3.1240471156752183, 4.691063384030153, 0
5753, -3.0503463578346564, 4.4967395098479015, 0
5754, -3.0649401767243956, 4.72178848317055, 0
5755, -3.0178822342709726, 4.553385782101644, 0
5756, -3.1069343530936666, 4.782838681080889, 0
5757, -3.0693612857008445, 4.658077939964453, 0
5758, -2.9523373255896344, 4.478196054967896, 0
5759, -3.234858921557848, 4.75920886786124, 0
5760, -3.1607569966081237, 4.5683789642262305, 0
5761, -2.9981306149214357, 4.504440306250589, 0
5762, -3.013121288813047, 4.42520903838142, 0
5763, -2.9429621012489933, 4.532858400265976, 0
5764, -2.8900306987382, 4.5048510890803595, 0
5765, -3.1744069099486225, 4.790027314884082, 0
5766, -3.1266072730684087, 4.624995027100662, 0
5767, -3.089733518070512, 4.55693816442037, 0
5768, -3.2147957961638043, 4.852379784372427, 0
5769, -3.1794278581337934, 4.725177039567151, 0
5770, -3.341613506021535, 4.830942679299461, 0
5771, -3.2712867328071904, 4.637716236177979, 0
5772, -3.2814380141009627, 4.860789173339928, 0
5773, -3.2369580747017674, 4.6936307761862475, 0
5774, -3.1990583837841693, 4.630088887214317, 0
5775, -3.322256234759076, 4.923198372884052, 0
5776, -3.287141992470169, 4.7967041987251315, 0
5777, -3.37991635802199, 4.709555166699895, 0
5778, -3.3449112082789276, 4.765246408151375, 0
5779, -3.3087054768895756, 4.699184711956513, 0
5780, -3.4690168340020353, 4.804406938857505, 0
5781, -3.4120785524636976, 4.7686179526647905, 0
5782, -3.4092091101114104, 4.836370384155203, 0
5783, -3.4821074678494353, 4.72039316160356, 0
5784, -3.3712627109699187, 4.885322371031476, 0
5785, -3.4891690223973924, 4.937536938904241, 0
5786, -3.4366747933091504, 4.896844679065185, 0
5787, -3.3948315334085244, 4.942955467912196, 0
5788, -3.4216125488007094, 5.006530006464034, 0
5789, -3.5013628116153486, 4.867600896396257, 0
5790, -3.487213076397504, 5.003193150375647, 0
5791, -3.4431368852966546, 4.960034726701177, 0
5792, -3.5916091451574936, 4.919366965902953, 0
5793, -3.5693803883178123, 4.792910776236895, 0
5794, -3.5136488020146026, 5.100476679834543, 0
5795, -3.537091664673441, 4.9098615000247445, 0
5796, -3.5743578639537024, 4.857217629809164, 0
5797, -3.5213558837952608, 4.81749223320965, 0
5798, -3.6341604231599702, 4.874086717081146, 0
5799, -3.687103817488692, 4.817770681455051, 0
5800, -3.0758211820713472, 4.4380308356232065, 0
5801, -3.1367612487656187, 4.49116830282198, 0
5802, -3.065924517461548, 4.359025930309809, 0
5803, -2.922707470353929, 4.38284860171664, 0
5804, -3.498758863193499, 4.636345828267812, 0
5805, -3.5436644252261456, 4.735085151950573, 0
5806, -3.600861639139223, 4.744279611250311, 0
5807, -3.5950706574701408, 5.040804548256373, 0
5808, -3.656878435203896, 5.041557125640515, 0
5809, -3.6267300346571454, 4.979133989468279, 0
5810, -3.648050915455395, 4.927855669673027, 0
5811, -3.564440267244602, 5.084395377713411, 0
5812, -3.555211609829874, 4.980957799597892, 0
5813, -3.6966342564084913, 4.947423009777444, 0
5814, -3.6205950486389957, 5.092359194617262, 0
5815, -3.535207051681037, 5.034873075434123, 0
5816, -3.6296054698040994, 4.798884540643428, 0
5817, -3.196192245426628, 4.515032233412447, 0
5818, -3.241766420290501, 4.571460975787256, 0
5819, -3.3040495194078665, 4.583414557059742, 0
5820, -3.3537734492604345, 4.639393499603341, 0
5821, -2.9585654772586842, 4.423983051500323, 0
5822, -3.4151563252041193, 4.656473035030779, 0
5823, -3.463360663409992, 4.6730059108965545, 0
5824, -2.7923263056832766, 4.446240593587628, 0
5825, -2.8069352463644335, 4.3317331077045615, 0
5826, -2.783251523027101, 4.386897174730272, 0
5827, -2.8529587607496296, 4.384158624143207, 0
5828, -2.7361781491566846, 4.334020919560209, 0
5829, -2.8867552441771442, 4.3261151774530875, 0
5830, -2.949001738443214, 4.326427549877842, 0
5831, -2.980637281686422, 4.3725727323712835, 0
5832, 2.7822743532887952, -4.579519755945597, 0
5833, 2.8972724639544762, -4.564296018958193, 0
5834, 2.8344497157241637, -4.531693410186547, 0
5835, 2.8429148093850447, -4.592210452334275, 0
5836, 2.889170813476517, -4.648929638283066, 0
5837, 3.0191109208716824, -4.6186637248376, 0
5838, 2.958457150317295, -4.652327703139621, 0
5839, 2.998726927491805, -4.714476330584335, 0
5840, 2.960938248721788, -4.585324817586215, 0
5841, 3.1240471156618024, -4.691063384035814, 0
5842, 3.0503463578421326, -4.496739509848234, 0
5843, 3.0649401767170783, -4.721788483173914, 0
5844, 3.0178822342778937, -4.553385782099934, 0
5845, 3.1069343530944895, -4.782838681079598, 0
5846, 3.0693612856923145, -4.658077939973874, 0
5847, 2.95233732559405, -4.47819605496312, 0
5848, 3.2348589215801593, -4.759208867851925, 0
5849, 3.160756996599415, -4.568378964227398, 0
5850, 2.998130614926722, -4.504440306247708, 0
5851, 3.013121288823289, -4.425209038371701, 0
5852, 2.9429621012447003, -4.532858400260983, 0
5853, 2.8900306987320183, -4.50485108908338, 0
5854, 3.1744069099607586, -4.790027314878597, 0
5855, 3.1266072730591272, -4.624995027104176, 0
5856, 3.089733518070069, -4.556938164416995, 0
5857, 3.2147957961626066, -4.852379784374259, 0
5858, 3.1794278581473923, -4.725177039550465, 0
5859, 3.3416135059887586, -4.830942679312848, 0
5860, 3.2712867328220825, -4.637716236176174, 0
5861, 3.281438014083087, -4.860789173347827, 0
5862, 3.236958074717106, -4.693630776180394, 0
5863, 3.1990583837862627, -4.630088887222523, 0
5864, 3.3222562347610407, -4.923198372881119, 0
5865, 3.287141992449638, -4.796704198748579, 0
5866, 3.3799163580005835, -4.709555166702767, 0
5867, 3.3449112082563905, -4.76524640815989, 0
5868, 3.308705476887942, -4.699184711944392, 0
5869, 3.4690168340307226, -4.804406938890415, 0
5870, 3.4120785524680466, -4.768617952684874, 0
5871, 3.4092091101114854, -4.836370384211303, 0
5872, 3.4821074678629884, -4.720393161630209, 0
5873, 3.3712627109268447, -4.885322371017548, 0
5874, 3.489169022188257, -4.937536938976791, 0
5875, 3.436674793196753, -4.8968446791082405, 0
5876, 3.3948315332849925, -4.942955467875237, 0
5877, 3.4216125488523916, -5.006530006388715, 0
5878, 3.501362811525664, -4.867600896489692, 0
5879, 3.4872130764226354, -5.003193150422441, 0
5880, 3.44313688510194, -4.9600347266068265, 0
5881, 3.6335190553262127, -4.926674222891743, 0
5882, 3.56938038839489, -4.792910776443979, 0
5883, 3.513648802014602, -5.100476679834544, 0
5884, 3.559970298923802, -4.913850534136911, 0
5885, 3.5213558838147687, -4.8174922333327, 0
5886, 3.07582118207678, -4.4380308356252245, 0
5887, 3.136761248766473, -4.4911683028238745, 0
5888, 3.0659245174615473, -4.35902593030981, 0
5889, 2.9227074703522966, -4.382848601698937, 0
5890, 3.4987588631934985, -4.636345828267814, 0
5891, 3.5436644253142733, -4.7350851520538795, 0
5892, 3.6008616391705046, -4.744279611472191, 0
5893, 3.600944269076819, -5.0324456732972775, 0
5894, 3.567679960362737, -5.079784894165344, 0
5895, 3.6333124717071676, -5.110030986603635, 0
5896, 3.54189493403952, -5.026309592656219, 0
5897, 3.5771436996511574, -4.974292928936601, 0
5898, 3.619154969800329, -5.175490287867961, 0
5899, 3.656090596620796, -5.054983485060888, 0
5900, 3.7235903541072872, -5.016566453876649, 0
5901, 3.650543972224044, -4.989819251283573, 0
5902, 3.6724440039527684, -5.1527549720342085, 0
5903, 3.7065636135794366, -4.940847843391808, 0
5904, 3.60782060394217, -4.8567377048435425, 0
5905, 3.1961922454293945, -4.515032233417634, 0
5906, 3.241766420288761, -4.571460975794343, 0
5907, 3.3040495194042943, -4.583414557052133, 0
5908, 3.353773449266161, -4.6393934995922725, 0
5909, 2.9585654772617502, -4.423983051488115, 0
5910, 3.764005689294724, -5.046263817971572, 0
5911, 3.7270166741049504, -4.876611581250029, 0
5912, 3.69142980926633, -4.811997849230662, 0
5913, 3.6314826993941813, -4.800463317810708, 0
5914, 3.6672984765795773, -4.867395332398524, 0
5915, 3.41515632521127, -4.656473035043355, 0
5916, 3.463360663421495, -4.673005910916883, 0
5917, 2.7923263056828933, -4.446240593589367, 0
5918, 2.8069352463652204, -4.331733107705538, 0
5919, 2.7832515230275368, -4.386897174731506, 0
5920, 2.8529587607491993, -4.384158624144117, 0
5921, 2.736178149156379, -4.334020919560663, 0
5922, 2.886755244160827, -4.3261151774472495, 0
5923, 2.949001738434951, -4.326427549848294, 0
5924, 2.980637281660081, -4.372572732350083, 0
5925, 4.579519755945096, 2.782274353289091, 0
5926, 4.564296018957765, 2.897272463956566, 0
5927, 4.531693410185985, 2.834449715725452, 0
5928, 4.592210452334331, 2.842914809386647, 0
5929, 4.648929638284152, 2.889170813475859, 0
5930, 4.618663724840851, 3.0191109208624884, 0
5931, 4.652327703141721, 2.9584571503123285, 0
5932, 4.714476330583484, 2.9987269274923354, 0
5933, 4.585324817593279, 2.960938248716154, 0
5934, 4.691063384030153, 3.1240471156752183, 0
5935, 4.4967395098479015, 3.0503463578346564, 0
5936, 4.72178848317055, 3.0649401767243956, 0
5937, 4.553385782101644, 3.0178822342709726, 0
5938, 4.782838681080889, 3.1069343530936666, 0
5939, 4.658077939964453, 3.0693612857008445, 0
5940, 4.478196054967896, 2.9523373255896344, 0
5941, 4.75920886786124, 3.234858921557848, 0
5942, 4.5683789642262305, 3.1607569966081237, 0
5943, 4.504440306250589, 2.9981306149214357, 0
5944, 4.42520903838142, 3.013121288813047, 0
5945, 4.532858400265976, 2.9429621012489933, 0
5946, 4.5048510890803595, 2.8900306987382, 0
5947, 4.790027314884082, 3.1744069099486225, 0
5948, 4.624995027100662, 3.1266072730684087, 0
5949, 4.55693816442037, 3.089733518070512, 0
5950, 4.852379784372427, 3.2147957961638043, 0
5951, 4.725177039567151, 3.1794278581337934, 0
5952, 4.830942679299461, 3.341613506021535, 0
5953, 4.637716236177979, 3.2712867328071904, 0
5954, 4.860789173339928, 3.2814380141009627, 0
5955, 4.6936307761862475, 3.2369580747017674, 0
5956, 4.630088887214317, 3.1990583837841693, 0
5957, 4.923198372884052, 3.322256234759076, 0
5958, 4.7967041987251315, 3.287141992470169, 0
5959, 4.709555166699895, 3.37991635802199, 0
5960, 4.765246408151375, 3.3449112082789276, 0
5961, 4.699184711956513, 3.3087054768895756, 0
5962, 4.804406938857505, 3.4690168340020353, 0
5963, 4.7686179526647905, 3.4120785524636976, 0
5964, 4.836370384155203, 3.4092091101114104, 0
5965, 4.72039316160356, 3.4821074678494353, 0
5966, 4.885322371031476, 3.3712627109699187, 0
5967, 4.937536938904241, 3.4891690223973924, 0
5968, 4.896844679065185, 3.4366747933091504, 0
5969, 4.942955467912196, 3.3948315334085244, 0
5970, 5.006530006464034, 3.4216125488007094, 0
5971, 4.867600896396257, 3.5013628116153486, 0
5972, 5.003193150375647, 3.487213076397504, 0
5973, 4.960034726701177, 3.4431368852966546, 0
5974, 4.929229640918616, 3.6481753565958663, 0
5975, 4.792910776236895, 3.5693803883178123, 0
5976, 5.100476679834543, 3.5136488020146026, 0
5977, 4.915202146586666, 3.5677223142851826, 0
5978, 4.81749223320965, 3.5213558837952608, 0
5979, 4.4380308356232065, 3.0758211820713472, 0
5980, 4.49116830282198, 3.1367612487656187, 0
5981, 4.359025930309809, 3.065924517461548, 0
5982, 4.38284860171664, 2.922707470353929, 0
5983, 4.636345828267812, 3.498758863193499, 0
5984, 4.735085151950573, 3.5436644252261456, 0
5985, 4.744279611250311, 3.600861639139223, 0
5986, 5.031249913951873, 3.6017845048746184, 0
5987, 5.079132062158455, 3.5681386921504035, 0
5988, 5.111062753314888, 3.6644740230349266, 0
5989, 5.025358434747587, 3.5425061895567893, 0
5990, 4.975382920445953, 3.57740501873584, 0
5991, 4.854750116307879, 3.6197119183958266, 0
5992, 4.796420815330694, 3.628419194214247, 0
5993, 4.783277873325607, 3.711725981141479, 0
5994, 4.515032233412447, 3.196192245426628, 0
5995, 4.571460975787256, 3.241766420290501, 0
5996, 4.583414557059742, 3.3040495194078665, 0
5997, 4.639393499603341, 3.3537734492604345, 0
5998, 4.423983051500323, 2.9585654772586842, 0
5999, 4.857932553164475, 3.5622716140874164, 0
6000, 4.9181719878941665, 3.746677069375437, 0
6001, 4.656473035030779, 3.4151563252041193, 0
6002, 4.870031561549103, 3.6914013839808466, 0
6003, 4.8670243959441795, 3.74262132338754, 0
6004, 4.887816942702728, 3.804946213172903, 0
6005, 4.994053929681691, 3.8232486546970743, 0
6006, 4.938007493434585, 3.831092752084548, 0
6007, 4.935597410840401, 3.92231938235796, 0
6008, 4.6730059108965545, 3.463360663409992, 0
6009, 4.820406431367024, 3.6748934436682292, 0
6010, 5.15827191842027, 3.902660113892552, 0
6011, 5.016257229802682, 3.903131125088334, 0
6012, 4.967551927565178, 3.8775184262362306, 0
6013, 5.087057382784129, 3.8404253170836298, 0
6014, 5.070774056156622, 3.983222532132284, 0
6015, 5.036367365580102, 3.8545145867269777, 0
6016, 5.024557707575577, 3.9560811651752292, 0
6017, 4.446240593587628, 2.7923263056832766, 0
6018, 4.3317331077045615, 2.8069352463644335, 0
6019, 4.386897174730272, 2.783251523027101, 0
6020, 4.384158624143207, 2.8529587607496296, 0
6021, 4.334020919560209, 2.7361781491566846, 0
6022, 4.3261151774530875, 2.8867552441771442, 0
6023, 4.326427549877842, 2.949001738443214, 0
6024, 4.3725727323712835, 2.980637281686422, 0
6025, -2.604095015043545, -4.13996477098117, 0
6026, -2.6522387915220205, -4.274907181381869, 0
6027, -2.594246137910871, -4.219537981334643, 0
6028, -2.6642575989737582, -4.204264104953137, 0
6029, -2.7352611620560943, -4.1655121749791935, 0
6030, -2.730590067660133, -4.251893474014849, 0
6031, -2.5768800194388897, -4.295781730257895, 0
6032, -2.532039716604304, -4.230500317862424, 0
6033, -2.4872353791313424, -4.1979631941412405, 0
6034, -2.846057289677577, -4.228638077409599, 0
6035, -2.7805833867050267, -4.246019369161733, 0
6036, -2.727907456410687, -4.387642596701755, 0
6037, -2.707846792555809, -4.319345099556214, 0
6038, -2.7606574839453057, -4.299591667642497, 0
6039, -2.811156890063394, -4.368490681105772, 0
6040, -2.6393500594132884, -4.3765591890524105, 0
6041, -2.6561344128555073, -4.327044220094893, 0
6042, -2.7632280289753757, -4.350663821842548, 0
6043, -2.872633267855724, -4.328214511110448, 0
6044, -2.941771893707459, -4.317604351576567, 0
6045, -2.95459327396785, -4.508823311306247, 0
6046, -2.8937653473975042, -4.427525869511487, 0
6047, -2.863921013558153, -4.381972343883769, 0
6048, -2.967981076785875, -4.394494634906419, 0
6049, -2.5951194470967742, -4.346220728435809, 0
6050, -2.7931977498438187, -4.480936027592604, 0
6051, -2.8240051802417443, -4.428199577797785, 0
6052, -2.766619943904122, -4.430043156164943, 0
6053, -2.7057692493100407, -4.494207545517962, 0
6054, -2.918324667946118, -4.368508717346172, 0
6055, -3.0443086188351605, -4.394534295459634, 0
6056, -2.948287236802026, -4.450136689985713, 0
6057, -3.086134677519487, -4.519724369914655, 0
6058, -3.023892572694976, -4.471694801985254, 0
6059, -3.088703325235796, -4.452050691287594, 0
6060, -3.159324488362499, -4.451375877527884, 0
6061, -2.5633123202308368, -4.450865617658824, 0
6062, -2.594329330118927, -4.40654740307389, 0
6063, -2.6532835835629496, -4.446265805810522, 0
6064, -2.680823516241872, -4.404515019300447, 0
6065, -2.6503624435253816, -4.502164814764133, 0
6066, -2.60943727708888, -4.470850650825607, 0
6067, -4.139964770981172, 2.6040950150435442, 0
6068, -4.2749071813818675, 2.6522387915220214, 0
6069, -4.219537981334645, 2.5942461379108672, 0
6070, -4.204264104953135, 2.664257598973752, 0
6071, -4.165512174979194, 2.735261162056094, 0
6072, -4.251893474014839, 2.730590067660128, 0
6073, -4.295781730257916, 2.5768800194388763, 0
6074, -4.2305003178624245, 2.5320397166042974, 0
6075, -4.197963194141238, 2.4872353791313433, 0
6076, -4.2286380774096, 2.846057289677577, 0
6077, -4.246019369161735, 2.780583386705026, 0
6078, -4.387642596701685, 2.7279074564106813, 0
6079, -4.319345099556174, 2.7078467925558036, 0
6080, -4.299591667642479, 2.7606574839453004, 0
6081, -4.368490681105723, 2.8111568900633364, 0
6082, -4.376559189052365, 2.639350059413281, 0
6083, -4.327044220094873, 2.6561344128555224, 0
6084, -4.3506638218425, 2.76322802897535, 0
6085, -4.328214511110469, 2.8726332678557305, 0
6086, -4.3176043515765645, 2.9417718937074606, 0
6087, -4.508823311306241, 2.9545932739678418, 0
6088, -4.427525869511548, 2.8937653473973843, 0
6089, -4.381972343883786, 2.863921013558087, 0
6090, -4.394494634906511, 2.9679810767858608, 0
6091, -4.346220728435813, 2.595119447096756, 0
6092, -4.4809360275923815, 2.793197749843738, 0
6093, -4.4281995777976535, 2.8240051802416435, 0
6094, -4.430043156164779, 2.7666199439040997, 0
6095, -4.494207545517815, 2.7057692493098213, 0
6096, -4.3685087173462005, 2.918324667946094, 0
6097, -4.394534295459646, 3.0443086188351534, 0
6098, -4.450136689985741, 2.9482872368018964, 0
6099, -4.519724369914689, 3.086134677519503, 0
6100, -4.4716948019851, 3.0238925726950057, 0
6101, -4.452050691287635, 3.0887033252358798, 0
6102, -4.451375877527811, 3.1593244883625458, 0
6103, -4.450865617658815, 2.563312320230842, 0
6104, -4.406547403073872, 2.5943293301189305, 0
6105, -4.446265805810362, 2.6532835835629047, 0
6106, -4.404515019300345, 2.680823516241877, 0
6107, -4.502164814763892, 2.650362443525224, 0
6108, -4.470850650825597, 2.6094372770889023, 0
6109, 4.13996477098117, -2.6040950150435456, 0
6110, 4.274907181381868, -2.652238791522021, 0
6111, 4.219537981334643, -2.5942461379108703, 0
6112, 4.204264104953136, -2.6642575989737565, 0
6113, 4.1655121749791935, -2.7352611620560943, 0
6114, 4.251893474014845, -2.7305900676601316, 0
6115, 4.295781730257894, -2.5768800194388923, 0
6116, 4.230500317862422, -2.532039716604304, 0
6117, 4.19796319414124, -2.487235379131342, 0
6118, 4.228638077409599, -2.8460572896775775, 0
6119, 4.246019369161733, -2.7805833867050267, 0
6120, 4.387642596701732, -2.7279074564106853, 0
6121, 4.319345099556201, -2.707846792555807, 0
6122, 4.299591667642491, -2.7606574839453044, 0
6123, 4.368490681105756, -2.811156890063376, 0
6124, 4.3765591890523945, -2.6393500594132893, 0
6125, 4.327044220094885, -2.656134412855513, 0
6126, 4.350663821842533, -2.7632280289753677, 0
6127, 4.328214511110454, -2.872633267855726, 0
6128, 4.317604351576567, -2.9417718937074593, 0
6129, 4.508823311306247, -2.9545932739678507, 0
6130, 4.427525869511508, -2.893765347397467, 0
6131, 4.381972343883775, -2.863921013558133, 0
6132, 4.39449463490645, -2.967981076785872, 0
6133, 4.3462207284358065, -2.5951194470967702, 0
6134, 4.4809360275925325, -2.7931977498437925, 0
6135, 4.428199577797742, -2.824005180241712, 0
6136, 4.43004315616489, -2.7666199439041144, 0
6137, 4.494207545517915, -2.70576924930997, 0
6138, 4.368508717346183, -2.918324667946112, 0
6139, 4.3945342954596365, -3.044308618835159, 0
6140, 4.450136689985723, -2.948287236801986, 0
6141, 4.51972436991466, -3.086134677519491, 0
6142, 4.471694801985205, -3.0238925726949835, 0
6143, 4.452050691287602, -3.0887033252358176, 0
6144, 4.451375877527865, -3.1593244883625116, 0
6145, 4.450865617658826, -2.5633123202308363, 0
6146, 4.406547403073892, -2.594329330118935, 0
6147, 4.446265805810462, -2.653283583562948, 0
6148, 4.404515019300406, -2.680823516241876, 0
6149, 4.502164814764047, -2.6503624435253292, 0
6150, 4.470850650825599, -2.609437277088895, 0
6151, 5.515260953215741, -4.279333537543404, 0
6152, 5.560404475370666, -4.236269231818619, 0
6153, 5.529150125367655, -4.165156714554512, 0
6154, 5.440676128497199, -4.29244601779455, 0
6155, 5.517497263398146, -4.212702702370537, 0
6156, 5.329405966514749, -4.205660217852324, 0
6157, 5.356810335871441, -4.285248392379245, 0
6158, 5.32926546135108, -4.33785391512781, 0
6159, 5.251945624064085, -4.333806230413822, 0
6160, 5.28441772954655, -4.266421481467847, 0
6161, 5.403271270128106, -4.236087097512031, 0
6162, 5.414277513029271, -4.1220038660461675, 0
6163, 5.426391243606541, -4.18074507732948, 0
6164, 5.472854556377533, -4.140543655077385, 0
6165, 5.232073337437322, -4.180629680626078, 0
6166, 5.238864775757625, -4.235350417129956, 0
6167, 5.171553976311649, -4.232239112846374, 0
6168, 2.6040950150435442, 4.139964770981172, 0
6169, 2.6522387915220214, 4.2749071813818675, 0
6170, 2.5942461379108672, 4.219537981334645, 0
6171, 2.664257598973752, 4.204264104953135, 0
6172, 2.735261162056094, 4.165512174979194, 0
6173, 2.730590067660128, 4.251893474014839, 0
6174, 2.5768800194388763, 4.295781730257916, 0
6175, 2.5320397166042974, 4.2305003178624245, 0
6176, 2.4872353791313433, 4.197963194141238, 0
6177, 2.846057289677577, 4.2286380774096, 0
6178, 2.780583386705026, 4.246019369161735, 0
6179, 2.7279074564106813, 4.387642596701685, 0
6180, 2.7078467925558036, 4.319345099556174, 0
6181, 2.7606574839453004, 4.299591667642479, 0
6182, 2.8111568900633364, 4.368490681105723, 0
6183, 2.639350059413281, 4.376559189052365, 0
6184, 2.6561344128555224, 4.327044220094873, 0
6185, 2.76322802897535, 4.3506638218425, 0
6186, 2.8726332678557305, 4.328214511110469, 0
6187, 2.9417718937074606, 4.3176043515765645, 0
6188, 2.9545932739678418, 4.508823311306241, 0
6189, 2.8937653473973843, 4.427525869511548, 0
6190, 2.863921013558087, 4.381972343883786, 0
6191, 2.9679810767858608, 4.394494634906511, 0
6192, 2.595119447096756, 4.346220728435813, 0
6193, 2.793197749843738, 4.4809360275923815, 0
6194, 2.8240051802416435, 4.4281995777976535, 0
6195, 2.7666199439040997, 4.430043156164779, 0
6196, 2.7057692493098213, 4.494207545517815, 0
6197, 2.918324667946094, 4.3685087173462005, 0
6198, 3.0443086188351534, 4.394534295459646, 0
6199, 2.9482872368018964, 4.450136689985741, 0
6200, 3.086134677519503, 4.519724369914689, 0
6201, 3.0238925726950057, 4.4716948019851, 0
6202, 3.0887033252358798, 4.452050691287635, 0
6203, 3.1593244883625458, 4.451375877527811, 0
6204, 2.563312320230842, 4.450865617658815, 0
6205, 2.5943293301189305, 4.406547403073872, 0
6206, 2.6532835835629047, 4.446265805810362, 0
6207, 2.680823516241877, 4.404515019300345, 0
6208, 2.650362443525224, 4.502164814763892, 0
6209, 2.6094372770889023, 4.470850650825597, 0
6210, -5.366012703351921, -0.12217047374234333, 0
6211, -5.629757017767421, -0.03076933216390653, 0
6212, -5.787229110292419, -0.11391384353150763, 0
6213, -5.837985386072027, -0.1671596420556724, 0
6214, -5.870505751741949, -0.08534530055105427, 0
6215, -5.818238130916037, -0.06864540830607355, 0
6216, -6.345548143868122, -0.1671596420556724, 0
6217, -5.888741661851637, -0.1399643161475862, 0
6218, -5.947196335551776, -0.04364096958928918, 0
6219, -5.944544273646717, -0.09677894979707806, 0
6220, -6.142523040749684, -0.1671596420556724, 0
6221, -6.041010489190466, -0.1671596420556724, 0
6222, -5.990254213410856, -0.13542763742709507, 0
6223, -6.177668339299949, -0.02640748329396307, 0
6224, -6.091766764970075, -0.029514403233787567, 0
6225, -6.052046363362436, -0.09304835520663389, 0
6226, -5.8995331878920885, 0.16715964205567213, 0
6227, -6.18709356641394, 0.16715964205567208, 0
6228, -5.994098589300502, -0.01852410341928798, 0
6229, -6.253879157625026, 0.01334983796999372, 0
6230, -6.244035592308903, -0.1671596420556724, 0
6231, -6.244847155589212, -0.11555917546901935, 0
6232, -6.125971838312865, -0.09508211623477937, 0
6233, -5.894516892184414, -0.03618747246267094, 0
6234, -6.193279316529293, -0.11756535632043444, 0
6235, -6.091766764970075, -0.14087574012730522, 0
6236, -6.280913743198479, -0.07864755067219828, 0
6237, -5.950050101679642, 0.06295707182899471, 0
6238, -5.909989238158308, 0.02027110545971593, 0
6239, -6.234450565478902, -0.042330417519913274, 0
6240, -5.995386647399372, 0.16715964205567213, 0
6241, -6.175479020712391, 0.07071215028065356, 0
6242, -6.04091961691863, -0.04190883979756582, 0
6243, -6.20052976985129, 0.022692363463112653, 0
6244, -6.1329406117304055, 0.02116873538972481, 0
6245, -6.091240106906656, 0.1671596420556721, 0
6246, -6.060636467664859, 0.03784107794691971, 0
6247, -6.121416059774632, 0.07409744870285673, 0
6248, -6.061187016222089, 0.10599129404546626, 0
6249, -6.010322994469447, 0.07232486499280244, 0
6250, -5.727585966147989, 0.03924279167049882, 0
6251, -5.659899539123879, 0.1325492476063332, 0
6252, -5.717568938981689, 0.10318002648638602, 0
6253, -5.755752998631163, 0.14172621168982977, 0
6254, -0.12217047374102841, 5.36601270325249, 0
6255, -0.03076933131857284, 5.62975701763075, 0
6256, -0.11391384335419598, 5.787229110292419, 0
6257, -0.16715964205567263, 5.837985386072027, 0
6258, -0.08534530079056549, 5.870505751590493, 0
6259, -0.06864540846874616, 5.818238131021198, 0
6260, -0.16715964205567257, 6.345548143868122, 0
6261, -0.1399643162737245, 5.888741661851637, 0
6262, -0.043640970445880355, 5.94719633435479, 0
6263, -0.09677895049047107, 5.944544273167873, 0
6264, -0.16715964205567257, 6.142523040749684, 0
6265, -0.16715964205567257, 6.041010489190466, 0
6266, -0.13542763749686962, 5.990254213410856, 0
6267, -0.02640748310641758, 6.177668339153148, 0
6268, -0.029514403000898887, 6.091766764970075, 0
6269, -0.09304835510181868, 6.052046363369707, 0
6270, 0.16715964205567213, 5.8995331878920885, 0
6271, 0.16715964205567208, 6.18709356641394, 0
6272, -0.018524105457015716, 5.99409858851053, 0
6273, 0.013349838178234645, 6.253879157300112, 0
6274, -0.16715964205567257, 6.244035592308903, 0
6275, -0.11555917539815666, 6.244847155655441, 0
6276, -0.09508211607393882, 6.125971838448197, 0
6277, -0.03618747324897117, 5.894516891198146, 0
6278, -0.11756535639663894, 6.193279316529294, 0
6279, -0.14087573996089414, 6.091766764970075, 0
6280, -0.07864755052221128, 6.280913743286604, 0
6281, 0.06295707000953227, 5.950050104031728, 0
6282, 0.02027110440924127, 5.90998923925777, 0
6283, -0.04233041747757303, 6.234450565377565, 0
6284, 0.16715964205567213, 5.995386647399372, 0
6285, 0.07071215039128706, 6.1754790204069065, 0
6286, -0.0419088397585264, 6.040919617061768, 0
6287, 0.022692363650691966, 6.20052976957725, 0
6288, 0.021168735470807935, 6.132940611684572, 0
6289, 0.1671596420556721, 6.091240106906656, 0
6290, 0.0378410779276563, 6.06063646795623, 0
6291, 0.07409744866659375, 6.121416059533121, 0
6292, 0.10599129410101764, 6.061187015949696, 0
6293, 0.07232486458260803, 6.010322995642688, 0
6294, 0.03924279511103292, 5.727585966133776, 0
6295, 0.1325492472147774, 5.659899539123879, 0
6296, 0.10318002806784439, 5.7175689380795784, 0
6297, 0.1417262121042266, 5.755752998631163, 0
6298, 0.1221704737419007, -5.366012703318905, 0
6299, 0.030769331883283804, -5.6297570177220475, 0
6300, 0.11391384347264874, -5.787229110292419, 0
6301, 0.16715964205567224, -5.837985386072027, 0
6302, 0.08534530063055977, -5.870505751691673, 0
6303, 0.06864540836007235, -5.818238130950945, 0
6304, 0.1671596420556723, -6.345548143868122, 0
6305, 0.1399643161894575, -5.888741661851637, 0
6306, 0.043640969873634625, -5.947196335154436, 0
6307, 0.09677895002724975, -5.9445442734877645, 0
6308, 0.1671596420556723, -6.142523040749684, 0
6309, 0.1671596420556723, -6.041010489190466, 0
6310, 0.1354276374502563, -5.990254213410856, 0
6311, 0.026407483231708093, -6.17766833925122, 0
6312, 0.02951440315648092, -6.091766764970075, 0
6313, 0.09304835517184072, -6.052046363364849, 0
6314, -0.16715964205567285, -5.8995331878920885, 0
6315, -0.16715964205567285, -6.18709356641394, 0
6316, 0.018524104095711938, -5.99409858903827, 0
6317, -0.01334983803911828, -6.253879157517174, 0
6318, 0.1671596420556723, -6.244035592308903, 0
6319, 0.11555917544549657, -6.244847155611197, 0
6320, 0.09508211618138893, -6.1259718383577875, 0
6321, 0.03618747272368317, -5.894516891857021, 0
6322, 0.11756535634572957, -6.193279316529294, 0
6323, 0.14087574007206588, -6.091766764970075, 0
6324, 0.07864755062241098, -6.280913743227733, 0
6325, -0.06295707122502402, -5.950050102460417, 0
6326, -0.020271105111010844, -5.909989238523274, 0
6327, 0.04233041750585877, -6.234450565445265, 0
6328, -0.16715964205567285, -5.995386647399372, 0
6329, -0.0707121503173782, -6.175479020610989, 0
6330, 0.041908839784606675, -6.040919616966144, 0
6331, -0.02269236352537874, -6.200529769760325, 0
6332, -0.02116873541664062, -6.132940611715192, 0
6333, -0.16715964205567285, -6.091240106906656, 0
6334, -0.037841077940526754, -6.0606364677615785, 0
6335, -0.07409744869082051, -6.121416059694465, 0
6336, -0.10599129406390682, -6.061187016131671, 0
6337, -0.07232486485664281, -6.010322994858904, 0
6338, -0.039242792812683065, -5.727585966143268, 0
6339, -0.1325492474763389, -5.659899539123879, 0
6340, -0.10318002701139772, -5.717568938682211, 0
6341, -0.14172621182740386, -5.755752998631163, 0
6342, 5.366012703225702, 0.12217047374067129, 0
6343, 5.629757017593931, 0.03076933109085482, 0
6344, 5.787229110292419, 0.11391384330643328, 0
6345, 5.837985386072027, 0.16715964205567233, 0
6346, 5.870505751549694, 0.08534530085508207, 0
6347, 5.818238131049525, 0.06864540851256506, 0
6348, 6.345548143868122, 0.16715964205567224, 0
6349, 5.888741661851637, 0.13996431630770176, 0
6350, 5.947196334032357, 0.04364097067662078, 0
6351, 5.944544273038886, 0.09677895067725054, 0
6352, 6.142523040749684, 0.16715964205567227, 0
6353, 6.041010489190466, 0.16715964205567227, 0
6354, 5.990254213410856, 0.13542763751566456, 0
6355, 6.177668339113604, 0.026407483055897227, 0
6356, 6.091766764970075, 0.029514402938164902, 0
6357, 6.052046363371665, 0.0930483550735841, 0
6358, 5.8995331878920885, -0.16715964205567335, 0
6359, 6.18709356641394, -0.16715964205567335, 0
6360, 5.994098588297734, 0.01852410600591957, 0
6361, 6.253879157212589, -0.01334983823433026, 0
6362, 6.244035592308903, 0.16715964205567227, 0
6363, 6.244847155673281, 0.1155591753790679, 0
6364, 6.125971838484652, 0.09508211603061259, 0
6365, 5.894516890932474, 0.03618747346077673, 0
6366, 6.193279316529294, 0.1175653564171666, 0
6367, 6.091766764970075, 0.140875739916067, 0
6368, 6.280913743310341, 0.0786475504818081, 0
6369, 5.950050104665312, -0.06295706951942293, 0
6370, 5.9099892395539335, -0.02027110412627485, 0
6371, 6.234450565350267, 0.04233041746616619, 0
6372, 5.995386647399372, -0.16715964205567335, 0
6373, 6.175479020324617, -0.07071215042108969, 0
6374, 6.040919617100324, 0.041908839748009644, 0
6375, 6.200529769503432, -0.02269236370122163, 0
6376, 6.132940611672225, -0.021168735492650227, 0
6377, 6.091240106906656, -0.16715964205567335, 0
6378, 6.060636468034717, -0.03784107792246724, 0
6379, 6.121416059468063, -0.07409744865682631, 0
6380, 6.061187015876319, -0.10599129411598265, 0
6381, 6.010322995958725, -0.07232486447211198, 0
6382, 5.727585966129945, -0.039242796037880494, 0
6383, 5.659899539123879, -0.13254924710929222, 0
6384, 5.717568937836561, -0.10318002849387563, 0
6385, 5.755752998631163, -0.14172621221586412, 0
6386, -4.3432961428888035, -5.722282677324311, 0
6387, -4.466610248921205, -5.463766230277473, 0
6388, -4.548539984875971, -5.539377578978078, 0
6389, -4.614158511713983, -5.573239173542456, 0
6390, -4.563261572801824, -5.591359490510902, 0
6391, -4.603257148077625, -5.513854258893789, 0
6392, -4.228207977154498, -5.412862336753921, 0
6393, -5.90671219667789, 4.749941543953271, 0
6394, -5.895361348767359, 4.6408922202321214, 0
6395, -5.8614083793757255, 4.563534959222606, 0
6396, -5.771402214370397, 4.551054778177811, 0
6397, -5.812335978015986, 4.586642502616304, 0
6398, -5.785564395212356, 4.649001026187203, 0
6399, -5.677618012122126, 4.577296252191541, 0
6400, -5.728915829923642, 4.579921072149341, 0
6401, -5.6071041937133845, 4.5409293441681635, 0
6402, -5.597736913430791, 4.591131881392311, 0
6403, -5.572689954787206, 4.394952312588861, 0
6404, -5.609915665925292, 4.4632214243091495, 0
6405, -5.6816112666866445, 4.4186829788538615, 0
6406, -5.498601615667398, 4.4796348807006, 0
6407, -5.739606327774503, 4.464292676922964, 0
6408, -5.728961477721959, 4.517400919897096, 0
6409, -5.8027188201555, 4.444656198297929, 0
6410, -5.784417916999637, 4.497077683959024, 0
6411, -5.722282677324312, 4.3432961428888035, 0
6412, -5.626477575363925, 4.409906808704114, 0
6413, -5.618551096182785, 4.334208765971392, 0
6414, -5.543309551226014, 4.527175619539424, 0
6415, -5.554343908868368, 4.47200643012223, 0
6416, -5.486799412005088, 4.535526162605575, 0
6417, -5.436876665356639, 4.495792557474876, 0
6418, -5.432293091911061, 4.352304054742293, 0
6419, -5.417118376729369, 4.424606253210909, 0
6420, -5.491402111174128, 4.402453324763181, 0
6421, -5.36401716765436, 4.3757178965564245, 0
6422, -5.350720453428424, 4.225689106234847, 0
6423, -5.333207001447533, 4.434503618350259, 0
6424, -5.319016140392106, 4.304102612284177, 0
6425, -5.66830665860025, 4.362840516904054, 0
6426, -5.616477988391775, 4.261623876654026, 0
6427, -5.495430083983191, 4.248151137918912, 0
6428, -5.550953300891247, 4.299817386801893, 0
6429, -5.558057799089523, 4.235985924195517, 0
6430, -5.530288138392817, 4.164280999066802, 0
6431, -5.534620238659703, 4.426599271021717, 0
6432, -5.392651687168752, 4.28825896066072, 0
6433, -5.275517332732098, 4.2408989530871475, 0
6434, -5.251945624064085, 4.3338062304138205, 0
6435, -5.486181206240084, 4.313757640482944, 0
6436, -5.446583309894317, 4.274720144789858, 0
6437, -5.430756294626815, 4.187435799423237, 0
6438, -5.528922400649528, 4.354901743296244, 0
6439, -5.277658818963112, 4.0579662791827475, 0
6440, -5.205945490395001, 4.205280471825936, 0
6441, -5.404365483462828, 4.235073900796685, 0
6442, -5.470068750170153, 4.130923752324458, 0
6443, -5.45548266260204, 4.0580706200787695, 0
6444, -5.366585430201146, 4.032983885326494, 0
6445, -5.416544072593025, 4.026001950437845, 0
6446, -5.386992590877589, 4.115061868870429, 0
6447, -5.296204348681495, 4.14966225241195, 0
6448, -5.195908706047269, 4.109282201841417, 0
6449, -5.333187632703696, 4.084863546968604, 0
6450, -5.374294994966654, 4.1721586382315285, 0
6451, -5.306371240098343, 4.199931132154946, 0
6452, -5.1796731411734624, 4.159503474622803, 0
6453, -5.554680087886909, 4.627871335134022, 0
6454, -5.249189259292954, -3.820534757308107, 0
6455, -5.3287009881659815, -3.8286587944217656, 0
6456, -5.251704455333837, -3.7241639104440756, 0
6457, -5.2072431387476055, -3.746833532004554, 0
6458, -4.858811919874203, -3.8173470263859697, 0
6459, 3.8205347573082618, -5.2491892592932965, 0
6460, 3.828658794421765, -5.328700988165982, 0
6461, 3.724163910444075, -5.2517044553338375, 0
6462, 3.746833532011633, -5.207243138754589, 0
6463, 3.8173470263859697, -4.858811919874205, 0
6464, -4.426287880779611, -3.174995617624034, 0
6465, -4.494928513929214, -3.2834917086335222, 0
6466, -4.564947829758614, -3.3914127904900098, 0
6467, -3.174995617624035, 4.426287880779612, 0
6468, -3.2834917086335222, 4.494928513929214, 0
6469, -3.39141279049001, 4.564947829758614, 0
6470, 3.1749956176240346, -4.426287880779612, 0
6471, 3.283491708633522, -4.494928513929214, 0
6472, 3.3914127904900093, -4.564947829758614, 0
6473, 4.426287880779612, 3.174995617624035, 0
6474, 5.1754902878679605, 3.6191549698003294, 0
6475, 5.015922061173491, 3.703450495390961, 0
6476, 4.494928513929214, 3.2834917086335222, 0
6477, 4.564947829758614, 3.39141279049001, 0
6478, 5.0872948230622175, 3.9120159872418934, 0
6479, 5.155626972676906, 3.7601672007128633, 0
6480, 5.013379869699806, 4.026495688818441, 0
6481, 5.188979983282212, 4.055269378330864, 0
6482, -2.8222426090248827, -4.292006083667301, 0
6483, -2.8717289041602183, -4.507418746265424, 0
6484, -2.9115317741834734, -4.604244844253116, 0
6485, -2.8091253667265965, -4.563383157773838, 0
6486, -2.9124977838099886, -4.547253692827062, 0
6487, -2.8531141970491096, -4.601894460392654, 0
6488, -2.7614188808761457, -4.614851804636142, 0
6489, -2.756056595398551, -4.530873232160925, 0
6490, -2.824550750487562, -4.517641132285899, 0
6491, -2.71605964913236, -4.44303024915333, 0
6492, -4.292006083667308, 2.8222426090248884, 0
6493, -4.507418746265589, 2.8717289041601095, 0
6494, -4.604244844253255, 2.9115317741836146, 0
6495, -4.563383157773781, 2.8091253667261618, 0
6496, -4.547253692827155, 2.9124977838100117, 0
6497, -4.601894460392401, 2.8531141970490856, 0
6498, -4.614851804636142, 2.7614188808761453, 0
6499, -4.530873232160554, 2.7560565953983995, 0
6500, -4.517641132285859, 2.8245507504873526, 0
6501, -4.443030249153231, 2.716059649132357, 0
6502, 4.292006083667303, -2.822242609024885, 0
6503, 4.507418746265481, -2.871728904160184, 0
6504, 4.604244844253165, -2.911531774183523, 0
6505, 4.563383157773821, -2.809125366726455, 0
6506, 4.547253692827095, -2.912497783809999, 0
6507, 4.601894460392572, -2.8531141970491047, 0
6508, 4.614851804636142, -2.761418880876146, 0
6509, 4.530873232160805, -2.756056595398502, 0
6510, 4.517641132285887, -2.8245507504874947, 0
6511, 4.4430302491532965, -2.7160596491323563, 0
6512, 5.305568598856792, -4.096596215375279, 0
6513, 2.8222426090248884, 4.292006083667308, 0
6514, 2.8717289041601095, 4.507418746265589, 0
6515, 2.9115317741836146, 4.604244844253255, 0
6516, 2.8091253667261618, 4.563383157773781, 0
6517, 2.9124977838100117, 4.547253692827155, 0
6518, 2.8531141970490856, 4.601894460392401, 0
6519, 2.7614188808761453, 4.614851804636142, 0
6520, 2.7560565953983995, 4.530873232160554, 0
6521, 2.8245507504873526, 4.517641132285859, 0
6522, 2.716059649132357, 4.443030249153231, 0
6523, 0.16715964205567202, 6.378800485428507, 0
6524, -5.81869376641418, 0.08099394933754092, 0
6525, -5.885889855417367, 0.08303000648200431, 0
6526, -5.76500989499882, 0.0778592869514472, 0
6527, -5.795143077539438, 0.023061099306003814, 0
6528, -5.851606458138447, 0.13176084681990585, 0
6529, -0.1260478281536115, -5.94745991764573, 0
6530, -6.139166836660298, 0.13127670051848556, 0
6531, -5.729178551090247, -0.011807742038794134, 0
6532, -5.6714949565522, 0.01920431976953843, 0
6533, -0.16715964205567285, -6.378800485428507, 0
6534, 0.08099394893252425, 5.818693766103992, 0
6535, 0.0830300074045555, 5.885889856805989, 0
6536, 0.07785929027490794, 5.765009894731549, 0
6537, 0.02306110051223583, 5.795143073353389, 0
6538, 0.13176084678840677, 5.851606458138447, 0
6539, 5.94745991764573, -0.12604782706612655, 0
6540, 0.13127670045013867, 6.139166836660298, 0
6541, -0.011807739932773682, 5.72917855113268, 0
6542, 0.019204320091299854, 5.671494957072906, 0
6543, 6.378800485428507, -0.16715964205567335, 0
6544, -0.08099394920309136, -5.818693766311197, 0
6545, -0.08303000678825223, -5.885889855878313, 0
6546, -0.07785928805476142, -5.765009894910089, 0
6547, -0.023061099706450143, -5.795143076149766, 0
6548, -0.1317608468094571, -5.851606458138447, 0
6549, -4.434503618350259, -5.333207001447532, 0
6550, -0.13127670049579943, -6.139166836660298, 0
6551, 0.01180774133963449, -5.729178551104331, 0
6552, -0.01920431987636611, -5.6714949567250565, 0
6553, -4.4430539004160075, -5.412367025739854, 0
6554, 5.818693766020425, -0.08099394882342245, 0
6555, 5.885889857180039, -0.08303000765307003, 0
6556, 5.7650098946595465, -0.07785929117021387, 0
6557, 5.795143072225711, -0.02306110083718598, 0
6558, 5.851606458138447, -0.13176084677992805, 0
6559, -4.331030434460019, -5.520672190899801, 0
6560, 6.139166836660298, -0.13127670043172876, 0
6561, 5.729178551144109, 0.01180773936542755, 0
6562, 5.6714949572131745, -0.019204320177986324, 0
6563, -4.387621612105863, -5.40122964747119, 0
6564, -4.534331276655688, -5.41533810846199, 0
6565, -4.497986042365413, -5.511962280650089, 0
6566, -4.531423582386752, -5.4693921034986435, 0
6567, -4.508925542059419, -5.573972370547072, 0
6568, -4.292615115164106, -5.480393538951678, 0
6569, -5.484879201745698, 4.194587076111717, 0
6570, -5.37392361622575, 3.956914371697722, 0
6571, -5.244256699566942, 3.9297683245531045, 0
6572, -5.306191581414015, 3.9887691785981154, 0
6573, -5.311947992137961, 3.920718675486523, 0
6574, -5.301960911109972, 3.8484850009788985, 0
6575, -5.189913391689103, 3.8300650307173383, 0
6576, -5.249059745360905, 3.8202804733726614, 0
6577, -5.2172600138854035, 3.7493865859390856, 0
6578, -5.227595163483737, 3.8741881349914222, 0
6579, -5.106797944102859, 3.939198772233441, 0
6580, -5.1601629762117325, 3.893624259858958, 0
6581, -5.036165074772272, 3.7968417691916114, 0
6582, -5.086001163468666, 3.860816095266358, 0
6583, -5.123996109854704, 3.762747922459338, 0
6584, -4.993342512359732, 3.881598958800757, 0
6585, -5.090284297924985, 3.806081173460244, 0
6586, -5.174014052006873, 3.77970191519967, 0
6587, -5.16447921027814, 3.7131474531824455, 0
6588, -5.145266989192865, 3.6408956368744083, 0
6589, -5.048954972953447, 3.912595604733972, 0
6590, -5.034764996389983, 3.8493307863194306, 0
6591, -4.953670101025238, 3.6229896119082357, 0
6592, -5.051241506010523, 3.6129717030278874, 0
6593, -5.104009715946622, 3.60755385423296, 0
6594, -5.253678992769244, 4.110539609276133, 0
6595, -5.121292220670265, 4.107307257209782, 0
6596, -5.160958401339035, 4.019208158688986, 0
6597, -5.1676069347721105, 3.956371579658463, 0
6598, -5.1059869460608684, 4.0474368340055245, 0
6599, -5.044586945400055, 4.002966673775956, 0
6600, -5.1595726623696505, 4.07156353609508, 0
6601, -5.21655585773756, 4.046875736340224, 0
6602, -5.098422774717923, 3.9932580885703244, 0
6603, -5.0224046617803415, 3.9566034099270944, 0
6604, -5.24439502174421, 3.9916309581555836, 0
6605, 4.9905417748818515, 3.647635530994665, 0
6606, 5.052433076855785, 3.656966682543976, 0
6607, 5.051631966988986, 3.771864033941487, 0
6608, 5.076379711161972, 3.7154198781419834, 0
6609, 5.106012042041458, 3.7871987534404394, 0
6610, 5.162219443662812, 3.8313158358829, 0
6611, 5.220198854281366, 3.7900638560606885, 0
6612, 5.208141657263044, 3.731424753167115, 0
6613, 5.157424828714511, 3.701106595362438, 0
6614, 5.272039496495567, 3.8706699836692726, 0
6615, 5.26223276488884, 3.820003702416653, 0
6616, 5.328700988165982, 3.828658794421766, 0
6617, 5.210403107633924, 3.869763217879849, 0
6618, 5.239795297436512, 3.967147668101456, 0
6619, 5.2079507146144115, 3.923631131826486, 0
6620, 5.153628318130249, 3.9829886735249076, 0
6621, 5.20204770145012, 4.0040927072533785, 0
6622, 5.2868792821054615, 4.053010770804175, 0
6623, 5.117146625121892, 4.045616851621564, 0
6624, 5.092032058190222, 4.129802265647912, 0
6625, 5.250978975895368, 4.167692198439748, 0
6626, 5.146380389521997, 4.100176849802841, 0
6627, 5.209410863006549, 4.117309174301787, 0
6628, 5.238373676291987, 4.073387135596141, 0
6629, 5.171553976311649, 4.232239112846372, 0
6630, 5.191292240770496, 4.174597031652442, 0
6631, 5.380353333082358, 4.255276568707158, 0
6632, 5.232272172287764, 4.225813171764125, 0
6633, 5.3106083509365085, 4.218955466386129, 0
6634, 5.33448282502282, 4.130872660621672, 0
6635, 5.311302120415883, 4.302747129351583, 0
6636, 5.265836053041735, 4.27039337559333, 0
6637, 5.251945624064085, 4.3338062304138205, 0
6638, 5.3015198709716636, 4.169215131328693, 0
6639, 5.371030054644156, 4.188055574300746, 0
6640, 5.429339749642801, 4.110517541837744, 0
6641, 5.385710956618608, 4.138401946709202, 0
6642, 5.477631435083045, 4.207527444134589, 0
6643, 5.421120715003016, 4.21536525109805, 0
6644, 5.461262004738674, 4.297144100706275, 0
6645, 5.3886645927903185, 4.363711834650567, 0
6646, 5.335656443642661, 4.35140992595922, 0
6647, 4.956451071471592, 3.701102707219807, 0
6648, 4.9839273059027756, 3.7595051259263994, 0
6649, -3.013840846609542, -4.592987440149282, 0
6650, -3.011460404179709, -4.531727348005341, 0
6651, -2.9658520068863314, -4.564175893091204, 0
6652, -2.870346735321465, -4.67999781741068, 0
6653, -4.592987440149134, 3.0138408466095368, 0
6654, -4.531727348005191, 3.0114604041797577, 0
6655, -4.5641758930910115, 2.965852006886401, 0
6656, -4.67999781741068, 2.870346735321465, 0
6657, 4.592987440149237, -3.0138408466095457, 0
6658, 4.531727348005295, -3.011460404179728, 0
6659, 4.564175893091146, -2.965852006886357, 0
6660, 4.67999781741068, -2.870346735321466, 0
6661, 5.289999904876757, -4.157135943415543, 0
6662, 5.353832345753029, -4.145561042925501, 0
6663, 5.1811037724319595, -4.06189591377124, 0
6664, 3.0138408466095368, 4.592987440149134, 0
6665, 3.0114604041797577, 4.531727348005191, 0
6666, 2.965852006886401, 4.5641758930910115, 0
6667, 2.870346735321465, 4.67999781741068, 0
6668, -6.378800485428507, 0.16715964205567202, 0
6669, -5.94745991764573, 0.12604782853870078, 0
6670, 0.12604782737861805, 5.94745991764573, 0
6671, -4.2374998230675684, -5.538183821171103, 0
6672, -4.253043474434502, -5.599034792232721, 0
6673, -4.162411723222695, -5.532717306642175, 0
6674, -4.229883963921078, -5.475743282142973, 0
6675, -4.297493731828774, -5.628894355443601, 0
6676, -4.135754565045523, -5.440096019614512, 0
6677, -4.1748382552616565, -5.478994133101713, 0
6678, -4.307524299377325, -5.4016946699740505, 0
6679, -4.347854692597272, -5.449989627603373, 0
6680, -4.271868058722028, -5.435701415567953, 0
6681, -4.254428954516023, -5.31184334962225, 0
6682, -4.347262280939943, -5.347950303722835, 0
6683, -4.293204185308682, -5.349543446217108, 0
6684, -4.953261995545421, 3.80815236409271, 0
6685, -4.935597410840401, 3.92231938235796, 0
6686, -4.982862915887073, 3.7156357797721236, 0
6687, -4.882446412818878, 3.800244201285387, 0
6688, -4.924147505825135, 3.747843370178989, 0
6689, -4.926483661433734, 3.6824784742598324, 0
6690, -4.844264512272417, 3.6089477429632635, 0
6691, -4.865385749209974, 3.7130190168919004, 0
6692, -4.896787695556023, 3.632950863766849, 0
6693, -4.909185371811491, 3.5363558111273687, 0
6694, -4.783277873325607, 3.711725981141479, 0
6695, -4.8250459116808715, 3.667027064393478, 0
6696, -4.947133666978025, 3.859156112356806, 0
6697, -4.990137622905523, 3.768957078746786, 0
6698, -5.066396715145647, 3.5375961007995986, 0
6699, -4.988064943459415, 3.5022581115017255, 0
6700, -4.996475740047152, 3.428511564624413, 0
6701, -4.854553176229279, 3.4028868511977057, 0
6702, -4.928926447710594, 3.3968018918799223, 0
6703, -4.966855967048395, 3.5614810215319794, 0
6704, -4.923037862421651, 3.3223637490572644, 0
6705, -4.896943875762135, 3.4634509182731787, 0
6706, -4.781274237034132, 3.4992944174206837, 0
6707, -4.937721910086384, 3.4940840428864948, 0
6708, -4.833364562021806, 3.4628347570684554, 0
6709, -4.750445734104132, 3.399808544633441, 0
6710, -4.8416637505975215, 3.530132746174757, 0
6711, -4.781804188851253, 3.444610720054391, 0
6712, -4.698588146208283, 3.469480778119577, 0
6713, -5.020978330470711, 3.5676755390030683, 0
6714, -4.947930153200215, 3.4441224137554016, 0
6715, -4.805491563784712, 3.291442416251406, 0
6716, -4.725781019282882, 3.5236321335797776, 0
6717, -4.709122509456812, 3.605529926743989, 0
6718, -4.780392923825975, 3.5727197094515897, 0
6719, -4.665827219663758, 3.390961443733922, 0
6720, -4.636345828267812, 3.4987588631934985, 0
6721, -4.869255064984902, 3.2879324452540954, 0
6722, -4.851624564710811, 3.215289427259736, 0
6723, -4.840288462751853, 3.342645152210644, 0
6724, -4.779607685552798, 3.3464580480660158, 0
6725, -4.683116827743312, 3.267464043656123, 0
6726, -4.741290507557006, 3.2948337274157153, 0
6727, -4.75290164285548, 3.194646206167904, 0
6728, -4.688656200556054, 3.331198525246348, 0
6729, -4.730251866376589, 3.2427878235979177, 0
6730, -4.669991479107544, 3.1850374134070316, 0
6731, -4.607986811920213, 3.3061018030446876, 0
6732, -4.789272307027298, 3.6262403735940096, 0
6733, -4.653148652143119, 3.4423455230949105, 0
6734, -4.705510815718861, 3.420498254418488, 0
6735, -4.88901662901661, 3.36250705587586, 0
6736, -4.807584042614503, 3.1795212729739473, 0
6737, -4.779884039631936, 3.1088181480134556, 0
6738, -4.793562466528358, 3.2352392575866786, 0
6739, -4.619124444161341, 3.2353956487335074, 0
6740, -4.585200355195962, 3.1502591989387008, 0
6741, -4.620219568889437, 3.185632232866243, 0
6742, -4.520413143409329, 3.1861621200266512, 0
6743, -4.529043279645911, 3.26163414709594, 0
6744, -4.53498200170222, 3.136045708474842, 0
6745, -4.578973348662739, 3.265301325821525, 0
6746, -4.5900991669813225, 3.3748899049186813, 0
6747, -4.681794320264799, 3.0704628958393574, 0
6748, -4.717639539808289, 3.1364052437803, 0
6749, -4.738250929044024, 3.0706857152805633, 0
6750, -4.71249574895747, 2.9999581798956876, 0
6751, -4.653272424929571, 2.961985751122082, 0
6752, -4.651180529365762, 3.0205239765025214, 0
6753, -5.078902873907432, 3.6920936245566045, 0
6754, -5.040616111826428, 3.737565119149086, 0
6755, -5.021991839554562, 3.66759374166599, 0
6756, 5.313085736835484, 3.9380152891206195, 0
6757, 5.2641495162407015, 3.921660115928573, 0
6758, 5.318320998265305, 3.8886431794717655, 0
6759, 5.383087730613269, 3.9500348308328315, 0
6760, 5.374605600549414, 4.038540964573217, 0
6761, 5.3400941503673485, 3.9905739870342924, 0
6762, 5.285490539953834, 3.997931239014839, 0
6763, 5.245573211807759, 4.02544421508647, 0
6764, 5.464825231556894, 4.050969698406126, 0
6765, 5.486964269317839, 4.14235675373498, 0
6766, 5.56313019666146, 4.139008617786272, 0
6767, 5.437452956346423, 4.163899538451642, 0
6768, 5.539962067484937, 4.197701793945938, 0
6769, 5.582358013844985, 4.288205424335657, 0
6770, 5.404372203851909, 4.307971739844562, 0
6771, 5.526981157868267, 4.441686562565303, 0
6772, 5.333207001447533, 4.434503618350259, 0
6773, -3.1671415850470996, -4.6719598326592555, 0
6774, -2.968612054085163, -4.652470239880297, 0
6775, -2.916638667898489, -4.656093473244686, 0
6776, -3.066159765290279, -4.679705703411327, 0
6777, -2.9961326877511314, -4.7186494014753, 0
6778, -3.0227908541507795, -4.646729389370851, 0
6779, 4.671959832659246, -3.167141585047034, 0
6780, 4.652470239880334, -2.9686120540852454, 0
6781, 4.6560934732447565, -2.9166386678985514, 0
6782, 4.679705703411135, -3.0661597652903105, 0
6783, 4.7186494014753535, -2.9961326877510985, 0
6784, 4.646729389370754, -3.0227908541507995, 0
6785, 5.181528326284828, -4.132020553707618, 0
6786, 5.243120077827087, -4.112808371757062, 0
6787, 5.120278955472473, -4.097327769089637, 0
6788, 3.1671415850468008, 4.671959832659219, 0
6789, 2.968612054085403, 4.652470239880404, 0
6790, 2.9166386678986687, 4.656093473244889, 0
6791, 3.066159765290323, 4.679705703410696, 0
6792, 2.9961326877510346, 4.7186494014754565, 0
6793, 3.022790854150804, 4.646729389370526, 0
6794, -6.33373239577368, -0.013155207477460185, 0
6795, -6.4144562307067785, 0.010566503057215085, 0
6796, -0.013155207169959424, 6.333732395120691, 0
6797, 0.010566503587900317, 6.414456229631077, 0
6798, 0.013155207375386863, -6.333732395556925, 0
6799, -0.010566503233373561, -6.414456230349707, 0
6800, 6.333732394944795, 0.013155207087126627, 0
6801, 6.414456229341315, -0.010566503730852078, 0
6802, -4.060448146445343, -5.452354589227104, 0
6803, -4.0399364906461175, -5.263331323850522, 0
6804, -4.030835601057438, -5.359943429862728, 0
6805, -4.025886694317362, -5.412479426257142, 0
6806, -4.315343883850991, -5.275046196384543, 0
6807, -4.156615482046426, -5.340366926644636, 0
6808, -4.181294479852449, -5.236544754658135, 0
6809, -4.587928343209852, 3.081983490145161, 0
6810, -4.640020355351519, 3.118257204375841, 0
6811, 5.335821872208275, 4.076571011994984, 0
6812, 5.642419802826299, 4.2414136160515845, 0
6813, 5.519577693361201, 4.262432639520283, 0
6814, 5.470542709355919, 4.380135942563639, 0
6815, 5.5266888145353095, 4.334460714312427, 0
6816, 5.6180801071382485, 4.38782486537523, 0
6817, 5.523658725201603, 4.388082298279214, 0
6818, 5.582093801298332, 4.3445146011172975, 0
6819, 5.639783253210934, 4.33318625506302, 0
6820, 5.722282677324312, 4.3432961428888035, 0
6821, 5.689369818685735, 4.4104637315935715, 0
6822, 5.448728665157335, 4.456788939020139, 0
6823, 5.745582978657748, 4.490276550797729, 0
6824, 5.62212817226425, 4.49864248312754, 0
6825, 5.501011853546047, 4.517410035706535, 0
6826, 5.415338108461992, 4.5343312766556885, 0
6827, 5.422394302103351, 4.407864222075011, 0
6828, 5.734027318390132, 4.438713122848335, 0
6829, 5.8027188201555, 4.444656198297929, 0
6830, 5.68269236130021, 4.477294140367044, 0
6831, 5.6907950279268835, 4.596863974335527, 0
6832, 5.636431467832988, 4.442637252049289, 0
6833, 5.581564800628176, 4.458453826879376, 0
6834, 5.670118491516964, 4.538205666578893, 0
6835, 5.592103250874746, 4.598678653487686, 0
6836, 5.4540619126016585, 4.505045825728307, 0
6837, 5.57092461409845, 4.4081991083728855, 0
6838, 5.525399616427953, 4.581759598869106, 0
6839, 5.564969806802233, 4.529966814504452, 0
6840, 5.548703826583506, 4.629831972405777, 0
6841, -3.096503983433164, -4.602256736534459, 0
6842, -3.0588222015480295, -4.565073468630655, 0
6843, -3.1824762434962115, -4.549537665636782, 0
6844, -3.18924239980065, -4.496130747321534, 0
6845, -3.114988858663913, -4.654167901666415, 0
6846, -3.12755731115974, -4.556437639951983, 0
6847, -3.162073412378517, -4.609153494167167, 0
6848, -3.2694256239227397, -4.612594321591926, 0
6849, -3.2149282844833764, -4.636496015439979, 0
6850, -3.3055666243765933, -4.76907753489792, 0
6851, -3.238238183533183, -4.717833244575111, 0
6852, -3.317167268339885, -4.683983149515564, 0
6853, -3.2226753313360494, -4.808133464617309, 0
6854, -3.287283137378466, -4.72324707396291, 0
6855, -3.2636412787151716, -4.6681207806942915, 0
6856, -3.39141279049001, -4.564947829758613, 0
6857, -3.4379625170020653, -4.743788709321915, 0
6858, -3.2539568887946775, -4.767033500551546, 0
6859, -3.1659335713484142, -4.751863062664713, 0
6860, -3.1160902590351465, -4.715724109052537, 0
6861, -3.1035468079737942, -4.78546594638007, 0
6862, -3.0643360568793523, -4.734851079818609, 0
6863, -3.3088854837173987, -4.575508245361095, 0
6864, -3.2834917086335227, -4.494928513929214, 0
6865, -3.380212717750565, -4.640634165748874, 0
6866, -3.3675149412226593, -4.7341848178193, 0
6867, -3.409117759382613, -4.692194562904841, 0
6868, -3.470908897620178, -4.691509167087047, 0
6869, -3.388450945967658, -4.843792163083105, 0
6870, -3.4987588631934985, -4.636345828267812, 0
6871, -3.5313782104408356, -4.766137828608942, 0
6872, -3.359564112606087, -4.792506655516294, 0
6873, -3.305093752182269, -4.856965458705934, 0
6874, -3.169821868295862, -4.804685928965753, 0
6875, -3.3256381926504157, -4.628782817131829, 0
6876, -3.519178157232917, -4.714210612658796, 0
6877, -3.356779987021356, -4.913704544979297, 0
6878, -3.194197424377772, -4.883893794527617, 0
6879, -3.2481823985557186, -4.550346980390348, 0
6880, -3.490116394032267, -4.931977366564723, 0
6881, -3.301170029303324, -4.954678433164371, 0
6882, -3.2472605161373025, -4.860607417627415, 0
6883, -3.419188521527103, -4.953923673721267, 0
6884, -3.438053119805897, -4.889303420470286, 0
6885, -3.471290168388951, -4.996721635641121, 0
6886, -3.459141963984549, -4.816532906000817, 0
6887, -3.613791397409615, -5.003048631415905, 0
6888, -3.407653821848935, -5.02687272826668, 0
6889, -3.513648802014603, -5.100476679834543, 0
6890, -3.412712709861543, -4.79059547425399, 0
6891, -3.4808948591281643, -4.770744265752528, 0
6892, -3.5407347055707867, -4.856518633394089, 0
6893, -3.4909682569944303, -4.877841855658126, 0
6894, -3.5499604890725336, -4.970981835157652, 0
6895, -3.544589407055113, -4.913811344738836, 0
6896, -3.65890281832549, -4.877344213485206, 0
6897, -3.5972526355564804, -4.881492089287395, 0
6898, -3.6235172256712125, -4.811635085979322, 0
6899, -3.6320635123502445, -4.938659172737334, 0
6900, -3.7579568455937458, -4.957234629989471, 0
6901, -3.688869237516314, -4.989566527659276, 0
6902, -3.605490457276359, -5.075724922608061, 0
6903, -3.6428959758455273, -5.1424861710160545, 0
6904, -3.5110164037055167, -4.813920453395101, 0
6905, -3.6946600494338253, -4.807426917315586, 0
6906, -3.5947368822610497, -4.753873213505849, 0
6907, -3.701294265027552, -4.92613662359697, 0
6908, -3.7209950847261357, -4.866208998367024, 0
6909, -3.688789533711104, -5.072913012995226, 0
6910, -3.646101374895497, -5.04355121616264, 0
6911, -3.5271740722085902, -5.034430797080487, 0
6912, -3.576595859858524, -5.0356124357187175, 0
6913, 4.602256736534348, -3.096503983433044, 0
6914, 4.565073468630561, -3.0588222015479527, 0
6915, 4.549537665636839, -3.182476243496239, 0
6916, 4.496130747321561, -3.1892423998006407, 0
6917, 4.654167901666234, -3.1149888586639274, 0
6918, 4.556437639951969, -3.1275573111597597, 0
6919, 4.609153494167176, -3.1620734123784655, 0
6920, 4.612594321592141, -3.2694256239228063, 0
6921, 4.636496015439987, -3.214928284483339, 0
6922, 4.76907753489799, -3.30556662437592, 0
6923, 4.717833244574948, -3.238238183532959, 0
6924, 4.683983149515808, -3.317167268339724, 0
6925, 4.808133464616761, -3.2226753313354295, 0
6926, 4.723247073962928, -3.287283137378141, 0
6927, 4.668120780694381, -3.263641278715181, 0
6928, 4.564947829758613, -3.3914127904900107, 0
6929, 4.743788709322931, -3.4379625170020955, 0
6930, 4.767033500551298, -3.2539568887941805, 0
6931, 4.751863062664135, -3.165933571348627, 0
6932, 4.715724109052316, -3.116090259035149, 0
6933, 4.785465946380177, -3.103546807974063, 0
6934, 4.73485107981849, -3.0643360568793123, 0
6935, 4.575508245361307, -3.3088854837175785, 0
6936, 4.494928513929214, -3.2834917086335236, 0
6937, 4.640634165748997, -3.380212717750484, 0
6938, 4.734184817819849, -3.3675149412225203, 0
6939, 4.6921945629052315, -3.409117759382907, 0
6940, 4.691509167087971, -3.4709088976209532, 0
6941, 4.843792163084723, -3.3884509459668295, 0
6942, 4.636345828267812, -3.4987588631934994, 0
6943, 4.766137828612022, -3.5313782104429827, 0
6944, 4.792506655517242, -3.359564112605526, 0
6945, 4.856965458706231, -3.305093752181785, 0
6946, 4.8046859289652755, -3.169821868295203, 0
6947, 4.628782817132105, -3.3256381926503233, 0
6948, 4.71421061266106, -3.5191781572341667, 0
6949, 4.9137045449798595, -3.356779987019675, 0
6950, 4.883893794527617, -3.194197424377773, 0
6951, 4.550346980390515, -3.248182398555828, 0
6952, 4.931977366566517, -3.4901163940276283, 0
6953, 4.954678433164371, -3.3011700293033246, 0
6954, 4.860607417626667, -3.247260516136859, 0
6955, 4.9539236737201, -3.419188521523883, 0
6956, 4.88930342047098, -3.438053119803993, 0
6957, 4.99672163564136, -3.4712901683830863, 0
6958, 4.816532906001953, -3.4591419639832637, 0
6959, 5.003048631418315, -3.6137913973972897, 0
6960, 5.02687272826668, -3.4076538218489354, 0
6961, 5.100476679834543, -3.513648802014604, 0
6962, 4.790595474254429, -3.412712709860816, 0
6963, 4.770744265753722, -3.4808948591291946, 0
6964, 4.856518633397476, -3.540734705568195, 0
6965, 4.877841855660647, -3.4909682569922174, 0
6966, 4.9709818351542845, -3.549960489067053, 0
6967, 4.913811344739208, -3.544589407046395, 0
6968, 4.87734421349865, -3.6589028183265877, 0
6969, 4.881492089294653, -3.5972526355547783, 0
6970, 4.811635085986329, -3.623517225677693, 0
6971, 4.938659172744295, -3.63206351234359, 0
6972, 4.9572346300214685, -3.7579568455963814, 0
6973, 4.989566527671306, -3.68886923750758, 0
6974, 5.07572492260386, -3.6054904572585285, 0
6975, 5.14248617100552, -3.642895975853106, 0
6976, 4.813920453397095, -3.511016403704511, 0
6977, 4.807426917310828, -3.694660049437188, 0
6978, 4.753873213516128, -3.594736882263458, 0
6979, 4.9261366236085005, -3.7012942650368976, 0
6980, 4.8662089983734305, -3.7209950847287954, 0
6981, 5.0729130129815365, -3.688789533667253, 0
6982, 5.043551216162681, -3.6461013748611304, 0
6983, 5.03443079707883, -3.5271740722051246, 0
6984, 5.035612435715634, -3.576595859849208, 0
6985, 3.096503983432746, 4.602256736534112, 0
6986, 3.0588222015477635, 4.565073468630354, 0
6987, 3.1824762434963243, 4.549537665637012, 0
6988, 3.1892423998006096, 4.496130747321642, 0
6989, 3.1149888586638887, 4.654167901665836, 0
6990, 3.1275573111598143, 4.5564376399519615, 0
6991, 3.1620734123783407, 4.609153494167207, 0
6992, 3.269425623923001, 4.612594321592739, 0
6993, 3.2149282844832485, 4.636496015440065, 0
6994, 3.3055666243742055, 4.769077534898198, 0
6995, 3.2382381835322795, 4.717833244574654, 0
6996, 3.3171672683390856, 4.683983149516528, 0
6997, 3.2226753313339134, 4.808133464615509, 0
6998, 3.287283137377171, 4.723247073963096, 0
6999, 3.2636412787149744, 4.668120780694649, 0
7000, 3.39141279049001, 4.564947829758614, 0
7001, 3.4379625170020645, 4.743788709325256, 0
7002, 3.2539568887929113, 4.767033500550756, 0
7003, 3.1659335713488628, 4.751863062662877, 0
7004, 3.1160902590350545, 4.715724109051769, 0
7005, 3.1035468079744852, 4.785465946380149, 0
7006, 3.064336056879151, 4.734851079818196, 0
7007, 3.308885483718169, 4.575508245361967, 0
7008, 3.2834917086335222, 4.494928513929214, 0
7009, 3.3802127177502044, 4.6406341657494234, 0
7010, 3.3675149412220673, 4.734184817821167, 0
7011, 3.409117759383406, 4.692194562906241, 0
7012, 3.4709088976225697, 4.691509167090026, 0
7013, 3.388450945964875, 4.84379216308875, 0
7014, 3.4987588631934985, 4.636345828267812, 0
7015, 3.5313782104476696, 4.766137828618841, 0
7016, 3.359564112604144, 4.79250665551961, 0
7017, 3.3050937521807, 4.856965458707075, 0
7018, 3.1698218682936354, 4.80468592896419, 0
7019, 3.3256381926500325, 4.628782817132959, 0
7020, 3.5191781572368708, 4.714210612666051, 0
7021, 3.3567799870156803, 4.913704544981278, 0
7022, 3.194197424377772, 4.8838937945276175, 0
7023, 3.248182398556177, 4.550346980391057, 0
7024, 3.490116394016417, 4.931977366570924, 0
7025, 3.3011700293033237, 4.954678433164371, 0
7026, 3.2472605161358423, 4.8606074176249265, 0
7027, 3.4191885215161264, 4.953923673717368, 0
7028, 3.438053119799395, 4.889303420472773, 0
7029, 3.4712901683689332, 4.996721635641977, 0
7030, 3.459141963980353, 4.816532906004676, 0
7031, 3.6137913973675007, 5.003048631424163, 0
7032, 3.407653821848935, 5.026872728266681, 0
7033, 3.513648802014603, 5.100476679834543, 0
7034, 3.412712709859116, 4.790595474255544, 0
7035, 3.48089485913138, 4.770744265756513, 0
7036, 3.5407347055629246, 4.856518633405572, 0
7037, 3.4909682569872347, 4.8778418556663565, 0
7038, 3.549960489053801, 4.970981835146208, 0
7039, 3.544589407025351, 4.913811344740123, 0
7040, 3.6589028183300627, 4.877344213533059, 0
7041, 3.5972526355513272, 4.881492089313075, 0
7042, 3.6235172256952364, 4.811635086004443, 0
7043, 3.6320635123271905, 4.938659172761778, 0
7044, 3.757956845603436, 4.957234630103379, 0
7045, 3.6888692374857865, 4.989566527700434, 0
7046, 3.605490457215458, 5.0757249225937295, 0
7047, 3.642895975871401, 5.142486170980087, 0
7048, 3.511016403702509, 4.813920453401934, 0
7049, 3.694660049446319, 4.8074269172979065, 0
7050, 3.594736882269393, 4.7538732135428905, 0
7051, 3.701294265062181, 4.926136623636899, 0
7052, 3.7209950847354776, 4.866208998388865, 0
7053, 3.6887895335612977, 5.072913012948508, 0
7054, 3.646101374778108, 5.043551216162797, 0
7055, 3.527174072196741, 5.034430797074854, 0
7056, 3.576595859826691, 5.035612435708213, 0
7057, -6.2829470259212234, 0.16715964205567205, 0
7058, -6.284616207779726, -0.027588614848714152, 0
7059, -6.320465816750088, 0.08041751433607636, 0
7060, -6.548573246986559, -0.1671596420556724, 0
7061, -6.303841927731863, 0.030333790791410756, 0
7062, -6.3404545521437266, -0.07262145330689895, 0
7063, -6.3836445510768, -0.033793350187702326, 0
7064, 0.16715964205567205, 6.2829470259212234, 0
7065, -0.02758861471774557, 6.284616207245311, 0
7066, 0.08041751438960901, 6.320465816203003, 0
7067, -0.16715964205567257, 6.548573246986559, 0
7068, 0.03033379100340814, 6.303841927231334, 0
7069, -0.07262145270724678, 6.34045455194595, 0
7070, -0.03379334989183559, 6.383644550388529, 0
7071, -0.16715964205567285, -6.2829470259212234, 0
7072, 0.027588614805239775, -6.284616207602331, 0
7073, -0.080417514353847, -6.320465816568487, 0
7074, 0.1671596420556723, -6.548573246986559, 0
7075, -0.030333790861782527, -6.303841927565716, 0
7076, 0.07262145310784805, -6.340454552078078, 0
7077, 0.03379335008949115, -6.3836445508483335, 0
7078, 6.2829470259212234, -0.16715964205567335, 0
7079, 6.284616207101355, 0.02758861468246525, 0
7080, 6.320465816055635, -0.08041751440403039, 0
7081, 6.548573246986559, 0.16715964205567221, 0
7082, 6.303841927096506, -0.03033379106051539, 0
7083, 6.340454551892673, 0.072621452545717, 0
7084, 6.383644550203129, 0.0337933498121366, 0
7085, -3.9563496194626784, -5.374675912662996, 0
7086, -3.9286697634295513, -5.2668497135212915, 0
7087, -3.9823626760228805, -5.3105322301321936, 0
7088, -3.9229510937399508, -5.325783663062056, 0
7089, -3.852533161073692, -5.296501061160467, 0
7090, -3.827254434821177, -5.143261362788549, 0
7091, -3.8649274900600243, -5.215751604198408, 0
7092, -3.818214208473517, -5.249907466282112, 0
7093, -3.7481738501028086, -5.2189161430503415, 0
7094, -3.9607742097663174, -5.119905794801545, 0
7095, -3.721756324575425, -5.14458267628631, 0
7096, -3.800756180440424, -5.194721361271285, 0
7097, -3.8977050330146294, -5.1526827387518495, 0
7098, -3.8771801225438978, -5.03804636938228, 0
7099, -3.9607225878367793, -5.19687358065294, 0
7100, -3.9062211940980704, -5.092002362636654, 0
7101, -3.9454830688597218, -5.03607672296548, 0
7102, -4.026495688818441, -5.013379869699805, 0
7103, -4.016418122165429, -5.080698976961805, 0
7104, -4.085323248952426, -5.149887704656946, 0
7105, -4.06373513481472, -5.102481622245608, 0
7106, -4.129802265647912, -5.092032058190221, 0
7107, -3.773670795634237, -5.077286023046664, 0
7108, -3.9151971110583714, -5.2183494923246885, 0
7109, -3.9838190537887113, -5.249782024970591, 0
7110, -4.017384277596312, -5.158427673142986, 0
7111, -4.057699012930236, -5.204636766817177, 0
7112, -4.123863263243919, -5.203677074675473, 0
7113, -4.17320810798449, -5.18406449621357, 0
7114, -4.120110053468499, -5.276845181434064, 0
7115, -4.091454530683575, -5.335563835072297, 0
7116, -4.1205772463661905, -5.384874944774438, 0
7117, -3.7743495756089667, -5.131482097428733, 0
7118, -3.7334875811821786, -5.031282476724603, 0
7119, -3.8347972744778644, -5.082387879823431, 0
7120, -4.214026708711447, -5.355268862581875, 0
7121, -4.239432632559087, -5.2532430959543035, 0
7122, -4.196576766526642, -5.295429262585354, 0
7123, 5.789898391606289, 4.580430243824109, 0
7124, 5.643021032604988, 4.6832591167948205, 0
7125, -3.567999071447519, -4.808021434742999, 0
7126, 4.808021434747458, -3.56799907145175, 0
7127, 3.567999071463148, 4.80802143475727, 0
7128, -6.235020296167582, 0.11246505885046519, 0
7129, -6.285345921441412, 0.11671212999792294, 0
7130, -6.4003174244637355, 0.08970306090187807, 0
7131, -6.365326768731652, 0.042620188991190945, 0
7132, -6.356418750855941, 0.11922521637183559, 0
7133, -6.474653944935791, 0.167159642055672, 0
7134, -6.5015406386585415, 0.06695662169643574, 0
7135, -6.426727215182149, 0.1387564546221241, 0
7136, -6.4461494191338184, 0.057060238258035564, 0
7137, -6.434989261180072, -0.055446671225283115, 0
7138, 0.11246505870977033, 6.235020296167582, 0
7139, 0.11671213015760848, 6.285345921246709, 0
7140, 0.08970306104885303, 6.400317423504831, 0
7141, 0.04262018940969151, 6.365326768016765, 0
7142, 0.11922521673678996, 6.356418750011696, 0
7143, 0.167159642055672, 6.474653944935791, 0
7144, 0.06695662188348252, 6.5015406371129405, 0
7145, 0.13875645438825296, 6.426727215182149, 0
7146, 0.05706023853211258, 6.4461494178863425, 0
7147, -0.05544667203842017, 6.434989256709155, 0
7148, -0.11246505880376384, -6.235020296167582, 0
7149, -0.1167121300509302, -6.2853459213767815, 0
7150, -0.08970306095066644, -6.400317424145434, 0
7151, -0.042620189130110536, -6.36532676849435, 0
7152, -0.11922521649298058, -6.356418750575699, 0
7153, -0.16715964205567285, -6.474653944935791, 0
7154, -0.0669566217585256, -6.5015406381454905, 0
7155, -0.13875645454449317, -6.426727215182149, 0
7156, -0.05706023834901467, -6.4461494187197275, 0
7157, 0.055446671495196456, -6.434989259695985, 0
7158, 6.235020296167582, -0.11246505867187177, 0
7159, 6.285345921194262, -0.11671213020062435, 0
7160, 6.4003174232465305, -0.08970306108844489, 0
7161, 6.365326767824197, -0.04262018952242444, 0
7162, 6.3564187497842815, -0.1192252168350989, 0
7163, 6.474653944935791, -0.16715964205567335, 0
7164, 6.501540636696603, -0.066956621933868, 0
7165, 6.426727215182149, -0.1387564543252564, 0
7166, 6.44614941755031, -0.05706023860594175, 0
7167, 6.434989255504825, 0.05544667225745341, 0
7168, 5.734240016363146, 4.551820786729015, 0
7169, 5.792800039411826, 4.523035370219023, 0
7170, 5.859793281414445, 4.56484044584383, 0
7171, 5.847373493400845, 4.6736352486164074, 0
7172, 5.834761090388755, 4.61708913301817, 0
7173, 5.759356708326123, 4.663587435812779, 0
7174, 5.641973215443205, 4.626273319829511, 0
7175, 5.58220951138394, 4.731377404373513, 0
7176, -6.522580674689433, 0.12631078864253473, 0
7177, -8.285253702221537, 0.16715964205567238, 0
7178, -6.5633803568274995, 0.07844175006538932, 0
7179, -6.553862246943758, -0.042534888687548095, 0
7180, -6.542390943648437, 0.019230390726383405, 0
7181, -6.481065094205538, -0.024107188482982274, 0
7182, -6.49781697120695, -0.12230390710505261, 0
7183, -6.563401168712011, -0.10536432249995858, 0
7184, -7.427880553332306, 0.1671596420556722, 0
7185, -6.650085798545778, -0.1671596420556724, 0
7186, -6.615141688501341, -0.0653701190050472, 0
7187, -6.599329522766169, -0.14666206528746806, 0
7188, -6.603478953962349, -0.0030268462964506138, 0
7189, -6.654785675182348, -0.10865330719194176, 0
7190, -8.3757991750525, -0.1671596420556724, 0
7191, -6.700842074325387, -0.1671596420556724, 0
7192, -6.447060695427341, -0.1671596420556724, 0
7193, -6.407781359937051, -0.10407665865583475, 0
7194, -6.396304419647731, -0.1671596420556724, 0
7195, -6.359804691858599, -0.11898520588954054, 0
7196, -6.5081764715169195, -0.07000937412418376, 0
7197, 0.12631078842879373, 6.522580674689433, 0
7198, 0.16715964205567238, 8.285253702221537, 0
7199, 0.07844174754684315, 6.5633803590054125, 0
7200, -0.042534903201018506, 6.553862243408571, 0
7201, 0.019230382905827563, 6.542390942263265, 0
7202, -0.02410719615861139, 6.481065090708269, 0
7203, -0.12230392991550403, 6.49781697120695, 0
7204, -0.10536432870217223, 6.563401148821301, 0
7205, 0.1671596420556722, 7.427880553332306, 0
7206, -0.16715964205567257, 6.650085798545778, 0
7207, -0.06537013924713835, 6.6151417011016935, 0
7208, -0.14666205786775854, 6.599329522766169, 0
7209, -0.0030268598937778363, 6.60347895966755, 0
7210, -0.10865331788107997, 6.65478568341344, 0
7211, -0.1671596420556725, 8.3757991750525, 0
7212, -0.16715964205567257, 6.700842074325387, 0
7213, -0.16715964205567257, 6.447060695427341, 0
7214, -0.10407665841901448, 6.407781359845224, 0
7215, -0.16715964205567257, 6.396304419647731, 0
7216, -0.11898520557301999, 6.359804691523698, 0
7217, -0.07000939030237595, 6.5081764632628545, 0
7218, -0.12631078857158595, -6.522580674689433, 0
7219, -0.16715964205567327, -8.285253702221537, 0
7220, -0.07844174922937751, -6.563380357550441, 0
7221, 0.0425348935051854, -6.553862245770278, 0
7222, -0.01923038813040919, -6.542390943188639, 0
7223, 0.024107191030848095, -6.481065093044645, 0
7224, 0.1223039146768143, -6.49781697120695, 0
7225, 0.1053643245587363, -6.563401162109436, 0
7226, -0.16715964205567307, -7.427880553332306, 0
7227, 0.1671596420556723, -6.650085798545778, 0
7228, 0.06537012572425713, -6.615141692683932, 0
7229, 0.14666206282454974, -6.599329522766169, 0
7230, 0.0030268508099808578, -6.603478955856147, 0
7231, 0.10865331074012125, -6.654785677914593, 0
7232, 0.16715964205567235, -8.3757991750525, 0
7233, 0.1671596420556723, -6.700842074325387, 0
7234, 0.1671596420556723, -6.447060695427341, 0
7235, 0.10407665857722295, -6.407781359906571, 0
7236, 0.1671596420556723, -6.396304419647731, 0
7237, 0.11898520578447369, -6.359804691747433, 0
7238, 0.07000937949441449, -6.508176468777043, 0
7239, 6.522580674689433, -0.12631078837121953, 0
7240, 8.285253702221537, -0.16715964205567393, 0
7241, 6.563380359592076, -0.07844174686842521, 0
7242, 6.553862242456302, 0.042534907110502354, 0
7243, 6.542390941890143, -0.01923038079921003, 0
7244, 6.481065089766211, 0.024107198226191486, 0
7245, 6.49781697120695, 0.12230393605993617, 0
7246, 6.563401143463357, 0.10536433037285856, 0
7247, 7.427880553332306, -0.16715964205567366, 0
7248, 6.650085798545778, 0.16715964205567221, 0
7249, 6.615141704495847, 0.06537014469973804, 0
7250, 6.599329522766169, 0.14666205586911663, 0
7251, 6.60347896120436, 0.0030268635564811505, 0
7252, 6.654785685630652, 0.1086533207604056, 0
7253, 8.3757991750525, 0.1671596420556719, 0
7254, 6.700842074325387, 0.1671596420556722, 0
7255, 6.447060695427341, 0.16715964205567221, 0
7256, 6.407781359820488, 0.10407665835522167, 0
7257, 6.396304419647731, 0.16715964205567224, 0
7258, 6.359804691433485, 0.11898520548775773, 0
7259, 6.508176461039464, 0.0700093946602826, 0
7260, 5.744014451081244, 4.610765367690425, 0
7261, 5.790270228249, 4.7833197480154785, 0
7262, 5.69850173961936, 4.657531945866475, 0
7263, 5.721295896716183, 4.737271219625143, 0
7264, 5.781538606950603, 4.721717237673412, 0
7265, 5.666949807291431, 4.8285958737859085, 0
7266, 5.679760063897259, 4.774386442158564, 0
7267, -6.742596498372327, -0.08847289446704662, 0
7268, -7.052779800693267, 0.16715964205567208, 0
7269, -6.671523918699731, -0.05352541960296612, 0
7270, -6.999193978887691, 0.16715964205567208, 0
7271, -6.703149350123264, -0.11796229646242715, 0
7272, -6.954623453223435, -0.1671596420556724, 0
7273, -7.563698762578748, -0.1671596420556724, 0
7274, -7.157648556341872, -0.1671596420556724, 0
7275, -6.784850691665383, 0.16715964205567202, 0
7276, -0.08847289715103732, 6.742596509679861, 0
7277, 0.16715964205567208, 7.052779800693267, 0
7278, -0.05352542998534987, 6.671523930625559, 0
7279, 0.16715964205567208, 6.999193978887691, 0
7280, -0.1179622971017133, 6.703149360115115, 0
7281, -0.16715964205567257, 6.954623453223435, 0
7282, -0.16715964205567252, 7.563698762578748, 0
7283, -0.16715964205567255, 7.157648556341872, 0
7284, 0.16715964205567202, 6.784850691665383, 0
7285, 0.08847289535797792, -6.742596502125777, 0
7286, -0.16715964205567296, -7.052779800693267, 0
7287, 0.05352542304931997, -6.671523922658421, 0
7288, -0.16715964205567296, -6.999193978887691, 0
7289, 0.1179622966746324, -6.703149353439982, 0
7290, 0.1671596420556723, -6.954623453223435, 0
7291, 0.16715964205567233, -7.563698762578748, 0
7292, 0.1671596420556723, -7.157648556341872, 0
7293, -0.1671596420556729, -6.784850691665383, 0
7294, 6.7425965127257665, 0.08847289787402092, 0
7295, 7.052779800693267, -0.16715964205567352, 0
7296, 6.671523933838013, 0.053525432782046994, 0
7297, 6.999193978887691, -0.16715964205567352, 0
7298, 6.70314936280662, 0.11796229727391883, 0
7299, 6.954623453223435, 0.16715964205567216, 0
7300, 7.563698762578748, 0.16715964205567205, 0
7301, 7.157648556341872, 0.16715964205567213, 0
7302, 6.784850691665383, -0.16715964205567346, 0
7303, -6.788726503250397, 0.0963886668009995, 0
7304, -7.070526763705086, 0.10659702819859271, 0
7305, -6.853110901664216, -0.1671596420556724, 0
7306, -6.799258549000357, -0.020596243206851283, 0
7307, -6.8219326498447845, 0.03377153909386097, 0
7308, -6.763128845249771, 0.030295454147785686, 0
7309, -6.868443737524059, 0.06991969705926428, 0
7310, -6.945608157082114, 0.1349807335592241, 0
7311, -6.856060309110747, -0.046458965436014125, 0
7312, -6.971006357371839, -0.05318825196295165, 0
7313, -6.912255360545965, -0.07165325000327999, 0
7314, -6.9563471279858256, -0.10924423144063794, 0
7315, -7.056136004782653, -0.1671596420556724, 0
7316, -7.029347664893295, -0.09838987994169107, 0
7317, -7.005379729003043, -0.1473286689855875, 0
7318, -6.892022335276537, 0.16715964205567205, 0
7319, -7.1068922805622625, -0.10778581394855527, 0
7320, -7.043525608147579, -0.019839447715871233, 0
7321, -6.86265988384002, -0.10700660452045549, 0
7322, -6.804942189997587, -0.08274941350214449, 0
7323, -6.903867177443826, -0.14438249270354336, 0
7324, -7.1068922805622625, -0.1671596420556724, 0
7325, -7.213537266109999, 0.16715964205567213, 0
7326, -6.966791552106831, 0.051500561855075504, 0
7327, -7.121963937809707, -0.030124958664365507, 0
7328, -7.0726559949295575, -0.0656520690814325, 0
7329, -6.990463475243764, 2.434946699158419e-05, 0
7330, -6.930807061829408, -0.008325896787695616, 0
7331, -7.029725296333782, 0.04926035357240693, 0
7332, -7.000185360696958, 0.10451351681424227, 0
7333, -7.118387985596739, 0.048833218375927814, 0
7334, -6.9141892837256265, 0.042404610927308836, 0
7335, -6.731264869859806, 0.12873336679055883, 0
7336, -6.838436513470961, 0.13460268110194662, 0
7337, -7.073927113918127, 0.022160178581948423, 0
7338, -6.6776790480542285, 0.167159642055672, 0
7339, -6.689505711470307, 0.01878926342368012, 0
7340, -6.663927578103533, 0.09140696337619166, 0
7341, -7.106365622498845, 0.1671596420556721, 0
7342, -6.8709469664860485, 0.0072470692923966434, 0
7343, -6.734194635735575, -0.025861441202799054, 0
7344, -6.719503026485297, 0.07055002339552074, 0
7345, -6.637978535539047, 0.041453388692781507, 0
7346, -6.624093226248652, 0.13776263792410393, 0
7347, -7.360673659460311, -0.1671596420556724, 0
7348, -7.195026888327723, 0.012744068007076573, 0
7349, -7.185620713283269, 0.09218886317325795, 0
7350, -7.129709564831112, 0.11246009987319974, 0
7351, -7.361597649999222, 0.06889480973481113, 0
7352, -7.3057698859672255, 0.09034400777969864, 0
7353, -7.25826159090071, -0.005883795672397312, 0
7354, -7.306400635698203, -0.050919973138296964, 0
7355, -7.327432942768588, 0.01980733563574867, 0
7356, -7.4082482611137115, 0.10891484775699092, 0
7357, -7.259161107901091, -0.1671596420556724, 0
7358, -7.235468051978644, 0.055971515321594216, 0
7359, -7.320708909721152, 0.16715964205567216, 0
7360, -7.417702739310209, 0.04818185999347027, 0
7361, -7.354997792645105, 0.12378803242356809, 0
7362, -7.856567127776922, 0.1671596420556723, 0
7363, -7.473399394043932, 0.041285455713779284, 0
7364, -7.53505219694346, 0.16715964205567221, 0
7365, -7.214044730859364, -0.039340532675204654, 0
7366, -7.524515199557383, -0.037230832211072776, 0
7367, -7.584901323728819, 0.06408223793653806, 0
7368, -7.969748968815624, -0.1671596420556724, 0
7369, -7.456859614898683, -0.012343952695627217, 0
7370, -7.568305779340563, 0.005321107957989318, 0
7371, -7.417036561638844, -0.08672701809143994, 0
7372, -7.382509481122091, -0.03506173555970203, 0
7373, -7.661121308126062, 0.010831842982796727, 0
7374, -7.642223840554614, 0.16715964205567224, 0
7375, -7.475573662133083, -0.06587447450985204, 0
7376, -7.537366494902718, -0.10422801388835422, 0
7377, -7.583366800119172, -0.053851927649496645, 0
7378, -7.828241736437677, -0.06833393885441082, 0
7379, -7.249435870529033, 0.11648341423591801, 0
7380, -7.164752734049279, -0.10970491479259706, 0
7381, -7.378292519953702, 0.01578228897216369, 0
7382, -7.356029048143059, -0.09853819945302274, 0
7383, -7.46218621101953, -0.1671596420556724, 0
7384, -7.293941809389493, -0.11357558635846854, 0
7385, -7.229403472225113, -0.10976448011946012, 0
7386, -7.257512351837141, -0.06674745569853131, 0
7387, -7.165684678400708, -0.05791044005300759, 0
7388, 0.09638866816097841, 6.788726518745344, 0
7389, 0.10659703395001756, 7.070526763314832, 0
7390, -0.16715964205567257, 6.853110901664216, 0
7391, -0.02059624311114165, 6.799258562842375, 0
7392, 0.033771538294785776, 6.821932660178482, 0
7393, 0.030295457300424072, 6.7631288575299235, 0
7394, 0.06991969264159698, 6.8684437479138705, 0
7395, 0.1349807303051216, 6.945608157082114, 0
7396, -0.04645896494973387, 6.856060326862913, 0
7397, -0.05318824826932076, 6.971006382564756, 0
7398, -0.07165326249188612, 6.912255381856875, 0
7399, -0.10924423123196528, 6.9563471617146195, 0
7400, -0.16715964205567257, 7.056136004782653, 0
7401, -0.09838986755680433, 7.029347696778225, 0
7402, -0.14732864905942203, 7.005379729003044, 0
7403, 0.16715964205567205, 6.892022335276537, 0
7404, -0.10778584820977721, 7.1068922805622625, 0
7405, -0.01983943691386346, 7.043525625519783, 0
7406, -0.10700660554171622, 6.862659895894363, 0
7407, -0.0827494170593798, 6.804942201193401, 0
7408, -0.14438250159581797, 6.903867177443825, 0
7409, -0.16715964205567257, 7.1068922805622625, 0
7410, 0.16715964205567213, 7.213537266109999, 0
7411, 0.051500559582458645, 6.966791564775357, 0
7412, -0.030124965095750085, 7.121963990624259, 0
7413, -0.06565205432335858, 7.072656038369823, 0
7414, 2.4352757641541573e-05, 6.990463492952543, 0
7415, -0.008325898471527982, 6.930807078609307, 0
7416, 0.049260358658290905, 7.029725305072979, 0
7417, 0.10451351817159571, 7.00018536518989, 0
7418, 0.048833219982285014, 7.1183879978288065, 0
7419, 0.04240460832558774, 6.914189295872721, 0
7420, 0.128733354831179, 6.731264869859806, 0
7421, 0.13460269272004433, 6.83843651347096, 0
7422, 0.022160191088270824, 7.07392712339784, 0
7423, 0.167159642055672, 6.6776790480542285, 0
7424, 0.018789263642795734, 6.68950571568035, 0
7425, 0.09140696201585874, 6.663927568797469, 0
7426, 0.1671596420556721, 7.106365622498845, 0
7427, 0.007247070711275491, 6.870946976775209, 0
7428, -0.025861440587549196, 6.734194645292874, 0
7429, 0.07055000905247855, 6.719503016843109, 0
7430, 0.04145338136467079, 6.637978535118842, 0
7431, 0.13776264198523877, 6.624093226248652, 0
7432, -0.16715964205567252, 7.360673659460311, 0
7433, 0.0127441011651859, 7.19502686441992, 0
7434, 0.09218888361205675, 7.185620697241001, 0
7435, 0.11246010626263322, 7.129709554330328, 0
7436, 0.06889492655361916, 7.361597525564964, 0
7437, 0.09034406186167143, 7.305769774958379, 0
7438, -0.005883750796250434, 7.258261589045176, 0
7439, -0.050919910607646834, 7.306400674792327, 0
7440, 0.019807416739104147, 7.327432930975476, 0
7441, 0.1089149427310499, 7.40824810326856, 0
7442, -0.16715964205567252, 7.259161107901091, 0
7443, 0.05597155471883135, 7.235467983653201, 0
7444, 0.16715964205567216, 7.320708909721152, 0
7445, 0.04818199548698103, 7.417702584426735, 0
7446, 0.12378806968781836, 7.354997705285002, 0
7447, 0.1671596420556723, 7.856567127776922, 0
7448, 0.04128529057105916, 7.473399357589478, 0
7449, 0.16715964205567221, 7.53505219694346, 0
7450, -0.039340518052155805, 7.214044723111375, 0
7451, -0.03723096781237245, 7.5245143930127245, 0
7452, 0.06408217201604058, 7.5849009077121385, 0
7453, -0.1671596420556725, 7.969748968815624, 0
7454, -0.012344072245244576, 7.456858906466349, 0
7455, 0.005320931798150998, 7.56830521597501, 0
7456, -0.0867263437527997, 7.417036079878259, 0
7457, -0.03506148677049431, 7.382509075574965, 0
7458, 0.010831408479182195, 7.661121336478977, 0
7459, 0.16715964205567224, 7.642223840554614, 0
7460, -0.06587436383664512, 7.4755729606179955, 0
7461, -0.10422824385869771, 7.53736569967964, 0
7462, -0.05385225162860348, 7.583366248453628, 0
7463, -0.06833452174610793, 7.8282420648189825, 0
7464, 0.11648341000180423, 7.249435783873221, 0
7465, -0.10970489929374078, 7.164752753474977, 0
7466, 0.015782478424037592, 7.378292431154239, 0
7467, -0.09853816886733421, 7.356029094535387, 0
7468, -0.16715964205567252, 7.46218621101953, 0
7469, -0.11357555282179688, 7.293941820115081, 0
7470, -0.10976447875407933, 7.229403486348966, 0
7471, -0.066747433025405, 7.257512378104334, 0
7472, -0.0579104474744416, 7.165684703555287, 0
7473, -0.09638866725244476, -6.788726508393855, 0
7474, -0.10659703010771605, -7.070526763575543, 0
7475, 0.1671596420556723, -6.853110901664216, 0
7476, 0.020596243175070666, -6.799258553595116, 0
7477, -0.03377153882861646, -6.8219326532749704, 0
7478, -0.030295455194308582, -6.763128849326079, 0
7479, -0.06991969559284043, -6.868443740972868, 0
7480, -0.13498073247905962, -6.945608157082114, 0
7481, 0.04645896527460218, -6.85606031500346, 0
7482, 0.05318825073688578, -6.971006365734446, 0
7483, 0.07165325414880507, -6.912255367619971, 0
7484, 0.10924423137137501, -6.956347139181866, 0
7485, 0.1671596420556723, -7.056136004782653, 0
7486, 0.0983898758306134, -7.0293476754772755, 0
7487, 0.14732866237123604, -7.005379729003043, 0
7488, -0.16715964205567294, -6.892022335276537, 0
7489, 0.10778582532133259, -7.1068922805622625, 0
7490, 0.019839444130224163, -7.043525613914144, 0
7491, 0.10700660485945847, -6.862659887841366, 0
7492, 0.08274941468294758, -6.804942193713951, 0
7493, 0.14438249565526734, -6.903867177443825, 0
7494, 0.1671596420556723, -7.1068922805622625, 0
7495, -0.16715964205567302, -7.213537266109999, 0
7496, -0.05150056110065447, -6.966791556312052, 0
7497, 0.030124960799216394, -7.121963955341114, 0
7498, 0.06565206418258848, -7.072656009349248, 0
7499, -2.4350559275108236e-05, -6.990463481122061, 0
7500, 0.008325897346648271, -6.930807067399377, 0
7501, -0.04926035526059832, -7.029725299234676, 0
7502, -0.10451351726479148, -7.000185362188334, 0
7503, -0.048833218909132406, -7.1183879896570605, 0
7504, -0.0424046100636687, -6.914189287757754, 0
7505, -0.12873336282071707, -6.731264869859806, 0
7506, -0.13460268495851158, -6.838436513470961, 0
7507, -0.022160182733322334, -7.073927117064832, 0
7508, -0.16715964205567288, -6.6776790480542285, 0
7509, -0.01878926349644583, -6.689505712867778, 0
7510, -0.09140696292465941, -6.6639275750144575, 0
7511, -0.167159642055673, -7.106365622498845, 0
7512, -0.007247069763380777, -6.870946969901442, 0
7513, 0.02586144099855551, -6.734194638908036, 0
7514, -0.07055001863445218, -6.71950302328463, 0
7515, -0.04145338626029992, -6.637978535399535, 0
7516, -0.13776263927217855, -6.624093226248652, 0
7517, 0.16715964205567233, -7.360673659460311, 0
7518, -0.012744079013691914, -7.195026880391645, 0
7519, -0.09218886995778919, -7.185620707958107, 0
7520, -0.11246010199413951, -7.129709561345426, 0
7521, -0.06889484851206186, -7.3615976086940496, 0
7522, -0.09034402573185218, -7.305769849118512, 0
7523, 0.00588378077607405, -7.25826159028473, 0
7524, 0.05091995238168584, -7.306400648675185, 0
7525, -0.01980736255745405, -7.327432938853904, 0
7526, -0.10891487928296331, -7.408248208718042, 0
7527, 0.1671596420556723, -7.259161107901091, 0
7528, -0.05597152839923458, -7.235468029298418, 0
7529, -0.16715964205567305, -7.320708909721152, 0
7530, -0.04818190496961654, -7.417702687897607, 0
7531, -0.12378804479320621, -7.354997763646506, 0
7532, -0.16715964205567319, -7.856567127776922, 0
7533, -0.04128540089600134, -7.47339938194249, 0
7534, -0.1671596420556731, -7.53505219694346, 0
7535, 0.039340527821177924, -7.214044728287416, 0
7536, 0.037230877223049616, -7.524514931829305, 0
7537, -0.06408221605523573, -7.584901185633337, 0
7538, 0.16715964205567235, -7.969748968815624, 0
7539, 0.012343992379306664, -7.456859379739073, 0
7540, -0.005321049483407336, -7.568305592333751, 0
7541, 0.08672679424837205, -7.417036401721215, 0
7542, 0.03506165297570156, -7.382509346503275, 0
7543, -0.01083169875332652, -7.661121317535547, 0
7544, -0.16715964205567313, -7.642223840554614, 0
7545, 0.06587443777233953, -7.47557342926912, 0
7546, 0.10422809022517814, -7.537366230932531, 0
7547, 0.053852035191787606, -7.583366616995759, 0
7548, 0.06833413234259984, -7.8282418454374945, 0
7549, -0.11648341283040334, -7.249435841764152, 0
7550, 0.10970490964787283, -7.1647527404974936, 0
7551, -0.015782351859641403, -7.378292490477207, 0
7552, 0.0985381893004509, -7.3560290635423415, 0
7553, 0.16715964205567233, -7.46218621101953, 0
7554, 0.11357557522608087, -7.293941812949459, 0
7555, 0.10976447966651043, -7.229403476913251, 0
7556, 0.0667474481725661, -7.257512360556274, 0
7557, 0.05791044251652165, -7.165684686750555, 0
7558, 6.788726522919163, -0.09638866852729823, 0
7559, 7.070526763209713, -0.10659703549930427, 0
7560, 6.853110901664216, 0.16715964205567216, 0
7561, 6.799258566570981, 0.020596243085379218, 0
7562, 6.821932662962072, -0.03377153807953288, 0
7563, 6.7631288608378135, -0.030295458149598956, 0
7564, 6.868443750712578, -0.06991969145163407, 0
7565, 6.945608157082114, -0.13498072942855277, 0
7566, 6.856060331644775, 0.04645896481873828, 0
7567, 6.971006389350935, 0.05318824727436047, 0
7568, 6.91225538759736, 0.07165326585588896, 0
7569, 6.956347170800078, 0.10924423117574836, 0
7570, 7.056136004782653, 0.16715964205567216, 0
7571, 7.029347705367007, 0.09838986422071248, 0
7572, 7.005379729003043, 0.14732864369194834, 0
7573, 6.892022335276537, -0.1671596420556735, 0
7574, 7.1068922805622625, 0.10778585743865118, 0
7575, 7.043525630199331, 0.01983943400413972, 0
7576, 6.862659899141435, 0.10700660581680771, 0
7577, 6.804942204209213, 0.08274941801758097, 0
7578, 6.903867177443825, 0.1443825039911216, 0
7579, 7.1068922805622625, 0.16715964205567213, 0
7580, 7.213537266109999, -0.16715964205567357, 0
7581, 6.966791568187867, -0.05150055897035247, 0
7582, 7.121964004850844, 0.03012496682816307, 0
7583, 7.072656050071249, 0.0656520503480116, 0
7584, 6.990463497722738, -2.4353644075901515e-05, 0
7585, 6.930807083129281, 0.008325898925074057, 0
7586, 7.029725307427077, -0.04926036002831666, 0
7587, 7.000185366400177, -0.10451351853724782, 0
7588, 7.118388001123782, -0.04883322041501065, 0
7589, 6.914189299144786, -0.042404607624793464, 0
7590, 6.731264869859806, -0.12873335160971772, 0
7591, 6.83843651347096, -0.13460269584956314, 0
7592, 7.073927125951405, -0.02216019445709607, 0
7593, 6.6776790480542285, -0.1671596420556734, 0
7594, 6.689505716814445, -0.018789263701763724, 0
7595, 6.663927566290695, -0.09140696164939344, 0
7596, 7.106365622498845, -0.16715964205567355, 0
7597, 6.870946979546815, -0.007247071093479052, 0
7598, 6.734194647867338, 0.025861440421847806, 0
7599, 6.719503014245825, -0.07055000518891019, 0
7600, 6.637978535005704, -0.041453379390651725, 0
7601, 6.624093226248652, -0.13776264307916658, 0
7602, 7.360673659460311, 0.16715964205567208, 0
7603, 7.195026857980001, -0.01274411009690661, 0
7604, 7.185620692919795, -0.0921888891175967, 0
7605, 7.129709551501792, -0.11246010798372777, 0
7606, 7.361597492046481, -0.06889495802078958, 0
7607, 7.305769745056294, -0.09034407642960296, 0
7608, 7.258261588545436, 0.005883738708042683, 0
7609, 7.306400685323108, 0.05091989376387568, 0
7610, 7.327432927798856, -0.019807438585748002, 0
7611, 7.4082480607502195, -0.10891496831404486, 0
7612, 7.259161107901091, 0.1671596420556721, 0
7613, 7.235467965248621, -0.055971565331191096, 0
7614, 7.320708909721152, -0.16715964205567363, 0
7615, 7.417702542706244, -0.04818203198458938, 0
7616, 7.35499768175301, -0.1237880797255757, 0
7617, 7.856567127776922, -0.1671596420556738, 0
7618, 7.473399347770812, -0.041285246086575224, 0
7619, 7.53505219694346, -0.16715964205567369, 0
7620, 7.214044721024408, 0.039340514113183796, 0
7621, 7.524514175757152, 0.037231004338925816, 0
7622, 7.584900795653056, -0.06408215425831185, 0
7623, 7.969748968815624, 0.16715964205567196, 0
7624, 7.456858715637928, 0.012344104448072518, 0
7625, 7.568305064224675, -0.005320884345610642, 0
7626, 7.417035950108181, 0.0867261621090783, 0
7627, 7.382508966333921, 0.03506141975484538, 0
7628, 7.661121344119566, -0.010831291436236172, 0
7629, 7.642223840554614, -0.16715964205567374, 0
7630, 7.475572771653611, 0.0658743340252921, 0
7631, 7.537365485474095, 0.10422830580572658, 0
7632, 7.583366099855428, 0.05385233889873747, 0
7633, 7.828242153280737, 0.06833467875645806, 0
7634, 7.249435760531047, -0.11648340886131994, 0
7635, 7.1647527587076585, 0.10970489511881974, 0
7636, 7.3782924072347, -0.01578252945595928, 0
7637, 7.356029107032516, 0.09853816062831433, 0
7638, 7.46218621101953, 0.16715964205567205, 0
7639, 7.29394182300471, 0.11357554378827635, 0
7640, 7.22940349015376, 0.1097644783858533, 0
7641, 7.257512385180009, 0.06674742691764286, 0
7642, 7.165684710331195, 0.057910449473504474, 0
7643, -6.802354625884607, -0.14017486355461112, 0
7644, -7.530144187669415, 0.04782290522373273, 0
7645, -7.481466375137884, 0.11666664902173139, 0
7646, -7.542338034721636, 0.10709069928036791, 0
7647, -7.588638018749037, 0.1431828083091862, 0
7648, -7.659695968222811, 0.08996563927851987, 0
7649, -7.749395484165768, 0.16715964205567227, 0
7650, -7.72651928188221, 0.05158951097764172, 0
7651, -7.695809662360191, 0.13871395642963816, 0
7652, -7.847434572759722, 0.046481578683868485, 0
7653, -7.766723865697186, -0.1671596420556724, 0
7654, -7.779695883759907, 0.10111276719844628, 0
7655, -7.74060057616132, -0.039569991089101586, 0
7656, -7.729560032207087, 0.10163579966470557, 0
7657, -7.802981305971345, 0.1671596420556723, 0
7658, -7.786611116145227, 0.040376039931961615, 0
7659, -7.8222169463596245, -0.008314901581168294, 0
7660, -7.935513973694875, -0.027253903451666603, 0
7661, -7.876288716931869, -0.03319901279574732, 0
7662, -7.868236417256405, -0.1671596420556724, 0
7663, -7.840877495817782, 0.107662392576553, 0
7664, -8.07091041499923, 0.16715964205567235, 0
7665, -7.963738771388075, 0.16715964205567233, 0
7666, -7.897062925140266, 0.0827423017309527, 0
7667, -7.933230588777416, 0.03366661275439305, 0
7668, -8.064745785777012, 0.008092933302436461, 0
7669, -7.996000690394722, 0.005516272372409897, 0
7670, 0.05663661478382474, 8.197361610681831, 0
7671, -7.988217367495202, -0.052325224215925954, 0
7672, -7.711636669059894, 0.0026233013954451347, 0
7673, -7.9321701500622055, -0.10221366695398992, 0
7674, -7.886681334560651, 0.015629053893571977, 0
7675, -8.172774071934061, -0.1671596420556724, 0
7676, -7.918992693036015, -0.1671596420556724, 0
7677, -0.1401748656314435, 6.802354625884607, 0
7678, 0.04782280008456425, 7.530143967017788, 0
7679, 0.11666646323793751, 7.481466375137884, 0
7680, 0.10709064168598459, 7.542337617288701, 0
7681, 0.14318245195350104, 7.588638018749037, 0
7682, 0.08996540153517077, 7.659695823146979, 0
7683, 0.16715964205567227, 7.749395484165768, 0
7684, 0.05158933111824174, 7.726520019452178, 0
7685, 0.13871373842307333, 7.695809662360191, 0
7686, 0.04648043992418398, 7.847436277593628, 0
7687, -0.16715964205567252, 7.766723865697186, 0
7688, 0.10111270657313326, 7.779697515221388, 0
7689, -0.03957018236398212, 7.740601061693566, 0
7690, 0.10163604603204139, 7.72956121443637, 0
7691, 0.1671596420556723, 7.802981305971345, 0
7692, 0.04037543050999203, 7.786612273708944, 0
7693, -0.008315544832379562, 7.822217857340251, 0
7694, -0.027255715485773963, 7.935513202824324, 0
7695, -0.03320019047092893, 7.876288598067949, 0
7696, -0.16715964205567252, 7.868236417256405, 0
7697, 0.10766157136784954, 7.840879494726724, 0
7698, 0.16715964205567235, 8.07091041499923, 0
7699, 0.16715964205567233, 7.963738771388075, 0
7700, 0.08274109667157603, 7.897065324361812, 0
7701, 0.03366514082703499, 7.9332329981231915, 0
7702, 0.008084972267244625, 8.064760338736574, 0
7703, 0.005511669904647312, 7.996008711567596, 0
7704, -0.05664950709030323, -8.197347634392184, 0
7705, -0.05233223291366848, 7.988217875266307, 0
7706, 0.002623117078169304, 7.7116368935509065, 0
7707, -0.10221574700132638, 7.932165692693692, 0
7708, 0.015627757947630938, 7.886683328110549, 0
7709, -0.1671596420556725, 8.172774071934061, 0
7710, -0.16715964205567252, 7.918992693036015, 0
7711, 0.140174864244004, -6.802354625884607, 0
7712, -0.04782287032393909, -7.530144114424515, 0
7713, -0.11666658735213814, -7.481466375137883, 0
7714, -0.1070906801623395, -7.542337896156253, 0
7715, -0.14318269001856604, -7.588638018749037, 0
7716, -0.08996556036150524, -7.659695920063632, 0
7717, -0.16715964205567316, -7.749395484165768, 0
7718, -0.051589451275069004, -7.726519526712288, 0
7719, -0.13871388406292723, -7.695809662360191, 0
7720, -0.046481200676807694, -7.847435138667687, 0
7721, 0.16715964205567233, -7.766723865697186, 0
7722, -0.10111274707212678, -7.779696425312614, 0
7723, 0.03957005458511388, -7.74060073732221, 0
7724, -0.10163588144359541, -7.729560424641834, 0
7725, -0.16715964205567319, -7.802981305971345, 0
7726, -0.04037583763511136, -7.786611500389408, 0
7727, 0.008315115106268887, -7.822217248750971, 0
7728, 0.02725450495227688, -7.935513717797413, 0
7729, 0.03319940372199615, -7.8762886774679615, 0
7730, 0.16715964205567235, -7.868236417256405, 0
7731, -0.10766211997606058, -7.840878159341275, 0
7732, -0.16715964205567324, -8.07091041499923, 0
7733, -0.1671596420556732, -7.963738771388075, 0
7734, -0.08274190171585699, -7.897063721542623, 0
7735, -0.03366612416176029, -7.93323138853892, 0
7736, -0.008090290813943163, -8.064750616303884, 0
7737, -0.005514744679515661, -7.996003352850241, 0
7738, 8.197367246632892, -0.056631416374918114, 0
7739, 0.052327550588745095, -7.988217535961203, 0
7740, -0.0026232402130292164, -7.7116367435759825, 0
7741, 0.10221435741900982, -7.932168670423648, 0
7742, -0.01562862371363287, -7.886681996305533, 0
7743, 0.16715964205567235, -8.172774071934061, 0
7744, 0.16715964205567235, -7.918992693036015, 0
7745, 6.802354625884607, 0.1401748661908719, 0
7746, 7.530143907583031, -0.047822771762774906, 0
7747, 7.481466375137884, -0.11666641319364507, 0
7748, 7.542337504847795, -0.10709062617185602, 0
7749, 7.588638018749037, -0.1431823559639402, 0
7750, 7.659695784071699, -0.08996533749432717, 0
7751, 7.749395484165768, -0.16715964205567377, 0
7752, 7.7265202181317925, -0.05158928266907058, 0
7753, 7.695809662360191, -0.1387136797005317, 0
7754, 7.847436736821185, -0.04648013318438965, 0
7755, 7.766723865697186, 0.16715964205567202, 0
7756, 7.779697954684444, -0.10111269024595983, 0
7757, 7.740601192493124, 0.03957023388167519, 0
7758, 7.729561532888213, -0.10163611239713938, 0
7759, 7.802981305971345, -0.1671596420556738, 0
7760, 7.786612585521315, -0.04037526635652216, 0
7761, 7.822218102732994, 0.008315718100122972, 0
7762, 7.935512995195503, 0.027256203576840263, 0
7763, 7.876288566061967, 0.033200507691076554, 0
7764, 7.868236417256405, 0.167159642055672, 0
7765, 7.8408800331696895, -0.10766135016964873, 0
7766, 8.07091041499923, -0.16715964205567385, 0
7767, 7.963738771388075, -0.16715964205567382, 0
7768, 7.897065970639487, -0.08274077207323885, 0
7769, 7.933233647130355, -0.03366474433151465, 0
7770, 8.064764259189094, -0.008082827630744666, 0
7771, 7.996010872395993, -0.005510430047651102, 0
7772, -0.1671596420556725, 8.071261520374843, 0
7773, 7.988218012174888, 0.05233412101144485, 0
7774, 7.711636954024953, -0.0026230674283216713, 0
7775, 7.932164492092057, 0.10221630728767359, 0
7776, 7.886683865109515, -0.015627408860694053, 0
7777, 8.172774071934061, 0.16715964205567194, 0
7778, 7.918992693036015, 0.16715964205567196, 0
7779, -7.7692513403948515, -0.10017302885038967, 0
7780, -7.822455824093347, -0.12818125164225427, 0
7781, -7.874426600994914, -0.1030023357481725, 0
7782, -7.694538158028711, -0.09842051826106948, 0
7783, -7.6652113141379665, -0.1671596420556724, 0
7784, -7.715967589917576, -0.14818872697748037, 0
7785, -7.625534326993063, -0.1096063005816691, 0
7786, -7.646121795690007, -0.05021279156610997, 0
7787, -3.318765554410212, -0.3112628737924663, 0
7788, -0.10017317722437516, 7.769251591961104, 0
7789, -0.12818161253213384, 7.822455757066551, 0
7790, -0.10300291067711329, 7.874424261603887, 0
7791, -0.09842055241212716, 7.694538363170834, 0
7792, -0.16715964205567252, 7.6652113141379665, 0
7793, -0.1481888156562008, 7.715967589917576, 0
7794, -0.10960615757204187, 7.625534461451057, 0
7795, -0.0502126430243711, 7.646120876059635, 0
7796, 8.04931457940033, 0.05104218418259189, 0
7797, 0.10017307810274668, -7.769251423896756, 0
7798, 0.1281813714397172, -7.8224558018406976, 0
7799, 0.10300252659453073, -7.874425824422821, 0
7800, 0.09842052960229138, -7.69453822612478, 0
7801, 0.16715964205567233, -7.6652113141379665, 0
7802, 0.1481887564176334, -7.715967589917576, 0
7803, 0.10960625311068944, -7.625534371625058, 0
7804, 0.05021274225775546, -7.646121490421926, 0
7805, -0.05104087742105252, 8.049314335926246, 0
7806, 7.76925165973085, 0.10017321719059508, 0
7807, 7.822455739017196, 0.1281817097403683, 0
7808, 7.874423631489112, 0.10300306554048048, 0
7809, 7.694538418428681, 0.0984205616035411, 0
7810, 7.6652113141379665, 0.16715964205567205, 0
7811, 7.715967589917576, 0.14818883953740544, 0
7812, 7.625534497670364, 0.10960611904970999, 0
7813, 7.646120628345459, 0.050212603013456744, 0
7814, 8.071261520374843, 0.16715964205567194, 0
7815, 5.839215618356882, 6.828909661655669, 0
7816, 0.051037636061529855, -8.04931373254685, 0
7817, -8.049313432983462, -0.05103602524900119, 0
7818, 0.16715964205567235, -8.071261520374843, 0
7819, -8.071261520374843, -0.1671596420556724, 0
7820, -8.197340690604324, 0.056655912885417416, 0
7821, -0.3112628737924686, 3.318765554410213, 0
7822, 0.31126287379246786, -3.3187655544102133, 0
7823, 3.318765554410213, 0.3112628737924686, 0
7824, -3.2315916876925077, 0.02614146991650689, 0
7825, -3.1892201652394916, -0.006631491759933057, 0
7826, -3.170360098086084, -0.12095525204011681, 0
7827, 0.02614146991650354, 3.2315916876925046, 0
7828, -0.006631491759935548, 3.1892201652394894, 0
7829, -0.12095525204011705, 3.1703600980860847, 0
7830, -0.02614146991650891, -3.23159168769251, 0
7831, 0.006631491759931787, -3.1892201652394934, 0
7832, 0.12095525204011658, -3.1703600980860847, 0
7833, 3.231591687692503, -0.026141469916502083, 0
7834, 3.189220165239488, 0.006631491759936797, 0
7835, 3.170360098086085, 0.12095525204011696, 0
7836, -3.562315834371808, -0.11281165739514094, 0
7837, -3.6274046824401784, -0.10035595551785956, 0
7838, -3.673699399940002, -0.12563329097525283, 0
7839, -0.11281165739514055, 3.5623158343718093, 0
7840, -0.10035595551785864, 3.6274046824401793, 0
7841, -0.12563329097525305, 3.673699399940002, 0
7842, 0.11281165739514008, -3.5623158343718093, 0
7843, 0.10035595551785809, -3.6274046824401793, 0
7844, 0.12563329097525255, -3.673699399940002, 0
7845, 3.5623158343718115, 0.11281165739513901, 0
7846, 3.62740468244018, 0.10035595551785498, 0
7847, 3.673699399940002, 0.12563329097525236, 0
7848, 5.956629593801629, 6.878320741684014, 0
7849, 6.008505793463765, 6.897265170056726, 0
7850, 5.899811035002854, 6.944391485780531, 0
7851, 5.950133489563186, 6.930200687807769, 0
7852, 5.935119969955694, 6.982235586493639, 0
7853, 5.8302884549813045, 6.951707656029203, 0
7854, 5.804979515773445, 6.888144257383812, 0
7855, 5.735682169278692, 6.875024600529513, 0
7856, 5.870164914065167, 6.886308673948222, 0
7857, 5.736569757112065, 6.737737498832316, 0
7858, 5.717882144418606, 6.806263099841634, 0
7859, 5.646093682273024, 6.784663632208461, 0
7860, 5.784159451637495, 6.787526631071547, 0
7861, 5.809290497136672, 6.715867476251431, 0
7862, 5.777963013357514, 6.841271698792492, 0
7863, 5.6358609825070936, 6.654250041198711, 0
7864, 5.858287548276823, 6.763378779810341, 0
7865, 5.9257334620751845, 6.741944980008302, 0
7866, 5.905780570340528, 6.81274178226877, 0
7867, 5.755250361161464, 6.668014909269868, 0
7868, 5.692395947407454, 6.688538298093437, 0
7869, 5.752945438204285, 6.562187896071922, 0
7870, 5.6816795068454535, 6.742590587048142, 0
7871, 5.684810816559039, 6.637292814612114, 0
7872, 5.631820467677224, 6.5634569261716065, 0
7873, 5.840267854987434, 6.65454976004216, 0
7874, 5.911416573080006, 6.860874999768507, 0
7875, 5.736239389534475, 6.615490362812339, 0
7876, 6.009013232779406, 6.822428098091979, 0
7877, 5.618459196606444, 6.719327958731378, 0
7878, 5.548047987399991, 6.700246421883395, 0
7879, 5.536691996988797, 6.599245122731723, 0
7880, 5.522952973482077, 6.651928907377732, 0
7881, 5.640511202063054, 6.491622873313775, 0
7882, 5.560571305609409, 6.5183942097991325, 0
7883, 5.588577005750718, 6.46928299032651, 0
7884, 5.473054536351571, 6.435946980838042, 0
7885, 5.5445262346835635, 6.405925597642993, 0
7886, 5.526784106804473, 6.46658629818719, 0
7887, 5.454352149311987, 6.5311739221947995, 0
7888, 5.579173316023921, 6.567840143725705, 0
7889, 5.510190711344192, 6.547466138697779, 0
7890, 5.691868101108889, 6.573744267865371, 0
7891, 5.3333854827158085, 6.552441180628998, 0
7892, 5.405512430199837, 6.5491620435298605, 0
7893, 5.404824172972908, 6.471996696474195, 0
7894, 5.345035793838215, 6.490844443044314, 0
7895, 5.286940804818676, 6.409798727669621, 0
7896, 5.388927265639294, 6.359315252684619, 0
7897, 5.417181479800437, 6.412791272264092, 0
7898, 5.352021585328843, 6.413016587634395, 0
7899, 5.461668196480993, 6.355084474176842, 0
7900, 5.4221110432262645, 6.302410268817774, 0
7901, 5.29727211673942, 6.267739192670234, 0
7902, 5.484772730004384, 6.284484308312162, 0
7903, 5.368419890411074, 6.253647009860248, 0
7904, 5.343275886815112, 6.3133508748818175, 0
7905, 5.322416184914783, 6.2080356536932975, 0
7906, 5.393642368009062, 6.193655904987597, 0
7907, 5.321753229489994, 6.365456070332113, 0
7908, 5.237009212240845, 6.334762000266635, 0
7909, 5.179104127837727, 6.182826431695764, 0
7910, 5.301642276382729, 6.103697231294043, 0
7911, 5.496395312533378, 6.391427425129451, 0
7912, 5.24788215518409, 6.211792208904247, 0
7913, 5.231638824235524, 6.129735920857299, 0
7914, 5.235329495627626, 6.272647893897494, 0
7915, 5.162909027139045, 6.305686084623936, 0
7916, 5.128223634458439, 6.079941009812755, 0
7917, 5.283328384801285, 6.161580816285392, 0
7918, 5.183039341359987, 6.363344222099752, 0
7919, 5.089226125094154, 6.242222831105072, 0
7920, 5.179118835453747, 6.245325598919909, 0
7921, 5.193140026921827, 6.07740613782855, 0
7922, 5.162568122488261, 6.126980257326062, 0
7923, 5.108319036654997, 6.1734146019366705, 0
7924, 5.1587542504791335, 6.029309521410267, 0
7925, 5.047409440248081, 5.996689651188299, 0
7926, 5.107829006743658, 5.99679560451146, 0
7927, 5.077713123484793, 5.943196439250444, 0
7928, 4.986340070409889, 5.926764044291533, 0
7929, 5.135065929582492, 6.21788939709937, 0
7930, 5.033016782372141, 6.189572793604486, 0
7931, 5.111833912163446, 6.290480204791241, 0
7932, 5.041844630762697, 6.29737431213927, 0
7933, 4.962297677436862, 6.191491423517899, 0
7934, 4.959591410142691, 6.074314838095375, 0
7935, 4.99607172856828, 6.132091846274325, 0
7936, 4.936437145925183, 6.129339720570937, 0
7937, 4.867614496015968, 6.1030718639460115, 0
7938, 5.032713345904715, 6.068551068774, 0
7939, 4.856992298813221, 5.967790109828663, 0
7940, 5.061497565357762, 6.12748518580924, 0
7941, 4.843227467274184, 6.036928811136434, 0
7942, 4.77036880404625, 6.017565793671559, 0
7943, 4.914408980194051, 6.0151607747051985, 0
7944, 5.083744233017012, 6.046777315585704, 0
7945, 4.752257757051596, 5.885785254420611, 0
7946, 4.907019653948033, 6.067637225744913, 0
7947, 4.921804908814409, 5.9477144494054786, 0
7948, 4.858495833900805, 5.857985241716025, 0
7949, 4.875577461642025, 5.913131864723186, 0
7950, 4.809134414133273, 5.921028407322876, 0
7951, 4.936090657703212, 5.864169122147094, 0
7952, 4.803393139255437, 5.97477500143689, 0
7953, 4.981571478038798, 6.01069384136054, 0
7954, 5.004340261055474, 5.856627301765004, 0
7955, 5.460725284461458, 6.60730019014195, 0
7956, 5.2367276701595316, 6.466845622799248, 0
7957, 5.233815538534474, 6.391018483708627, 0
7958, 4.7385884640247555, 5.952826525094968, 0
7959, 4.667031114186304, 5.93937487658795, 0
7960, 4.654072938807459, 5.824201533977159, 0
7961, 4.641499141694435, 5.88393184909063, 0
7962, 4.57179000566776, 5.851195552628152, 0
7963, 4.697219577146505, 5.86447291929819, 0
7964, 4.759284591623098, 5.754727373280458, 0
7965, 4.746185957697023, 5.819742390299523, 0
7966, 4.8156078974625744, 5.799901885627286, 0
7967, 4.801088704568409, 5.85549825802485, 0
7968, 4.819932427144674, 5.736811055575917, 0
7969, 4.893839631209867, 5.7870122731532385, 0
7970, 4.8285958737859085, 5.666949807291431, 0
7971, 4.645251453354002, 5.696438946819721, 0
7972, 4.7662664593189, 5.688986711687727, 0
7973, 4.707190154265086, 5.715953698979794, 0
7974, 4.659379613470394, 5.759649292368541, 0
7975, 4.731377404373513, 5.58220951138394, 0
7976, 4.710392091659042, 5.778703962645071, 0
7977, 4.556981746089304, 5.749352198202239, 0
7978, 4.60988753235195, 5.737527212704809, 0
7979, 4.565600206538439, 5.663647245343997, 0
7980, 4.71173440699024, 5.647716322996772, 0
7981, 4.538058149282776, 5.804101987830956, 0
7982, 4.469427501415186, 5.771694744911745, 0
7983, 4.59968704879532, 5.7973270068276435, 0
7984, 4.633807587955874, 5.611103629370744, 0
7985, 4.4457988169488205, 5.6538376890672195, 0
7986, 4.662790842850692, 5.650651835936988, 0
7987, 4.537652918102439, 5.5568264548891, 0
7988, 4.502274998665656, 5.700565095450302, 0
7989, 4.438006296783663, 5.7166971175339265, 0
7990, 4.366939950643196, 5.692304773390752, 0
7991, 4.633289205330105, 5.498338945107461, 0
7992, 4.565137862285084, 5.5087126761783445, 0
7993, 4.459670842874947, 5.480372016831681, 0
7994, 4.520833044095796, 5.463175787215645, 0
7995, 4.599210598060359, 5.560083951443745, 0
7996, 4.565889048394571, 5.606505387257766, 0
7997, 4.50766137987987, 5.634782715889466, 0
7998, 4.502357451456634, 5.514829823638511, 0
7999, 4.426596018870422, 5.565014535829225, 0
8000, 4.478117213590661, 5.428614046162654, 0
8001, 4.354082761586426, 5.413574673232261, 0
8002, 4.434503618350259, 5.333207001447533, 0
8003, 4.402038746879701, 5.454620969236036, 0
8004, 4.371644310078018, 5.35357067834804, 0
8005, 4.296622779073265, 5.529244977477387, 0
8006, 4.22837405232198, 5.344211236758773, 0
8007, 4.41955293897283, 5.394256714075324, 0
8008, 4.339927781366085, 5.478650057709506, 0
8009, 4.3338062304138205, 5.251945624064085, 0
8010, 4.389799369212306, 5.515271834222076, 0
8011, 4.246594004887526, 5.442594365797729, 0
8012, 4.30259768980319, 5.436452976667192, 0
8013, 4.304731035739504, 5.371883974519602, 0
8014, 4.4835882334295345, 5.580773889209856, 0
8015, 4.381130705713497, 5.621331059712481, 0
8016, 4.2381609709378045, 5.270574692790126, 0
8017, 4.060784109959634, 5.28446846392544, 0
8018, 4.208813921421641, 5.20143781949863, 0
8019, 4.150955421234912, 5.296452992766297, 0
8020, 4.200345889500792, 5.303017403142773, 0
8021, 4.324637123833913, 5.313216217172625, 0
8022, 4.2712668266283185, 5.312443394673835, 0
8023, 4.254908869555129, 5.390175827520867, 0
8024, 4.176760807550548, 5.4046483696804986, 0
8025, 4.110609527674676, 5.199827312988379, 0
8026, 4.17304908092751, 5.494710276686092, 0
8027, 4.1600449342640085, 5.180314326033147, 0
8028, 4.197022708520504, 5.45059086389185, 0
8029, 4.349677219089629, 5.565376359089257, 0
8030, 4.315828999722971, 5.6212209914723, 0
8031, 4.2414136160515845, 5.642419802826299, 0
8032, 4.264956153931701, 5.5838508361417665, 0
8033, 4.230526031909325, 5.527399508075078, 0
8034, 4.095723459772892, 5.3668012931635145, 0
8035, 4.110361236560549, 5.256667007149858, 0
8036, 4.166006094795477, 5.2404941914969605, 0
8037, 3.9444389981923993, 5.158994128846782, 0
8038, 4.105402862023554, 5.123769344105382, 0
8039, 4.030549195312508, 5.167100767000721, 0
8040, 4.054175881662278, 5.223592565861177, 0
8041, 3.955884062935149, 5.26505900301216, 0
8042, 3.9930651445556475, 5.215964421357881, 0
8043, 3.994848725953415, 5.084925227810557, 0
8044, 4.050279608588765, 5.103909514633224, 0
8045, 3.990054468874204, 5.135850705708532, 0
8046, 4.109295385156672, 5.44697535260052, 0
8047, 4.036081148092865, 5.484413858829794, 0
8048, 4.0472620606548055, 5.416154953370115, 0
8049, 3.9801861802601834, 5.353541080048184, 0
8050, 4.03812239853151, 5.358711061828351, 0
8051, 4.139008617786272, 5.56313019666146, 0
8052, 4.102566085905476, 5.315317536135193, 0
8053, 4.151267082168847, 5.353553734218052, 0
8054, 3.8658579729705536, 5.051325196894608, 0
8055, 4.026495688818441, 5.013379869699806, 0
8056, 3.932631206971362, 5.4062707893313, 0
8057, 3.9250209095808084, 5.321114145155384, 0
8058, 3.852740120632834, 5.296221929873148, 0
8059, 3.8239734457901453, 5.177747769151299, 0
8060, 3.8187985780324456, 5.241733771348548, 0
8061, 3.746522048707286, 5.221171866336469, 0
8062, 3.8915296571065383, 5.215413637368726, 0
8063, 3.7225789765353388, 5.14512533405832, 0
8064, 3.9009984387691197, 5.269672843378862, 0
8065, 3.778866823232404, 5.0747757344843345, 0
8066, 3.7698682546935043, 5.172028892012783, 0
8067, 3.7333686719562427, 5.096065137239195, 0
8068, 3.7347082979900175, 5.031283644152671, 0
8069, 4.003759370087241, 5.299488168807192, 0
8070, 3.924358513877271, 5.0911394279649125, 0
8071, 3.8799722094681086, 5.141173420988539, 0
8072, 3.9277061074574573, 5.0233350498906795, 0
8073, 3.8238675234594703, 5.116428733523405, 0
8074, 3.868180481226438, 4.9741309888346885, 0
8075, 3.978782701718337, 5.035046727940307, 0
8076, 3.808320726119506, 5.010962056829588, 0
8077, 3.817877686697558, 4.9343110779359, 0
8078, 3.81734702638597, 4.858811919874203, 0
8079, 3.92231938235796, 4.935597410840401, 0
8080, 3.7701288427454487, 4.899274942859038, 0
8081, 6.657206428411081, 5.729148883822032, 0
8082, 6.660844589999069, 5.782686822982302, 0
8083, 6.5848331413485655, 5.7288126886819075, 0
8084, 6.573622791943115, 5.636450416024026, 0
8085, 6.621258788326866, 5.677530116633776, 0
8086, 6.55973114729729, 5.684997953166877, 0
8087, 6.497232883194646, 5.634645987830425, 0
8088, 6.4875709444706375, 5.485334058166078, 0
8089, 6.53728121850258, 5.5570858940872405, 0
8090, 6.610950137802287, 5.519796486391445, 0
8091, 6.470622969616892, 5.571786324344013, 0
8092, 6.400679831819669, 5.549906741236379, 0
8093, 6.391524328708711, 5.446838695058785, 0
8094, 6.447677960771162, 5.522400857529056, 0
8095, 6.376588023754965, 5.50010614583641, 0
8096, 6.314347920632438, 5.454722165824635, 0
8097, 6.59673132742576, 5.579545734386168, 0
8098, 6.5516414926560245, 5.49404121019224, 0
8099, 6.529008415131221, 5.420502682952687, 0
8100, 6.605844618514511, 5.450388440636518, 0
8101, 6.307227901730826, 5.295919055867237, 0
8102, 6.457767742934445, 5.420626887157556, 0
8103, 6.390814780120605, 5.348233237104832, 0
8104, 6.552441180628998, 5.3333854827158085, 0
8105, 6.410268958710693, 5.397398529923272, 0
8106, 6.493289784010049, 5.364185023160859, 0
8107, 6.290959063039915, 5.376209647424654, 0
8108, 6.448644298583411, 5.313861714241148, 0
8109, 6.466845622799248, 5.2367276701595316, 0
8110, 6.218251445343271, 5.369361557468562, 0
8111, 6.210758180580731, 5.269664115223675, 0
8112, 6.194947799578046, 5.320982742453544, 0
8113, 6.254169926286716, 5.322257956858919, 0
8114, 6.335632834014035, 5.343468118463283, 0
8115, 6.348108330794135, 5.403518025165821, 0
8116, 6.675964479571968, 5.651401655955321, 0
8117, 6.133925609073136, 5.272365911475349, 0
8118, 6.132209476049196, 5.105518637531457, 0
8119, 6.169442672933213, 5.188568132565054, 0
8120, 6.171207010695283, 5.238741644791872, 0
8121, 6.108150646982648, 5.212015675131467, 0
8122, 6.040140696763218, 5.184512663326447, 0
8123, 6.033835875757876, 5.084013477357161, 0
8124, 6.092634626045563, 5.1525443454582245, 0
8125, 6.017333781875401, 5.135496096568851, 0
8126, 6.284970009887209, 5.187343229220175, 0
8127, 5.957054968518722, 5.0864477976457785, 0
8128, 5.9605867802782235, 4.912740939119888, 0
8129, 5.992752217607784, 5.0002842612171134, 0
8130, 5.994373860034327, 5.051432492331008, 0
8131, 5.932527925155466, 5.025809939752235, 0
8132, 5.865135193462093, 4.996560085105438, 0
8133, 5.9437974488180005, 4.968590550180675, 0
8134, 5.860768885934875, 4.89532905713487, 0
8135, 5.84326307312889, 4.946793797732384, 0
8136, 6.268664539640059, 5.247255159295301, 0
8137, 6.227374790755527, 5.203843060380421, 0
8138, 6.2194877830807425, 5.116260598069562, 0
8139, 6.172600405712525, 5.137281399607486, 0
8140, 6.184664285414687, 5.039262514423362, 0
8141, 6.29737431213927, 5.041844630762697, 0
8142, 6.2787988938983075, 5.1003703625984755, 0
8143, 6.240664144766688, 5.056056134341042, 0
8144, 6.098318790005899, 5.024795231720592, 0
8145, 6.187103995888388, 4.966021450219827, 0
8146, 6.146634405875041, 5.001334546526313, 0
8147, 6.0820338265463, 4.929775872149613, 0
8148, 6.137572997117222, 4.93919029368105, 0
8149, 6.137505441128474, 5.055819206832343, 0
8150, 6.086891407769353, 5.077068859231525, 0
8151, 5.7838539722671545, 4.896870460609166, 0
8152, 5.75964027043936, 4.8385456161973766, 0
8153, 5.82581279852892, 4.839139836418596, 0
8154, 5.884392512313641, 4.76261448502467, 0
8155, 5.83789481642133, 4.729769102541466, 0
8156, 6.052210205166836, 4.983792400693391, 0
8157, 6.019978236890587, 4.9307550995288585, 0
8158, 6.0142526438082795, 4.842720120503604, 0
8159, 6.130196074811985, 4.844871705653485, 0
8160, 5.930112605513654, 4.83380880168724, 0
8161, 5.878417965113598, 4.845381380261134, 0
8162, 6.0194909567657975, 4.768774177550222, 0
8163, 5.975933696934044, 4.802847103551999, 0
8164, 5.9694605458636785, 4.863966135445148, 0
8165, 5.965310910817395, 4.645808894831895, 0
8166, 5.963581511175728, 4.742179377227468, 0
8167, 5.896173070228833, 4.6448942933162565, 0
8168, 5.930106666460264, 4.6933779017373976, 0
8169, 6.071778056353131, 4.867846040076615, 0
8170, -6.307521250355066, 5.461591572348668, 0
8171, -6.280507602398489, 5.350562576942003, 0
8172, -6.275238514518995, 5.292110177767753, 0
8173, -6.193655904987597, 5.393642368009062, 0
8174, -6.286976871239046, 5.407789330405818, 0
8175, -6.3384409567489435, 5.353884607300915, 0
8176, -6.218130028973865, 5.32672180681526, 0
8177, -4.260813237413221, -2.8274771497536197, 0
8178, -4.2521201949110194, -2.7683422202549077, 0
8179, -2.8274771497537396, 4.260813237413015, 0
8180, -2.768342220254636, 4.2521201949112575, 0
8181, 2.827477149753495, -4.260813237413437, 0
8182, 2.768342220255273, -4.252120194910725, 0
8183, 4.260813237413015, 2.8274771497537396, 0
8184, 4.2521201949112575, 2.768342220254636, 0
8185, 5.454504421710482, -4.058814142763109, 0
8186, 5.368403300223193, -4.031847405977523, 0
8187, 5.3623809445647765, -4.088866077396135, 0
8188, 5.417606117072736, -4.025687457694417, 0
8189, 5.374791382969455, -3.9562629353971626, 0
8190, 5.235835654074339, -3.931863407504346, 0
8191, 5.297632972560802, -3.987804012135247, 0
8192, 5.258926360323284, -4.045312913038392, 0
8193, 5.3140852300454045, -4.04199808357003, 0
8194, 5.3165360886596815, -3.9239001848793933, 0
8195, 5.298442945489414, -3.8510933671742538, 0
8196, 5.207874346500031, -3.9966290652782095, 0
8197, 5.098118659007184, -3.9108254881803957, 0
8198, 5.118357647294791, -3.998035585583534, 0
8199, 5.164224257374046, -3.9393652889305617, 0
8200, 5.097500146402667, -4.048103859608207, 0
8201, 5.044629529774562, -3.996700397290794, 0
8202, 5.1890667649360385, -3.830962013686012, 0
8203, 5.082161576792848, -3.960482170112617, 0
8204, 5.021127748956332, -3.913476832976211, 0
8205, 5.150953169763732, -3.879275801666668, 0
8206, 5.206712503355243, -3.8840726630652838, 0
8207, 5.090848902184474, -3.792670631165067, 0
8208, 5.134115309420588, -3.8268024680356847, 0
8209, 5.167843300880518, -3.7462840391376444, 0
8210, 5.2730454611585085, -3.8960564309423495, 0
8211, 5.247801627321417, -3.8190410675695796, 0
8212, 5.229621594479099, -3.758705802776134, 0
8213, 4.9355974108404, -3.9223193823579603, 0
8214, 5.031297754599566, -3.749463670586614, 0
8215, 5.017634179587357, -3.8309383180858596, 0
8216, 4.961291460888073, -3.862871526630845, 0
8217, 4.968576944833585, -3.810054037141936, 0
8218, 5.163572668364287, -3.6925278638821464, 0
8219, 5.058191092375988, -3.8705648772715526, 0
8220, 5.109186487579181, -3.736015567721615, 0
8221, -3.8997232335339955, -4.966158278622013, 0
8222, -3.8274997777054107, -4.982988651073226, 0
8223, -3.808027574426425, -5.03438571393233, 0
8224, -3.8173470263859706, -4.858811919874203, 0
8225, -3.7599886985291344, -4.903392437803492, 0
8226, -3.8164014498868126, -4.923973388811827, 0
8227, -7.512942486799139, -0.1671596420556724, 0
8228, -7.485570612117841, -0.11872316218009135, 0
8229, -7.41142993523992, -0.1427625657643519, 0
8230, -0.16715964205567252, 7.512942486799139, 0
8231, -0.11872293138359662, 7.485569826707616, 0
8232, -0.14276212954915796, 7.41142993523992, 0
8233, 0.16715964205567233, -7.512942486799139, 0
8234, 0.11872308556768005, -7.485570351405185, 0
8235, 0.1427624209651976, -7.41142993523992, 0
8236, 7.512942486799139, 0.16715964205567205, 0
8237, 7.485569615144997, 0.11872286921610936, 0
8238, 7.41142993523992, 0.14276201204754332, 0
8239, -8.153591726260512, -0.029191293328229666, 0
8240, -8.129243640097728, 0.03728799182282029, 0
8241, -8.0675973584317, 0.08763523008201538, 0
8242, -8.146848831738106, 0.10478623794093272, 0
8243, -7.966754084463498, 0.09623788074269161, 0
8244, -8.017324593193653, 0.13391291922280454, 0
8245, -8.178082058610382, 0.16715964205567235, 0
8246, -8.124496236804806, 0.16715964205567235, 0
8247, -8.296030147512397, -0.04770879826204399, 0
8248, -8.157098203971817, -0.09902144958773712, 0
8249, -8.221910062857688, -0.06076384662223646, 0
8250, -8.20736940457306, -0.0025260153547482372, 0
8251, -8.285470232178692, 0.041149288993810186, 0
8252, -8.27428662349328, -0.1671596420556724, 0
8253, -8.267782969120804, -0.10427138956305551, 0
8254, -8.339746627764493, -0.10487524083203942, 0
8255, -8.22353034771367, -0.14062823801996505, 0
8256, -8.32504289927289, -0.1671596420556724, 0
8257, -8.327228907187871, 0.0010553844456603137, 0
8258, -8.713940276666154, 0.1671596420556725, 0
8259, -8.373445562773915, -0.03380618274342827, 0
8260, -8.477311726611719, -0.1671596420556724, 0
8261, -9.14262685111077, 0.1671596420556726, 0
8262, -8.403287194214393, -0.1096720618395301, 0
8263, -8.31168849886799, 0.1120791007874413, 0
8264, -8.392425345832692, 0.1671596420556724, 0
8265, -7.910152949582499, 0.1409434892380584, 0
8266, -8.014586337691739, 0.061582895151027835, 0
8267, -8.261028532771427, -0.006811883132183574, 0
8268, -8.251116817858527, 0.10409562035416964, 0
8269, -8.199070270016898, 0.11764322374893146, 0
8270, -8.499596989443845, 0.16715964205567244, 0
8271, -9.18789958752625, -0.1671596420556724, 0
8272, -8.781849381289375, -0.1671596420556724, 0
8273, -8.522678870804466, -0.010856096941936053, 0
8274, -8.343788711358647, 0.060096018364450166, 0
8275, -8.433175866903447, -0.05339524315333831, 0
8276, -8.44916936763869, 0.055602308185043386, 0
8277, -8.415868022058662, 0.0070355356433843, 0
8278, -8.578824278170938, -0.1671596420556724, 0
8279, -8.46778625709929, -0.0107886182782417, 0
8280, -8.539700710049893, 0.08185528046739207, 0
8281, -8.505757315326802, -0.0906802963051943, 0
8282, -8.45750370654107, -0.11626260997626475, 0
8283, -8.604140050017346, -0.06983032809943532, 0
8284, -8.52806800239133, -0.14250816579305656, 0
8285, -8.550321525759587, -0.05842159301385853, 0
8286, -8.502546052581188, 0.04075859140901682, 0
8287, -8.48322552308966, 0.1073839415656273, 0
8288, -8.42077269862515, 0.11136843268756838, 0
8289, -8.366276545019634, 0.11877630283667015, 0
8290, -8.606768633055, 0.16715964205567246, 0
8291, -8.608094227388058, 0.021379911958721215, 0
8292, -8.680336829730155, -0.1671596420556724, 0
8293, -8.553182811249423, 0.14027261790619708, 0
8294, -8.555671099294322, 0.031004815439706554, 0
8295, -8.611645545407175, 0.09430809651296924, 0
8296, -8.660354454860578, 0.1341578353424394, 0
8297, -8.771100740103513, 0.014341639563870662, 0
8298, -8.727502439664619, 0.08513324132813918, 0
8299, -8.666829983245389, 0.05507026977992094, 0
8300, -8.928283563888462, 0.16715964205567255, 0
8301, -8.809028909621523, 0.08652160079026072, 0
8302, -8.821111920277307, 0.16715964205567252, 0
8303, -8.767447495260138, 0.13387209443232778, 0
8304, -8.874697742082885, 0.11790590999119621, 0
8305, -8.785477382777817, -0.07587587702204521, 0
8306, -8.984874484407811, -0.1671596420556724, 0
8307, -8.965546490698697, 0.0728429360575279, 0
8308, -8.864629742665851, 0.05457708440622138, 0
8309, -8.928784557330605, 0.11283824865865841, 0
8310, -8.918512094032545, 0.04479292571133511, 0
8311, -9.003854896269573, -0.04485154881462239, 0
8312, -8.831341744624345, 0.003132657111460339, 0
8313, -8.971351323199446, 0.009650603946798904, 0
8314, -9.09008190737161, 0.05241994830454248, 0
8315, -8.904763354105107, -0.06700380631685532, 0
8316, -9.037514082672105, 0.01216504825991628, 0
8317, -8.918851057014153, -0.01199253455745014, 0
8318, -9.035455207499616, 0.16715964205567257, 0
8319, -9.134120273111593, -0.05953953168164995, 0
8320, -8.98733341678524, 0.1297611538322735, 0
8321, -9.096078722229926, -0.009862061961743364, 0
8322, -9.047205893889858, 0.10238052884053792, 0
8323, -9.356970138333077, 0.16715964205567266, 0
8324, -9.089041029305193, 0.14342458600938823, 0
8325, -9.154936259074653, -0.004194972059454717, 0
8326, -9.268993285075842, 0.05806016631824737, 0
8327, -9.188909512342253, -0.04855975796783629, 0
8328, -9.196430279772194, -0.10792804226851299, 0
8329, -9.016339157322369, 0.06006819549986429, 0
8330, -8.629580553950547, -0.1284045396209458, 0
8331, -8.69506550734912, -0.0651506115503615, 0
8332, -8.664495140239774, -0.008904291007526186, 0
8333, -8.713740002598719, 0.02132833448698246, 0
8334, -8.844050950045732, -0.05706139312809251, 0
8335, -8.883361932848594, -0.1671596420556724, 0
8336, -8.832952057460565, -0.1230914829731305, 0
8337, -8.964467000566083, -0.10136591501366532, 0
8338, -8.934118208628202, -0.14684110806044698, 0
8339, -8.734452959685829, -0.11956192998407653, 0
8340, -8.744344720990927, -0.03617633050888681, 0
8341, -8.020130210445593, -0.1163599611887649, 0
8342, -8.106987372505255, -0.06653461778801266, 0
8343, -8.106058144936046, -0.12285926073017636, 0
8344, -0.02921120556106288, 8.153605416740783, 0
8345, 0.03727100651053621, 8.129263111822741, 0
8346, 0.08763054997886828, 8.067622172445454, 0
8347, 0.10477200569737065, 8.146870229117663, 0
8348, 0.09623703331858889, 7.96675742126807, 0
8349, 0.1339148482443855, 8.017324593193653, 0
8350, 0.16715964205567235, 8.178082058610382, 0
8351, 0.16715964205567235, 8.124496236804806, 0
8352, -0.0477284093109997, 8.296028406553328, 0
8353, -0.09903361494117725, 8.157085683335756, 0
8354, -0.06080438217705478, 8.221913069565858, 0
8355, -0.002552584092895601, 8.20739532908592, 0
8356, 0.04113105691889856, 8.285490138966853, 0
8357, -0.1671596420556725, 8.27428662349328, 0
8358, -0.10428329348514731, 8.26779508703095, 0
8359, -0.10488065930657108, 8.3397516127534, 0
8360, -0.1406265902704648, 8.22353034771367, 0
8361, -0.1671596420556725, 8.32504289927289, 0
8362, 0.0010235414484757732, 8.327204537569555, 0
8363, 0.1671596420556725, 8.713940276666154, 0
8364, -0.03384992951286191, 8.373384022961925, 0
8365, -0.16715964205567246, 8.477311726611719, 0
8366, 0.1671596420556726, 9.14262685111077, 0
8367, -0.10970221995413866, 8.403244597621581, 0
8368, 0.11207680643835771, 8.31172592854128, 0
8369, 0.1671596420556724, 8.392425345832692, 0
8370, 0.1409430304097038, 7.910152949582499, 0
8371, 0.06158406295506126, 8.014600146544655, 0
8372, -0.0068222056605478296, 8.261048606856864, 0
8373, 0.1040811236420358, 8.251137426310342, 0
8374, 0.11764760931314139, 8.199091431320342, 0
8375, 0.16715964205567244, 8.499596989443845, 0
8376, -0.16715964205567246, 9.18789958752625, 0
8377, -0.16715964205567246, 8.781849381289375, 0
8378, -0.01098889800145205, 8.522393083332146, 0
8379, 0.060093577976021786, 8.343860668381527, 0
8380, -0.05342378949299195, 8.433032931569272, 0
8381, 0.055405987106030945, 8.44906044414231, 0
8382, 0.006931365277259814, 8.415759148392784, 0
8383, -0.16715964205567246, 8.578824278170938, 0
8384, -0.010884616103818377, 8.467587854559731, 0
8385, 0.08175022724935714, 8.539635408311497, 0
8386, -0.0907019804200352, 8.505491115992045, 0
8387, -0.11639036511949571, 8.457376085509946, 0
8388, -0.06988200711522893, 8.603722388299678, 0
8389, -0.14244472002947758, 8.528068002391327, 0
8390, -0.05848788279749094, 8.549985402980072, 0
8391, 0.04068965632199427, 8.502459439748405, 0
8392, 0.10732636963554855, 8.483077775135046, 0
8393, 0.11118699845083316, 8.420553828435976, 0
8394, 0.11892595527328871, 8.366199516747518, 0
8395, 0.16715964205567246, 8.606768633055, 0
8396, 0.02113381572696118, 8.607641980531014, 0
8397, -0.16715964205567246, 8.680336829730155, 0
8398, 0.14019036720589326, 8.553182811249421, 0
8399, 0.0308656921640608, 8.555298360462004, 0
8400, 0.09417377125716045, 8.611726856264038, 0
8401, 0.13413859065100578, 8.660354454860578, 0
8402, 0.013389186435440181, 8.771730694877267, 0
8403, 0.08463411730277275, 8.727827616689385, 0
8404, 0.054453615023588704, 8.66690547193808, 0
8405, 0.16715964205567255, 8.928283563888462, 0
8406, 0.08598492286324973, 8.809778550920134, 0
8407, 0.16715964205567252, 8.821111920277307, 0
8408, 0.13374578973847243, 8.76752609847173, 0
8409, 0.11829962629256435, 8.874697742082885, 0
8410, -0.044178873909470576, 9.009834783184091, 0
8411, -0.16715964205567246, 8.984874484407811, 0
8412, 0.07303979420821172, 8.965034451784115, 0
8413, 0.05330541662456995, 8.866547577240183, 0
8414, 0.11303510680934248, 8.928566379852104, 0
8415, 0.04322230165051458, 8.919788570828636, 0
8416, 0.009477298166502335, 8.974474823829468, 0
8417, 9.1109494227146e-05, 8.833139404612515, 0
8418, -0.07645769637149484, 8.784418528308478, 0
8419, 0.058587410532196384, 9.086430746124835, 0
8420, -0.16715964205567246, 8.883361932848594, 0
8421, 0.013750902297362151, 9.039349361136694, 0
8422, -0.015164776340155596, 8.921514481972805, 0
8423, 0.16715964205567257, 9.035455207499616, 0
8424, 0.12986631820607686, 8.987191420833271, 0
8425, 0.10526612784189837, 9.044740063644435, 0
8426, -0.05055090427814537, 9.145475234936773, 0
8427, 0.14355504956529264, 9.089041029305193, 0
8428, -0.04236854780296944, 9.077889723985265, 0
8429, 0.005083874852177664, 9.117922694421015, 0
8430, -0.06828394452226665, 9.330679780153305, 0
8431, -0.16715964205567246, 9.08638703596703, 0
8432, -0.10725451451856527, 9.045564203771121, 0
8433, -0.1064283304492934, 9.111141638870624, 0
8434, -0.16715964205567246, 9.03563076018742, 0
8435, -0.10633232927996764, 9.173622043917284, 0
8436, -0.16715964205567244, 9.390924690644688, 0
8437, -0.16715964205567244, 9.593949793763125, 0
8438, -0.16715964205567246, 9.137143311746641, 0
8439, 0.1671596420556727, 9.571313425555385, 0
8440, -0.003092293149460433, 9.1713590106522, 0
8441, -0.1231567109011863, 9.238655863305858, 0
8442, -0.16715964205567246, 9.289412139085469, 0
8443, -0.05252531563303055, 9.224702955434159, 0
8444, -0.11091004467856547, 9.293725269174088, 0
8445, -0.12350360856569333, 9.351312952174364, 0
8446, -0.04214579506806734, 9.484839759563698, 0
8447, -0.16715964205567244, 9.492437242203906, 0
8448, 0.16715964205567263, 9.249798494721922, 0
8449, 0.016207063235141837, 9.455695789568166, 0
8450, 0.061027428499996664, 9.016258888564636, 0
8451, 0.16715964205567269, 9.464141781944232, 0
8452, -0.07863779957428157, 9.387177789458097, 0
8453, 0.06269690062562047, 9.281901243656211, 0
8454, 0.055369040104948614, 9.560917262899954, 0
8455, -0.04528382304262619, 9.433940377275372, 0
8456, -0.10619613477572928, 9.463242141650747, 0
8457, -0.09856145735988346, 9.54637389642498, 0
8458, -0.16715964205567244, 9.441680966424297, 0
8459, 0.16715964205567266, 9.356970138333077, 0
8460, 0.09990016873922342, 9.125855244029207, 0
8461, 0.013513941660955736, 9.236324143457745, 0
8462, 0.0435929044206446, 9.369906208526274, 0
8463, -0.01748125651056268, 9.378833507513995, 0
8464, 0.010693565577973449, 9.517646346831311, 0
8465, 0.0656053065155255, 9.505650460683464, 0
8466, -0.025997160036807604, 9.600226310535472, 0
8467, 0.11340606418398165, 9.543085258713752, 0
8468, -0.0036019344278684085, 9.304119750799508, 0
8469, 0.05577331161367002, 9.190916912678812, 0
8470, -0.051717773033848224, 9.278983093194356, 0
8471, -0.12181910727796218, 9.414557485000259, 0
8472, -0.16715964205567244, 9.543193517983514, 0
8473, -0.09763921525594377, 9.620946375521015, 0
8474, 0.05096344455919751, 9.14015976936428, 0
8475, -0.12832551813785772, 8.629580553950547, 0
8476, -0.16715964205567244, 9.695462345322344, 0
8477, -0.16715964205567244, 9.796974896881562, 0
8478, -0.042509081050245937, 9.677349844105933, 0
8479, -0.14686766888112496, 9.644706069542735, 0
8480, -0.009055682567614042, 8.663613931638624, 0
8481, -0.0647138001922076, 8.694378181354127, 0
8482, 0.16715964205567277, 9.785656712777692, 0
8483, 0.020176312666320695, 8.713933556941784, 0
8484, -0.10033681777479528, 8.971081406911775, 0
8485, -0.0504458875870757, 8.958850146396623, 0
8486, -0.08763167730773369, 8.888373020866931, 0
8487, -0.14280143528844064, 8.934118208628202, 0
8488, -0.12403961168243252, 8.832605657068983, 0
8489, -0.03648293707530619, 8.872330076915162, 0
8490, -0.07267264599277665, 8.835741755726298, 0
8491, 0.10257005454432355, 9.336632869816683, 0
8492, 0.11992251500908131, 9.282101199754006, 0
8493, 0.111857475890182, 9.219618050510212, 0
8494, 0.11479053691261179, 9.410555960138655, 0
8495, 0.12452366764410545, 9.170358922553982, 0
8496, 0.07281991234138539, 9.449114873651927, 0
8497, -0.0407168070651413, 9.544245365537915, 0
8498, -0.09614322973439693, 9.746218621101953, 0
8499, -0.16715964205567244, 9.746218621101953, 0
8500, -0.10248691642474608, 9.685959043523042, 0
8501, 0.03182078518352868, 9.790556214428241, 0
8502, -0.02461409378606938, 9.746605431190106, 0
8503, 0.16715964205567274, 9.678485069166538, 0
8504, 0.092253073415878, 9.686533006385371, 0
8505, 2.220446049250313e-16, 10.0, 0
8506, 0.032137758730343115, 9.73194129042172, 0
8507, 0.09853094659704345, 9.761608645757859, 0
8508, -0.06062979263907024, 9.79285128748718, 0
8509, -0.1671596420556724, 9.89848744844078, 0
8510, -0.011938319710478248, 9.891047053571787, 0
8511, 0.10372602637067542, 9.61494132534468, 0
8512, 0.14740889142985675, 9.732070890972116, 0
8513, 0.03511238450845492, 9.64066076103831, 0
8514, 0.16715964205567274, 9.624899247360961, 0
8515, 0.00882137676747374, 9.685492729474534, 0
8516, -0.12038586835862632, 8.73290296182494, 0
8517, -0.036365678177586486, 8.743861653387405, 0
8518, -0.11185020931473899, 9.84773117266117, 0
8519, -0.11469665150685279, 9.795319302469094, 0
8520, -0.05375342637845669, 9.850611553850769, 0
8521, -0.0835798210278361, 10.0, 0
8522, -0.08640093890681116, 9.921765003206026, 0
8523, -0.03186213246121698, 9.948360701872557, 0
8524, -0.12536973154175424, 9.962338562385735, 0
8525, -0.11636448501488011, 8.02013316023508, 0
8526, -0.06653281020451712, 8.106987205146249, 0
8527, -0.12285250360360178, 8.106041957965376, 0
8528, 0.02919790287400728, -8.153596270431978, 0
8529, -0.03728235369172698, -8.129250103352009, 0
8530, -0.08763367625108355, -8.06760559518047, 0
8531, -0.10478151320388815, -8.146855934098083, 0
8532, -0.09623759944149674, -7.966755192076954, 0
8533, -0.13391355955813605, -8.017324593193653, 0
8534, -0.16715964205567324, -8.178082058610382, 0
8535, -0.16715964205567324, -8.124496236804806, 0
8536, 0.0477153080759038, -8.296029569299867, 0
8537, 0.09902548815356936, -8.157094047078056, 0
8538, 0.06077730186147383, -8.221911060661208, 0
8539, 0.002534834024691252, -8.20737800904716, 0
8540, -0.041143236915802475, -8.285476839077491, 0
8541, 0.16715964205567235, -8.27428662349328, 0
8542, 0.10427534115292977, -8.267786992106657, 0
8543, 0.10487703918047081, -8.339748283051561, 0
8544, 0.14062769136181766, -8.22353034771367, 0
8545, 0.16715964205567235, -8.32504289927289, 0
8546, -0.0010448121349636505, -8.327220811947745, 0
8547, -0.16715964205567338, -8.713940276666154, 0
8548, 0.03382070849209519, -8.373425123567994, 0
8549, 0.16715964205567235, -8.477311726611719, 0
8550, -0.1671596420556735, -9.14262685111077, 0
8551, 0.1096820818973308, -8.40327303994508, 0
8552, -0.11207833999670198, -8.311700917518074, 0
8553, -0.1671596420556733, -8.392425345832692, 0
8554, -0.14094333693802852, -7.910152949582499, 0
8555, -0.061583282700476, -8.014590921258883, 0
8556, 0.006815309330400761, -8.26103519532036, 0
8557, -0.10409080796898076, -8.251123658042598, 0
8558, -0.11764467917133176, -8.199077293836542, 0
8559, -0.16715964205567332, -8.499596989443845, 0
8560, 0.16715964205567238, -9.18789958752625, 0
8561, 0.16715964205567235, -8.781849381289375, 0
8562, 0.010900214204700248, -8.522583917333648, 0
8563, -0.060095206942441, -8.343812580684531, 0
8564, 0.05340471663221527, -8.433128380048792, 0
8565, -0.05553709222823046, -8.449133184243571, 0
8566, -0.0070009325195680636, -8.415831855548305, 0
8567, 0.16715964205567235, -8.578824278170938, 0
8568, 0.010820507754698776, -8.467720339619774, 0
8569, -0.08182039604896696, -8.539678976899152, 0
8570, 0.09068745135188741, -8.505668853496507, 0
8571, 0.11630504252640961, -8.457461290509523, 0
8572, 0.06984745934592859, -8.604001081490878, 0
8573, 0.14248715486454852, -8.52806800239133, 0
8574, 0.0584435796175755, -8.550209735206613, 0
8575, -0.04073573528673695, -8.502517275689092, 0
8576, -0.10736481935086678, -8.483176427170418, 0
8577, -0.11130810785315975, -8.42070001947711, 0
8578, -0.11882614059860315, -8.366250872598181, 0
8579, -0.16715964205567335, -8.606768633055, 0
8580, -0.021298051539146157, -8.607943869383519, 0
8581, 0.16715964205567235, -8.680336829730155, 0
8582, -0.14024529509617129, -8.553182811249423, 0
8583, -0.030958511359679412, -8.555547226572262, 0
8584, -0.09426362226734988, -8.61167232385362, 0
8585, -0.13415139760177042, -8.660354454860578, 0
8586, -0.014025468891106452, -8.771309891766256, 0
8587, -0.08496751553760688, -8.72761041420176, 0
8588, -0.05486580366122946, -8.666855075709021, 0
8589, -0.16715964205567344, -8.928283563888462, 0
8590, -0.08634313774572708, -8.809277262746832, 0
8591, -0.1671596420556734, -8.821111920277307, 0
8592, -0.1338391316505867, -8.76752609847173, 0
8593, -0.11803783052316101, -8.874697742082885, 0
8594, 0.07607023533526351, -8.785121041509317, 0
8595, 0.16715964205567235, -8.984874484407811, 0
8596, -0.07290889632351079, -8.965374924406513, 0
8597, -0.054158551100954376, -8.865257851034327, 0
8598, -0.11290420892464162, -8.92871145370516, 0
8599, -0.044281516783891674, -8.918922021745104, 0
8600, 0.044636475503056515, -9.005766726692652, 0
8601, -0.002137926767995635, -8.831934150332607, 0
8602, -0.009592265124889997, -8.972347356729331, 0
8603, -0.05446552201550284, -9.0888659717822, 0
8604, 0.16715964205567235, -8.883361932848594, 0
8605, -0.012676530707898412, -9.038059581111723, 0
8606, 0.013000231792233585, -8.919703379645933, 0
8607, -0.16715964205567346, -9.035455207499616, 0
8608, 0.05666109697476805, -9.137680003217323, 0
8609, -0.1297966287703463, -8.987285700174544, 0
8610, 0.007969134012302106, -9.09763015928753, 0
8611, -0.10333596554790647, -9.046385291772125, 0
8612, -0.16715964205567352, -9.249798494721922, 0
8613, -0.1434886981818015, -9.089041029305193, 0
8614, -0.00043031117114773754, -9.157466449934459, 0
8615, 0.10504494114149585, -9.177895851248056, 0
8616, 0.04429312485668134, -9.19425212305056, 0
8617, 0.1671596420556724, -9.593949793763125, 0
8618, 0.1671596420556724, -9.390924690644688, 0
8619, 0.16715964205567235, -9.08638703596703, 0
8620, 0.05276111537174244, -9.062259292755337, 0
8621, 0.11440910968606513, -9.11741646326292, 0
8622, 0.106979638384506, -9.044433144667288, 0
8623, 0.1671596420556724, -9.289412139085469, 0
8624, 0.16715964205567235, -9.03563076018742, 0
8625, 0.1033922231466499, -8.980625059117509, 0
8626, 0.12712229557646726, -9.23865586330586, 0
8627, 0.08755379432989903, -9.399016260780572, 0
8628, 0.1022187304478346, -9.299469367454217, 0
8629, 0.06779542797114532, -9.249866932618836, 0
8630, -0.08689966940085637, -9.305126994951408, 0
8631, -0.16715964205567355, -9.356970138333077, 0
8632, 0.005371630668549676, -9.329933887335299, 0
8633, -0.06038707782203572, -9.016297361295246, 0
8634, 0.12837841973663977, -8.629580553950547, 0
8635, 0.06500601464183314, -8.694834298620734, 0
8636, 0.008954864515974159, -8.66420115387069, 0
8637, -0.020947918283098686, -8.713805069614697, 0
8638, 0.1385167128903137, -8.934118208628202, 0
8639, 0.08348047977016107, -8.869599933053737, 0
8640, 0.13253585420240604, -8.832605657068983, 0
8641, 0.04981218302155864, -8.829988770433237, 0
8642, 0.07255658634389264, -8.92885716667922, 0
8643, -0.0028876263637936245, -9.259614893802558, 0
8644, 0.14177090906786183, -9.34016841486508, 0
8645, -0.1671596420556736, -9.571313425555385, 0
8646, -0.047449561970183074, -9.20459480589645, 0
8647, -0.11305767920558213, -9.184724658770438, 0
8648, 0.1671596420556724, -9.492437242203906, 0
8649, -0.04632070075142713, -9.138031921691125, 0
8650, -0.09892068616434503, -9.117647142256072, 0
8651, -0.035816315078355976, -9.299127043413032, 0
8652, -0.09516022065609847, -9.243878993703504, 0
8653, 0.13210462582109211, -9.441680966424297, 0
8654, -0.0035574576415859788, -9.538747891192541, 0
8655, 0.05514259043688373, -9.47745282514177, 0
8656, 0.006860283419983543, -9.41158713963506, 0
8657, 0.08293957842562319, -9.56282796627193, 0
8658, 0.041724886846947085, -9.37011131299612, 0
8659, -0.055376183421693814, -9.371881601029374, 0
8660, -0.1102754915958498, -9.356986205979085, 0
8661, -0.16715964205567357, -9.464141781944232, 0
8662, -0.10080290775703213, -9.430691207610344, 0
8663, -0.16715964205567357, -9.410555960138655, 0
8664, -0.09853729168381668, -9.517727603749808, 0
8665, -0.009554842577064201, -9.474249434431364, 0
8666, -0.04514250807775624, -9.431445611220411, 0
8667, 0.04614804624359813, -9.527594058437057, 0
8668, -0.16715964205567357, -9.517727603749808, 0
8669, 0.1671596420556724, -9.89848744844078, 0
8670, -0.10827478083105076, -9.575989736108108, 0
8671, -0.05168299824493185, -9.569271583235453, 0
8672, 0.01823703607658568, -9.62631113569629, 0
8673, 0.11983529764306747, -8.733936530686625, 0
8674, 0.03623970325787521, -8.744180782231036, 0
8675, -0.14489910718463656, -9.303384316527499, 0
8676, 0.13805534709836556, -9.543193517983514, 0
8677, 0.10959605882767842, -9.493931123975758, 0
8678, 0.1671596420556724, -9.695462345322344, 0
8679, 0.11759075686829146, -9.598573591400713, 0
8680, 0.06533475523518611, -9.60959924600154, 0
8681, 0.1671596420556724, -9.796974896881562, 0
8682, 0.07247411081581188, -9.7044412175928, 0
8683, 0.12420428429082606, -9.746218621101953, 0
8684, -0.16715964205567363, -9.678485069166538, 0
8685, 0.07628955669510257, -9.83032399223825, 0
8686, 0.11562639653579566, -9.797032975457736, 0
8687, 0.11607328193269312, -9.660474191890545, 0
8688, -0.03529954421101244, -9.620562820239451, 0
8689, 0.04347959040615982, -9.917560628974599, 0
8690, -0.16715964205567366, -9.785656712777692, 0
8691, -0.0030789285229936986, -9.698998894546465, 0
8692, -0.07793058716274463, -9.755939117009877, 0
8693, 0.02987053016582232, -9.76873172095099, 0
8694, -0.05303073087969223, -9.71100279231219, 0
8695, -6.661338147750939e-16, -10.0, 0
8696, 0.013611158711792137, -9.829273588787094, 0
8697, -0.02683321589396103, -9.785957406709223, 0
8698, -0.16715964205567369, -9.892828356388847, 0
8699, -0.14178701816123532, -9.624899247360961, 0
8700, -0.10456226870001584, -9.67532480112744, 0
8701, -0.08809307179687281, -9.624972379888506, 0
8702, -0.11417963651967997, -9.795915818424346, 0
8703, 0.08357982102783587, -10.0, 0
8704, 0.10968471932656443, -9.93632955258714, 0
8705, 0.11203209136784745, -9.877326999263316, 0
8706, 0.0417899105139176, -9.969355004595535, 0
8707, -0.13544308874527608, -9.732070890972116, 0
8708, -0.0628909484777957, -9.914144965803242, 0
8709, -0.050393510483167106, -9.84849525708682, 0
8710, -0.008888709194714982, -9.89041073302531, 0
8711, -0.016590019830915105, -9.946190492969084, 0
8712, -0.08357982102783719, -10.0, 0
8713, -0.10847629645253865, -9.871452694655858, 0
8714, -0.16715964205567369, -9.83924253458327, 0
8715, -0.12350387942555333, -9.94495905834479, 0
8716, 0.11636146267055916, -8.020131189195823, 0
8717, 0.06653401803284448, -8.10698731621992, 0
8718, 0.1228570176075375, -8.106052771039243, 0
8719, 8.153609104963628, 0.029216569560666185, 0
8720, 8.12926835726849, -0.03726643117081305, 0
8721, 8.067628856688293, -0.08762928977605702, 0
8722, 8.14687599343051, -0.10476817266798596, 0
8723, 7.966758320120838, -0.0962368050567653, 0
8724, 8.017324593193653, -0.1339153678457905, 0
8725, 8.178082058610382, -0.16715964205567388, 0
8726, 8.124496236804806, -0.16715964205567385, 0
8727, 8.296027938077634, 0.047733691805034575, 0
8728, 8.157082311841254, 0.09903689134179516, 0
8729, 8.221913879866229, 0.06081530155687855, 0
8730, 8.207402313845135, 0.002559741846529063, 0
8731, 8.285495502794667, -0.04112614588400247, 0
8732, 8.27428662349328, 0.1671596420556719, 0
8733, 8.267798350392058, 0.10428649976619234, 0
8734, 8.3397529546949, 0.10488211929717176, 0
8735, 8.22353034771367, 0.14062614595562628, 0
8736, 8.32504289927289, 0.1671596420556719, 0
8737, 8.327197982286112, -0.0010149674273621997, 0
8738, 8.713940276666154, -0.1671596420556741, 0
8739, 8.373367463810272, 0.03386170685080257, 0
8740, 8.477311726611719, 0.1671596420556719, 0
8741, 9.14262685111077, -0.16715964205567424, 0
8742, 8.403233145987194, 0.10971032929202804, 0
8743, 8.311736019957932, -0.11207618717628544, 0
8744, 8.392425345832692, -0.167159642055674, 0
8745, 7.910152949582499, -0.14094290680851845, 0
8746, 8.014603866494923, -0.06158437767062297, 0
8747, 8.26105401556879, 0.006824986672563461, 0
8748, 8.25114297856896, -0.10407721915687901, 0
8749, 8.199097132314034, -0.11764879116123834, 0
8750, 8.499596989443845, -0.16715964205567402, 0
8751, 9.18789958752625, 0.16715964205567177, 0
8752, 8.781849381289375, 0.16715964205567185, 0
8753, 8.522316237311323, 0.011024616645156117, 0
8754, 8.343880076467636, -0.06009292270355477, 0
8755, 8.432994491688095, 0.05343148246365025, 0
8756, 8.449031145226833, -0.05535317924997852, 0
8757, 8.415729862361662, -0.006903342847283028, 0
8758, 8.578824278170938, 0.16715964205567188, 0
8759, 8.46753450233004, 0.010910438390297851, 0
8760, 8.539617905419874, -0.08172194886510101, 0
8761, 8.505419562517753, 0.09070788731027707, 0
8762, 8.457341790197777, 0.11642473963021875, 0
8763, 8.603610388327908, 0.06989596334911677, 0
8764, 8.528068002391327, 0.14242755373451435, 0
8765, 8.54989519554103, 0.05850576643051748, 0
8766, 8.502436149688783, -0.04067104688997795, 0
8767, 8.483038056772344, -0.1073108794218712, 0
8768, 8.420494913018713, -0.11113827818551468, 0
8769, 8.446011167638268, -0.16715964205567402, 0
8770, 8.366178926781654, -0.11896601836695553, 0
8771, 8.606768633055, -0.16715964205567407, 0
8772, 8.607520525477678, -0.02106778736989707, 0
8773, 8.680336829730155, 0.16715964205567188, 0
8774, 8.553182811249423, -0.1401682427266669, 0
8775, 8.555198179066966, -0.030828406183956256, 0
8776, 8.611749085443986, -0.09413741277119272, 0
8777, 8.660354454860578, -0.13413348238839734, 0
8778, 8.771900319445166, -0.01313264237052239, 0
8779, 8.727915156453834, -0.0844997383298524, 0
8780, 8.66692575244451, -0.054287156703803255, 0
8781, 8.928283563888462, -0.16715964205567418, 0
8782, 8.809981228017548, -0.08584084739391826, 0
8783, 8.821111920277307, -0.16715964205567413, 0
8784, 8.76752609847173, -0.13370783613976245, 0
8785, 8.874697742082885, -0.11840379605221764, 0
8786, 9.011564354241397, 0.04398435165169136, 0
8787, 8.984874484407811, 0.16715964205567183, 0
8788, 8.96489897613711, -0.0730918790880394, 0
8789, 8.867077550536287, -0.052957199123815975, 0
8790, 8.928508654288246, -0.11308719168916988, 0
8791, 8.920154419162104, -0.04278387459869498, 0
8792, 8.975382348229394, -0.00943215849971886, 0
8793, 8.833630347919314, 0.0007518276911640817, 0
8794, 8.784141093718556, 0.0766125270294169, 0
8795, 9.08545315713789, -0.06025147995278912, 0
8796, 8.883361932848594, 0.16715964205567183, 0
8797, 9.039946673204707, -0.014202897654919819, 0
8798, 8.922283333411533, 0.01609330662097093, 0
8799, 9.035455207499616, -0.1671596420556742, 0
8800, 8.987154059598119, -0.12989378359467602, 0
8801, 9.044078855436398, -0.10604727979660654, 0
8802, 9.089041029305193, -0.14355658127819448, 0
8803, 9.148892589077184, 0.04795079789037919, 0
8804, 9.08035681787597, 0.04152390950396856, 0
8805, 9.119526034577314, -0.007530009092541853, 0
8806, 9.048223678212738, 0.10602880860820324, 0
8807, 9.229594841439203, -0.08726506396891656, 0
8808, 9.016261780292194, -0.061283654510292045, 0
8809, 9.12352478112275, -0.10034158480312275, 0
8810, 8.629580553950547, 0.12830406272997366, 0
8811, 8.69419788867892, 0.0645954210807893, 0
8812, 8.66337882654186, 0.00909597936708979, 0
8813, 8.713984435329625, -0.019862937466695332, 0
8814, 9.08638703596703, 0.1671596420556718, 0
8815, 8.844246172449385, 0.0617502797460867, 0
8816, 9.195507989526735, -0.012235618147114505, 0
8817, 9.571313425555385, -0.16715964205567438, 0
8818, 9.115564043212016, 0.10646681827124893, 0
8819, 9.03563076018742, 0.16715964205567183, 0
8820, 8.983544812519423, 0.10239227351627503, 0
8821, 9.179264543548374, 0.10399889141436319, 0
8822, 9.137143311746641, 0.16715964205567177, 0
8823, 8.934118208628202, 0.13580433335379577, 0
8824, 8.881751798480025, 0.10779483403690268, 0
8825, 8.832605657068983, 0.13883205010405497, 0
8826, 8.732488596895777, 0.1206077810206216, 0
8827, 8.743737264832946, 0.03641602544979041, 0
8828, 9.249798494721922, -0.16715964205567427, 0
8829, 9.593949793763125, 0.1671596420556717, 0
8830, 9.390924690644688, 0.16715964205567171, 0
8831, 9.238655863305858, 0.12804983333007314, 0
8832, 9.289412139085469, 0.16715964205567174, 0
8833, 9.235897771567457, 0.0526609830966938, 0
8834, 9.154877776364486, -0.05249882459434938, 0
8835, 9.356970138333077, -0.1671596420556743, 0
8836, 9.179836551474887, -0.12038256778080886, 0
8837, 9.301570177976089, -0.023509601035652458, 0
8838, 9.250298691485728, -0.001318757331800452, 0
8839, 9.3033843165275, -0.11110709032204935, 0
8840, 9.303384316527499, -0.16715964205567427, 0
8841, 9.407585579207206, -0.06513155866556725, 0
8842, 9.276616504735491, -0.06784392004689666, 0
8843, 9.345905923381874, -0.06640894049902024, 0
8844, 9.464141781944232, -0.16715964205567435, 0
8845, 9.377742424349531, -0.11389560207458815, 0
8846, 8.931038986336477, 0.07477136718509786, 0
8847, 9.340168414865078, 0.07467386918235921, 0
8848, 9.37239450771712, 0.005326358768580262, 0
8849, 9.293571190175165, 0.1092717015965655, 0
8850, 9.34623098367732, 0.13151715739414982, 0
8851, 9.520423843506563, 0.035244162108108004, 0
8852, 9.435028708755743, 0.07659430594424362, 0
8853, 9.388021362329258, 0.05474978547582025, 0
8854, 9.45015194794592, 0.00014600152551978718, 0
8855, 9.50142351323332, -0.07980447677985278, 0
8856, 9.457804854952343, -0.05136150362275232, 0
8857, 9.543193517983514, 0.16715964205567171, 0
8858, 9.517727603749808, -0.13839598535895997, 0
8859, 9.492437242203906, 0.16715964205567171, 0
8860, 9.582545357053407, 0.08706777138636002, 0
8861, 9.516325771702242, 0.10330122980786872, 0
8862, 9.67003542719505, 0.11150716898814905, 0
8863, 9.577622791739646, -0.09016492325470146, 0
8864, 9.590953059194742, 0.013844703805634878, 0
8865, 9.540023139907294, -0.027085945438430264, 0
8866, 9.642515328521156, 0.056859478341949724, 0
8867, 9.70922563200289, 0.06451936449482282, 0
8868, 9.796974896881562, 0.16715964205567166, 0
8869, 9.785656712777692, -0.16715964205567446, 0
8870, 9.695462345322344, 0.16715964205567166, 0
8871, 9.68868277417867, -0.05089344005221909, 0
8872, 9.681704190150755, 0.009883371650165625, 0
8873, 9.786851699964142, -0.00883231898004249, 0
8874, 9.73707525950466, 0.016241251397031684, 0
8875, 9.799747080616498, 0.07871305618466229, 0
8876, 9.61977131292019, 0.12262498063303555, 0
8877, 9.678485069166538, -0.1671596420556744, 0
8878, 9.624899247360961, -0.13279488455551974, 0
8879, 9.678253798729047, -0.10855903613402888, 0
8880, 9.732070890972116, -0.1376474034115159, 0
8881, 9.794302616523426, -0.08805672648903205, 0
8882, 9.747465859331074, -0.052499064776072996, 0
8883, 9.892828356388847, -0.1671596420556745, 0
8884, 9.848847948693113, -0.07844638849902487, 0
8885, 9.83924253458327, -0.13299258797765018, 0
8886, 10.0, -1.4432899320127035e-15, 0
8887, 9.88800963244121, -0.039281169441838404, 0
8888, 9.746218621101953, 0.12172276040019155, 0
8889, 9.623483192419236, -0.04318352348162261, 0
8890, 9.938079073081486, 0.11180961367549014, 0
8891, 9.852561443959761, 0.026211104048128236, 0
8892, 9.928379007745718, 0.02490849717688247, 0
8893, 9.871439204444085, 0.09801648888930273, 0
8894, 10.0, 0.0835798210278351, 0
8895, 9.89848744844078, 0.16715964205567163, 0
8896, 9.84773117266117, 0.14715298381769065, 0
8897, 9.441680966424297, 0.13585553968325426, 0
8898, 8.020133955449385, 0.11636570385267431, 0
8899, 8.106987161193295, 0.06653232289873202, 0
8900, 8.106037598859857, 0.12285068366717401, 0
8901, 6.354744750652931, 5.16309506331869, 0
8902, 6.308306788613529, 5.141982012302262, 0
8903, 6.365483725172707, 5.24184826139036, 0
8904, 6.395826842352861, 5.290831583496634, 0
8905, -9.08638703596703, -0.1671596420556724, 0
8906, -9.137143311746641, -0.12961948210748891, 0
8907, -9.038130262676146, -0.11072284429237846, 0
8908, -9.061168616549436, -0.05688206053672393, 0
8909, -9.571313425555385, 0.1671596420556727, 0
8910, -9.139821141401436, 0.04394405023692422, 0
8911, -9.137831447260442, 0.10562909698376152, 0
8912, -9.593949793763125, -0.1671596420556724, 0
8913, -9.289412139085469, -0.1671596420556724, 0
8914, -9.205804118115804, 0.03821947058510253, 0
8915, -9.390924690644688, -0.1671596420556724, 0
8916, -9.196212672916346, 0.13203127465456493, 0
8917, -9.254252888149392, -0.005537835922605858, 0
8918, -9.238655863305858, -0.14423958927265115, 0
8919, -9.260235264569985, -0.07643837480772188, 0
8920, -9.413993509359164, -0.00905441755632459, 0
8921, -9.333523181323626, -0.03455190154928493, 0
8922, -9.249798494721922, 0.16715964205567263, 0
8923, -9.248507431872296, 0.11069420598873231, 0
8924, -9.3033843165275, 0.1376869427111983, 0
8925, -9.372790620784102, 0.07494570283185346, 0
8926, -9.394394253848748, -0.086930304150936, 0
8927, -9.36138538050691, 0.01724604778381385, 0
8928, -9.30564928007856, 0.016057015004690298, 0
8929, -9.318025527480067, 0.08412318161112353, 0
8930, -9.492437242203906, -0.1671596420556724, 0
8931, -9.34016841486508, -0.12477496756680333, 0
8932, -9.446403582325765, -0.1233937376440911, 0
8933, -9.452624135702308, -0.06018094664076993, 0
8934, -9.505901071613897, 0.02023219916579916, 0
8935, -9.311748677278043, -0.0815119222719295, 0
8936, -9.464141781944232, 0.16715964205567269, 0
8937, -9.443411778171113, 0.057480805871702956, 0
8938, -9.421034098960043, 0.11850880077861135, 0
8939, -9.511898504069267, 0.10133484519800175, 0
8940, -9.517727603749808, 0.16715964205567269, 0
8941, -9.785656712777692, 0.16715964205567277, 0
8942, -9.564422371615569, 0.05667770119796009, 0
8943, -9.566230251857098, 0.11202081603025474, 0
8944, -9.660482626377094, 0.08611566097156387, 0
8945, -9.678485069166538, 0.16715964205567274, 0
8946, -9.592425389903026, -0.05349451200794604, 0
8947, -9.560894085077729, -0.002864040585244018, 0
8948, -9.52275955780147, -0.06174686806796428, 0
8949, -9.65539766028896, 0.003252171205376145, 0
8950, -9.5638824328813, -0.11072009903783821, 0
8951, -9.500630885796639, -0.11244902771162125, 0
8952, -9.796974896881562, -0.1671596420556724, 0
8953, -9.691116347856239, -0.10803344038130694, 0
8954, -9.695462345322344, -0.1671596420556724, 0
8955, -9.659740988525714, -0.05773053544239122, 0
8956, -9.759014114799898, -0.020014051474036388, 0
8957, -9.715045790684067, -0.053791600586156174, 0
8958, -9.780149016182843, -0.09303102380565877, 0
8959, -9.714213884559783, 0.02282927451717814, 0
8960, -9.776739886246855, 0.08172631812676977, 0
8961, -9.644706069542734, -0.14116759420278718, 0
8962, -10.0, 0.08357982102783652, 0
8963, -9.904468211318855, 0.0034555885507359108, 0
8964, -9.746218621101953, -0.13970651855849237, 0
8965, -9.84773117266117, -0.11666497101207524, 0
8966, -9.732070890972116, 0.12957049427089593, 0
8967, -9.619923784679203, 0.047016811976568595, 0
8968, -9.624899247360961, 0.13654130762046257, 0
8969, -9.892828356388847, 0.1671596420556728, 0
8970, -9.830596695527232, -0.0572178232166843, 0
8971, -9.89848744844078, -0.1671596420556724, 0
8972, -10.0, 2.220446049250313e-16, 0
8973, -9.71461897297201, 0.07762578783585196, 0
8974, -9.808912952215787, 0.0007249844790408119, 0
8975, -9.950534714192246, -0.04192740195749423, 0
8976, -9.83924253458327, 0.11838480101728102, 0
8977, -9.833111002943452, 0.0572263578460584, 0
8978, -9.916633667658049, 0.08718316662078565, 0
8979, -9.946414178194424, 0.1395785620679269, 0
8980, -9.956432673458782, 0.04178991051391837, 0
8981, -9.883083820307238, 0.049310297266763725, 0
8982, -9.886348084065082, -0.049789655284172174, 0
8983, -10.0, -0.0835798210278361, 0
8984, -9.936042463830455, -0.10933603334163894, 0
8985, 0.1671596420556728, 9.892828356388847, 0
8986, 0.08510142488330244, 9.82200121767118, 0
8987, 0.04380192807590757, 9.86667193648786, 0
8988, 0.04251677863011109, 9.93965317483002, 0
8989, -0.0010390989666283976, 9.834729406789588, 0
8990, 0.10503418278885812, 9.881856391717678, 0
8991, 0.14459181524603545, 9.83924253458327, 0
8992, 0.08357982102783652, 10.0, 0
8993, 0.12566425315908863, 9.946414178194424, 0
8994, 10.0, -0.08357982102783798, 0
8995, 9.892448319116395, -0.11208957733819665, 0
8996, 9.946414178194424, -0.16715964205567452, 0
8997, 9.939555690965301, -0.07267822298314963, 0
8998, 9.952280872035645, -0.021787400858145612, 0
8999, 4.890593925632263, -3.794348348686465, 0
*ELEMENT, TYPE=CPS3
1, 1042, 1043, 1586
2, 1822, 1972, 1831
3, 399, 398, 1586
4, 1586, 1587, 399
5, 1587, 1044, 1589
6, 158, 1622, 159
7, 2017, 815, 1971
8, 398, 397, 1588
9, 394, 1441, 395
10, 2027, 652, 1979
11, 397, 396, 1442
12, 1442, 1588, 397
13, 1340, 1622, 157
14, 1041, 1442, 1040
15, 1833, 1976, 1842
16, 1441, 396, 395
17, 643, 644, 1336
18, 2022, 1141, 1975
19, 1046, 1444, 1443
20, 2012, 978, 1967
21, 1047, 1048, 1349
22, 1801, 1913, 1803
23, 1049, 1050, 1624
24, 1046, 1047, 1444
25, 1930, 1931, 1807
26, 404, 1444, 1349
27, 4, 3, 1328
28, 1589, 400, 1587
29, 637, 638, 1296
30, 1443, 1444, 402
31, 403, 1444, 404
32, 795, 796, 1300
33, 1443, 401, 1589
34, 1323, 1622, 1340
35, 1412, 8, 7
36, 1589, 1045, 1443
37, 1811, 1968, 1820
38, 1380, 1714, 1713
39, 1037, 1623, 1036
40, 1897, 1474, 1898
41, 1038, 1350, 1037
42, 1909, 1718, 1910
43, 393, 1350, 394
44, 1350, 1623, 1037
45, 1902, 1905, 1904
46, 1660, 1351, 1659
47, 1384, 1885, 1436
48, 1445, 1656, 1657
49, 1656, 1033, 1657
50, 1032, 1656, 1654
51, 1576, 1866, 1867
52, 1580, 1872, 1873
53, 1655, 1030, 1031
54, 1382, 1879, 1434
55, 1351, 1623, 392
56, 2265, 2041, 1960
57, 641, 642, 1316
58, 2280, 2279, 2700
59, 1306, 1298, 1374
60, 7835, 1469, 1
61, 2122, 324, 323
62, 1658, 1659, 390
63, 1441, 1350, 1039
64, 391, 1351, 392
65, 389, 388, 1522
66, 2124, 483, 482
67, 2575, 2210, 1122
68, 1630, 1305, 1373
69, 1743, 1590, 1741
70, 1741, 386, 2215
71, 1632, 1307, 1375
72, 387, 1786, 388
73, 1315, 1644, 1417
74, 1522, 1445, 1658
75, 394, 1350, 1441
76, 1743, 1741, 2215
77, 2214, 1321, 1375
78, 1912, 1915, 1914
79, 1050, 1352, 1624
80, 1796, 1903, 1798
81, 1523, 1051, 1052
82, 2265, 1961, 2041
83, 1885, 1733, 1883
84, 1352, 407, 406
85, 1582, 1897, 1575
86, 1566, 409, 408
87, 1378, 1708, 1707
88, 1352, 406, 1624
89, 1556, 1948, 1515
90, 1352, 1735, 407
91, 1446, 1662, 1663
92, 2499, 2204, 959
93, 1735, 1523, 1566
94, 1562, 1950, 1519
95, 1661, 1662, 1446
96, 405, 1349, 1624
97, 410, 1747, 411
98, 1549, 1873, 1485
99, 1752, 1750, 1749
100, 1945, 1861, 1420
101, 1978, 1980, 1844
102, 1748, 1749, 1591
103, 1538, 1867, 1477
104, 1751, 2216, 2217
105, 2127, 1329, 1705
106, 1591, 1750, 1747
107, 2220, 2229, 2219
108, 1753, 413, 412
109, 1699, 1841, 1494
110, 2226, 2224, 2231
111, 2221, 413, 1753
112, 1313, 1638, 1413
113, 1564, 1847, 1734
114, 1748, 1054, 1055
115, 1879, 1729, 1877
116, 2145, 1331, 1711
117, 2196, 1634, 2195
118, 2223, 2224, 2226
119, 2228, 3217, 3215
120, 2231, 415, 2226
121, 2020, 1823, 1695
122, 3214, 417, 416
123, 2228, 3215, 416
124, 872, 873, 1357
125, 564, 563, 1363
126, 417, 3226, 3224
127, 3231, 3232, 3239
128, 3227, 418, 3228
129, 3229, 3234, 3223
130, 1498, 1329, 1345
131, 3225, 3230, 3221
132, 1202, 1361, 1201
133, 69, 1774, 1775
134, 1650, 1337, 1437
135, 3243, 3241, 3233
136, 2257, 149, 148
137, 1966, 977, 1932
138, 1688, 1799, 1795
139, 3260, 3262, 3256
140, 422, 3253, 3257
141, 2251, 1790, 467
142, 3249, 3245, 3246
143, 1703, 1854, 1414
144, 3246, 3248, 3255
145, 3979, 3711, 3977
146, 3720, 3717, 3718
147, 252, 251, 1787
148, 3714, 3981, 3713
149, 3716, 3708, 3715
150, 1389, 1515, 1409
151, 2201, 1781, 1396
152, 3235, 3240, 3233
153, 1490, 1819, 1817
154, 405, 404, 1349
155, 1836, 1835, 1732
156, 1377, 1705, 1704
157, 1688, 1908, 1797
158, 1391, 1519, 1411
159, 1850, 1853, 2031
160, 1744, 1746, 1886
161, 246, 245, 1355
162, 2200, 1636, 2199
163, 2036, 1027, 1953
164, 1028, 1886, 1954
165, 1746, 1954, 1886
166, 2039, 2285, 1026
167, 1842, 1697, 1833
168, 2036, 2037, 2010
169, 2285, 2010, 2056
170, 2288, 1025, 2287
171, 1829, 1823, 2020
172, 173, 1829, 1826
173, 1024, 2290, 2292
174, 1698, 1834, 1835
175, 2288, 2284, 2298
176, 1849, 1847, 1733
177, 2291, 2295, 2293
178, 1685, 1528, 726
179, 2303, 2306, 2309
180, 713, 1367, 712
181, 1506, 1331, 1347
182, 378, 3296, 2304
183, 1652, 1339, 1439
184, 2293, 2297, 1023
185, 1819, 1820, 1817
186, 2703, 2704, 1022
187, 3307, 1020, 3304
188, 3301, 3304, 3302
189, 1437, 1385, 1716
190, 3309, 3338, 3314
191, 3304, 3305, 3307
192, 1691, 1820, 1819
193, 1709, 1858, 1418
194, 2299, 2300, 2289
195, 1439, 1387, 1722
196, 1809, 1690, 1807
197, 1791, 3280, 1893
198, 3318, 3338, 3326
199, 3320, 3322, 3324
200, 3332, 3325, 3336
201, 1435, 1335, 1423
202, 3325, 3321, 3339
203, 3328, 3337, 3338
204, 1524, 1787, 251
205, 1611, 1775, 1774
206, 1548, 1781, 1637
207, 1766, 1765, 1193
208, 3347, 3752, 3754
209, 4023, 4037, 4022
210, 1769, 1683, 1684
211, 1016, 3348, 3350
212, 1755, 1756, 1757
213, 3334, 3349, 1017
214, 1799, 1797, 1911
215, 4034, 1015, 3753
216, 1371, 1942, 1399
217, 4022, 3749, 4020
218, 1427, 1407, 1387
219, 1562, 1519, 1391
220, 3749, 3744, 3750
221, 1425, 1405, 1385
222, 369, 4017, 4014
223, 1744, 1745, 1743
224, 4025, 4376, 4378
225, 1850, 1846, 1847
226, 4383, 4386, 1010
227, 4387, 4389, 1009
228, 1273, 1739, 1964
229, 4380, 4400, 4382
230, 1752, 1753, 1750
231, 4373, 4015, 4024
232, 3327, 3344, 3342
233, 1578, 1395, 1869
234, 1817, 1813, 1814
235, 1035, 1036, 1351
236, 1420, 1860, 1510
237, 5017, 4389, 5018
238, 1344, 2125, 1553
239, 3984, 3989, 3978
240, 3978, 3986, 3980
241, 1421, 1401, 1381
242, 1369, 1936, 1397
243, 1574, 1393, 1863
244, 1133, 1423, 1335
245, 5017, 4862, 5176
246, 5025, 5022, 5028
247, 5554, 5027, 5179
248, 1431, 1411, 484
249, 1391, 1645, 1646
250, 5175, 1008, 5176
251, 633, 1427, 1339
252, 1007, 5555, 1006
253, 1423, 1403, 1383
254, 4372, 4384, 4377
255, 3995, 3990, 3982
256, 3991, 3990, 426
257, 569, 1769, 570
258, 1890, 1767, 1763
259, 4345, 3996, 4008
260, 3998, 427, 3994
261, 894, 1757, 893
262, 4833, 4343, 4830
263, 1341, 2122, 1550
264, 4000, 4011, 428
265, 5010, 4834, 4348
266, 5005, 430, 5009
267, 970, 1421, 1333
268, 1343, 2124, 1552
269, 6390, 5533, 5532
270, 1342, 2123, 1551
271, 474, 1425, 1337
272, 1556, 1515, 1389
273, 1433, 1333, 1421
274, 1441, 1040, 1442
275, 2001, 1944, 1998
276, 5563, 5561, 5558
277, 5562, 6454, 6455
278, 5560, 1006, 5561
279, 1045, 1046, 1443
280, 5569, 5570, 6454
281, 5565, 5576, 5577
282, 1987, 1938, 1984
283, 331, 1812, 1818
284, 5595, 5596, 5594
285, 1679, 1678, 1459
286, 356, 5690, 5709
287, 5675, 5679, 5683
288, 1528, 1685, 1460
289, 5718, 5717, 5593
290, 490, 1834, 1840
291, 5562, 5566, 5569
292, 1671, 1673, 1454
293, 5687, 5689, 5696
294, 870, 871, 1670
295, 5680, 5686, 5678
296, 1464, 1465, 78
297, 2525, 7840, 2520
298, 5688, 5687, 5690
299, 1455, 1203, 1456
300, 5663, 5672, 5676
301, 1523, 1661, 1446
302, 5661, 5664, 5657
303, 5654, 5656, 5658
304, 1031, 1654, 1655
305, 5195, 5192, 994
306, 5194, 5650, 5652
307, 5660, 5662, 5674
308, 1649, 1436, 1565
309, 5667, 5673, 5681
310, 1664, 1667, 1448
311, 1483, 1548, 1484
312, 5568, 5592, 5591
313, 243, 1449, 244
314, 1863, 1715, 1899
315, 429, 5010, 5009
316, 1869, 1721, 1919
317, 3993, 4005, 4004
318, 1643, 1434, 1559
319, 1730, 1823, 171
320, 1844, 1980, 1853
321, 5529, 5535, 5534
322, 1721, 1544, 1920
323, 1715, 1536, 1900
324, 1418, 1859, 1709
325, 6559, 6568, 6679
326, 6566, 6388, 6565
327, 1948, 1876, 1514
328, 5004, 5527, 5533
329, 1389, 1639, 1640
330, 433, 6564, 6553
331, 6678, 6563, 6679
332, 6806, 6681, 7121
333, 1033, 1656, 1032
334, 1632, 1322, 1307
335, 437, 7105, 7103
336, 1630, 1318, 1305
337, 7122, 7120, 6807
338, 1429, 1409, 325
339, 6804, 7085, 7087
340, 1932, 977, 2012
341, 567, 566, 1680
342, 1610, 1685, 727
343, 7125, 6904, 6871
344, 7095, 7093, 1083
345, 1934, 1140, 2022
346, 7099, 7109, 7108
347, 1452, 237, 236
348, 7089, 7091, 7086
349, 1668, 1667, 891
350, 1674, 1196, 1197
351, 6883, 1086, 6877
352, 6885, 6880, 6894
353, 6899, 6896, 6907
354, 6872, 6873, 6850
355, 1414, 1855, 1703
356, 6802, 1080, 6805
357, 1951, 1885, 1520
358, 248, 1447, 249
359, 1683, 1217, 1218
360, 6911, 6885, 6894
361, 6866, 6850, 6854
362, 6888, 6883, 6885
363, 1655, 1590, 1745
364, 6778, 6774, 6649
365, 6859, 6851, 6858
366, 309, 308, 1795
367, 1699, 1136, 1137
368, 6773, 6849, 6851
369, 6056, 6058, 6045
370, 6862, 6860, 6861
371, 485, 1519, 486
372, 1510, 1513, 1420
373, 6060, 6057, 6059
374, 1498, 1501, 1414
375, 6651, 6484, 6486
376, 1648, 1344, 7823
377, 6051, 6052, 6039
378, 1334, 1643, 1641
379, 1651, 1631, 1374
380, 1440, 1726, 1633
381, 5322, 1094, 5320
382, 6041, 6031, 6026
383, 1336, 1649, 1647
384, 6039, 6047, 6051
385, 1482, 1543, 1481
386, 6038, 6042, 6037
387, 5300, 5299, 6033
388, 1094, 6061, 1093
389, 785, 1585, 1581
390, 1357, 1567, 1525
391, 5304, 5062, 5307
392, 1838, 1839, 1836
393, 5315, 5309, 5313
394, 6053, 6050, 6489
395, 1662, 1661, 1053
396, 1385, 1476, 1537
397, 1689, 1803, 1913
398, 560, 1457, 561
399, 5058, 5304, 5302
400, 94, 93, 1770
401, 240, 1595, 241
402, 545, 1762, 546
403, 4586, 4581, 4588
404, 4590, 1099, 4588
405, 1614, 1613, 1612
406, 5302, 5305, 4925
407, 1602, 1603, 557
408, 5071, 5070, 1098
409, 456, 4575, 4572
410, 4588, 4591, 4590
411, 4576, 4578, 4202
412, 565, 1627, 1362
413, 4198, 4202, 4578
414, 634, 1621, 635
415, 1619, 1317, 2277
416, 5312, 5308, 5310
417, 4584, 4595, 4577
418, 1477, 1583, 1538
419, 1910, 1908, 1909
420, 400, 1589, 401
421, 7287, 7509, 7513
422, 2524, 2536, 2135
423, 1625, 1356, 234
424, 3840, 4191, 4206
425, 3454, 4186, 4194
426, 1649, 1565, 1392
427, 1328, 1489, 1553
428, 1643, 1559, 1390
429, 3455, 1106, 1107
430, 3455, 3440, 1106
431, 150, 1809, 1931
432, 3442, 3456, 1105
433, 1358, 1394, 1779
434, 1103, 4188, 4918
435, 1590, 1743, 1745
436, 2805, 3438, 1107
437, 389, 1658, 390
438, 4197, 458, 4200
439, 1566, 1523, 1446
440, 709, 1366, 1529
441, 1962, 1109, 1110
442, 4208, 4207, 4199
443, 2805, 2415, 3438
444, 1737, 1110, 1111
445, 1789, 1214, 1215
446, 4196, 4193, 4185
447, 1106, 3442, 1105
448, 3447, 3453, 3441
449, 1112, 1534, 1582
450, 1705, 1500, 1982
451, 1582, 1111, 1112
452, 1490, 1491, 1693
453, 1536, 470, 469
454, 1787, 1669, 1592
455, 1574, 1864, 1534
456, 1987, 1703, 1855
457, 1370, 1415, 1487
458, 809, 1493, 1402
459, 2195, 1634, 1778
460, 1536, 1475, 1535
461, 2008, 1712, 1861
462, 1393, 1574, 1114
463, 1118, 1305, 1318
464, 470, 1536, 1535
465, 83, 1463, 84
466, 1, 1469, 2
467, 1619, 475, 1337
468, 1120, 1297, 1305
469, 629, 1544, 1543
470, 1120, 1305, 1119
471, 1557, 1517, 1516
472, 1118, 1318, 1117
473, 1398, 1505, 1294
474, 1120, 1121, 1297
475, 1508, 1331, 1506
476, 1341, 1550, 7787
477, 2218, 1058, 2217
478, 1749, 1055, 1056
479, 5662, 5668, 5670
480, 5654, 5658, 5651
481, 5735, 5737, 5196
482, 1357, 232, 1567
483, 2143, 7840, 7841
484, 5665, 5727, 5193
485, 1512, 1510, 1860
486, 5206, 5204, 5209
487, 873, 1625, 1357
488, 4875, 4873, 4876
489, 1461, 71, 1613
490, 4454, 4455, 4451
491, 4447, 4449, 4064
492, 475, 1619, 476
493, 4871, 4872, 4870
494, 1720, 1438, 1719
495, 5194, 5197, 5195
496, 92, 1608, 1771
497, 346, 4871, 4878
498, 1816, 1817, 1814
499, 4469, 4462, 4463
500, 1803, 1689, 1800
501, 228, 227, 1759
502, 4475, 4474, 4469
503, 2603, 2604, 2609
504, 4457, 4448, 4455
505, 4062, 987, 4065
506, 4465, 4464, 4081
507, 4076, 4089, 4088
508, 1726, 1440, 1725
509, 1343, 1552, 7822
510, 4066, 4076, 3773
511, 82, 1615, 83
512, 4073, 4069, 4477
513, 1685, 1610, 1460
514, 5209, 5210, 5211
515, 1927, 1585, 1485
516, 1194, 1672, 1193
517, 1044, 1045, 1589
518, 3769, 985, 3771
519, 1798, 1688, 1795
520, 2741, 2735, 2738
521, 3784, 2740, 3779
522, 948, 1583, 1577
523, 3777, 3409, 3769
524, 2527, 2528, 2533
525, 1434, 1879, 1949
526, 2721, 2382, 2384
527, 1871, 1724, 1364
528, 2342, 2339, 2341
529, 1932, 2014, 1968
530, 7823, 1489, 1419
531, 2076, 2077, 2340
532, 1436, 1885, 1951
533, 2378, 2383, 2078
534, 1386, 1479, 1541
535, 2734, 2738, 2725
536, 3781, 338, 3782
537, 1819, 1693, 1691
538, 2045, 1815, 2044
539, 1676, 1675, 1674
540, 976, 1811, 975
541, 1591, 1663, 1662
542, 1366, 73, 1569
543, 1537, 1862, 1353
544, 1401, 1491, 1381
545, 2134, 963, 7836
546, 1421, 970, 971
547, 972, 1401, 971
548, 1502, 1505, 1416
549, 1693, 1491, 973
550, 167, 1517, 168
551, 336, 2710, 2711
552, 1476, 1535, 1475
553, 2739, 4068, 3780
554, 880, 881, 1595
555, 1374, 1319, 1651
556, 1352, 1051, 1523
557, 1828, 1824, 1825
558, 2679, 3279, 3280
559, 1737, 1111, 1575
560, 1575, 1894, 1895
561, 1750, 1753, 412
562, 1750, 1591, 1749
563, 3446, 3450, 3449
564, 1786, 1741, 1590
565, 2341, 334, 2342
566, 1494, 1495, 1699
567, 1815, 1969, 2044
568, 1632, 1723, 1322
569, 408, 1735, 1566
570, 334, 333, 2074
571, 1711, 1508, 1996
572, 1818, 332, 331
573, 1193, 1765, 1192
574, 1687, 1894, 1897
575, 1776, 1777, 1612
576, 468, 1790, 1794
577, 1437, 1337, 1425
578, 471, 470, 1535
579, 1692, 1812, 1813
580, 1914, 1913, 1912
581, 1113, 1534, 1112
582, 1681, 1789, 1680
583, 1833, 1139, 1974
584, 473, 1425, 474
585, 1425, 473, 1405
586, 1119, 1305, 1118
587, 1876, 1875, 1727
588, 1353, 1715, 1863
589, 2196, 1117, 1318
590, 1849, 1496, 1850
591, 2677, 3276, 2252
592, 1827, 1825, 1729
593, 474, 1337, 475
594, 1953, 1028, 1954
595, 1642, 1342, 7821
596, 1313, 1301, 967
597, 1555, 328, 1554
598, 1597, 1758, 1760
599, 1771, 1608, 1772
600, 1728, 330, 329
601, 1812, 331, 330
602, 969, 1782, 968
603, 1475, 1537, 1476
604, 1301, 1293, 965
605, 719, 720, 1463
606, 1301, 965, 966
607, 965, 1293, 964
608, 1312, 1328, 1469
609, 966, 967, 1301
610, 1481, 1545, 1482
611, 329, 328, 1555
612, 1696, 810, 811
613, 1638, 1640, 1639
614, 1799, 1688, 1797
615, 1341, 1429, 324
616, 1820, 1691, 1811
617, 1828, 1831, 2021
618, 969, 1333, 1782
619, 1931, 1547, 151
620, 1341, 324, 2122
621, 1466, 321, 320
622, 7825, 2697, 7824
623, 1359, 1721, 1869
624, 1466, 1325, 321
625, 1293, 1301, 1397
626, 1892, 1895, 1894
627, 1474, 1899, 1898
628, 1397, 1413, 1369
629, 1882, 1881, 1731
630, 2122, 322, 1325
631, 1702, 1843, 1700
632, 326, 1409, 1515
633, 1334, 1641, 1783
634, 1345, 963, 1293
635, 1907, 1904, 1577
636, 2346, 2710, 336
637, 1630, 1717, 1318
638, 1364, 1781, 1548
639, 1905, 1902, 3284
640, 5008, 5006, 5004
641, 1931, 151, 150
642, 2127, 2132, 1329
643, 1787, 1754, 252
644, 7269, 7339, 7343
645, 1601, 1764, 1766
646, 228, 1759, 1760
647, 4360, 4357, 4358
648, 4351, 4354, 4357
649, 1749, 1748, 1055
650, 2173, 1772, 730
651, 8174, 3273, 8175
652, 2251, 467, 466
653, 3724, 3727, 3732
654, 1784, 1315, 1131
655, 4365, 4356, 4354
656, 3731, 4352, 3732
657, 2195, 1778, 1393
658, 4352, 3724, 3732
659, 4846, 268, 4844
660, 2254, 307, 2680
661, 5543, 5544, 5173
662, 1887, 1746, 1742
663, 1528, 1736, 1365
664, 1558, 1877, 1825
665, 6401, 5550, 6404
666, 5549, 6399, 5174
667, 1724, 1547, 1930
668, 5013, 5016, 271
669, 1415, 1302, 1314
670, 4369, 4361, 4838
671, 4843, 4844, 4370
672, 4842, 4853, 4846
673, 166, 165, 1430
674, 1479, 313, 312
675, 5013, 4859, 4857
676, 1419, 1304, 1316
677, 6421, 6423, 6419
678, 5546, 5547, 5173
679, 1718, 1540, 1910
680, 2197, 952, 953
681, 256, 2249, 257
682, 1833, 1832, 1138
683, 2646, 3265, 258
684, 1966, 1968, 1811
685, 2654, 3266, 2651
686, 2642, 2645, 2647
687, 2020, 2021, 1973
688, 2642, 2247, 2640
689, 1755, 2236, 2235
690, 1496, 1852, 1850
691, 2243, 2245, 255
692, 2249, 256, 2243
693, 1354, 246, 1355
694, 2238, 2239, 2634
695, 1978, 651, 1935
696, 2242, 2243, 255
697, 951, 952, 1394
698, 1881, 1838, 1731
699, 3268, 3271, 3272
700, 2257, 1805, 149
701, 2674, 2673, 2676
702, 3268, 3274, 262
703, 1539, 1479, 312
704, 2555, 2541, 2550
705, 3273, 3723, 8175
706, 2663, 3269, 3268
707, 2653, 2650, 2652
708, 2648, 2652, 2644
709, 260, 3267, 2658
710, 2664, 2665, 2668
711, 1398, 1302, 1415
712, 1569, 73, 72
713, 3272, 2666, 2668
714, 1214, 1681, 1213
715, 1704, 2203, 2204
716, 1555, 1814, 1728
717, 1917, 1918, 1689
718, 1878, 1492, 1827
719, 1641, 1642, 7821
720, 1939, 1857, 1416
721, 6589, 6582, 6590
722, 1683, 1682, 1217
723, 1525, 1670, 871
724, 1674, 1197, 1677
725, 6705, 6708, 6710
726, 6684, 6688, 6687
727, 1795, 2253, 1798
728, 6576, 6586, 6575
729, 6440, 277, 276
730, 1935, 651, 2027
731, 6595, 6598, 278
732, 6574, 6576, 6578
733, 1563, 10, 9
734, 6439, 6444, 6572
735, 1933, 814, 2017
736, 6452, 277, 6440
737, 6714, 6700, 6702
738, 1416, 1857, 1706
739, 6716, 6712, 283
740, 1522, 1658, 389
741, 1335, 1646, 1644
742, 1632, 1652, 1439
743, 6092, 6499, 6095
744, 6494, 6496, 6655
745, 1667, 1664, 890
746, 6653, 6654, 6809
747, 1052, 1053, 1661
748, 6583, 6753, 6754
749, 6694, 281, 6691
750, 6691, 281, 6687
751, 1203, 1204, 1456
752, 1601, 1671, 1788
753, 6705, 6710, 6693
754, 1449, 1450, 883
755, 713, 714, 1464
756, 6709, 6724, 6728
757, 1420, 1861, 1712
758, 1442, 1041, 1588
759, 6401, 6415, 6414
760, 6419, 274, 6417
761, 6421, 6418, 6432
762, 6451, 6433, 6422
763, 1438, 1426, 1386
764, 1434, 1422, 1382
765, 6434, 6433, 276
766, 1861, 1372, 1489
767, 2201, 789, 790
768, 5548, 5174, 6453
769, 3844, 854, 855
770, 1546, 1484, 153
771, 1647, 1648, 7823
772, 4927, 4613, 4608
773, 1859, 1371, 1488
774, 7, 6, 1432
775, 1390, 1410, 1430
776, 275, 6421, 6424
777, 4611, 4617, 4606
778, 1497, 646, 647
779, 4624, 4628, 4629
780, 1855, 1369, 1486
781, 1857, 1370, 1487
782, 4621, 4623, 4619
783, 1484, 154, 153
784, 4632, 4629, 4630
785, 853, 4600, 4615
786, 4602, 4608, 4613
787, 1765, 1766, 1764
788, 4652, 4612, 4641
789, 4634, 4640, 4635
790, 1772, 1607, 1771
791, 4619, 4623, 4616
792, 1597, 1760, 1759
793, 4648, 4650, 848
794, 1493, 809, 810
795, 1392, 1412, 1432
796, 1884, 1496, 1849
797, 6093, 6081, 6089
798, 1333, 1640, 1638
799, 1437, 1717, 1630
800, 4600, 853, 4213
801, 889, 1447, 888
802, 1882, 1731, 1880
803, 1667, 890, 891
804, 1542, 1870, 1480
805, 1534, 1864, 1474
806, 1664, 1447, 889
807, 1876, 1727, 1874
808, 1448, 1667, 1668
809, 1897, 1894, 1575
810, 1666, 1354, 887
811, 1355, 886, 1354
812, 247, 246, 1354
813, 245, 1449, 1355
814, 1577, 1905, 1738
815, 888, 1447, 1666
816, 1901, 1900, 1536
817, 1757, 1669, 893
818, 2263, 1956, 2037
819, 1857, 1487, 1310
820, 1448, 1787, 1524
821, 1422, 808, 1402
822, 1754, 1592, 1756
823, 1754, 1756, 2244
824, 1346, 1294, 1505
825, 1754, 253, 252
826, 1406, 314, 313
827, 1121, 1122, 1297
828, 476, 1619, 477
829, 1305, 1297, 1373
830, 247, 1666, 248
831, 1664, 1665, 1447
832, 969, 970, 1333
833, 1666, 247, 1354
834, 1319, 1338, 1651
835, 1408, 155, 154
836, 251, 250, 1524
837, 2235, 2240, 1755
838, 1355, 884, 885
839, 1915, 1912, 3289
840, 883, 884, 1449
841, 7278, 7210, 7207
842, 2268, 2267, 2697
843, 883, 1450, 882
844, 1450, 1449, 243
845, 245, 244, 1449
846, 242, 1593, 1450
847, 2256, 2685, 3290
848, 882, 1593, 881
849, 879, 880, 1594
850, 1595, 881, 1593
851, 1595, 240, 1594
852, 1584, 1917, 1579
853, 1595, 1593, 241
854, 2694, 2261, 2693
855, 967, 968, 1313
856, 1579, 1915, 1739
857, 1596, 239, 238
858, 2148, 2145, 1379
859, 7269, 7189, 7186
860, 963, 964, 1293
861, 1451, 237, 1452
862, 237, 1451, 238
863, 322, 321, 1325
864, 1451, 1596, 238
865, 1480, 1869, 1919
866, 878, 1451, 877
867, 1356, 876, 1452
868, 876, 877, 1452
869, 876, 1356, 875
870, 1910, 1797, 1908
871, 1452, 235, 1356
872, 1689, 1918, 1802
873, 7826, 1466, 319
874, 1594, 240, 239
875, 2205, 1319, 1374
876, 1917, 1480, 1918
877, 1505, 1398, 1939
878, 1911, 1910, 1540
879, 2443, 861, 2439
880, 235, 234, 1356
881, 2813, 2816, 2820
882, 1676, 550, 549
883, 2831, 3461, 2826
884, 2820, 2827, 2813
885, 1050, 1051, 1352
886, 2443, 2437, 2441
887, 865, 2416, 2417
888, 1513, 1400, 1945
889, 2431, 863, 2427
890, 2435, 2432, 2434
891, 1822, 813, 1970
892, 2424, 2422, 2427
893, 393, 392, 1623
894, 2423, 2434, 2431
895, 1537, 1778, 1634
896, 2202, 1637, 2201
897, 3475, 3474, 858
898, 1368, 86, 1462
899, 3842, 3841, 855
900, 3853, 3847, 3854
901, 1335, 1644, 1784
902, 2829, 2833, 2839
903, 1400, 1304, 1419
904, 3465, 3845, 3841
905, 1806, 3295, 1923
906, 2830, 2824, 2825
907, 1904, 1903, 1902
908, 3462, 857, 3474
909, 3473, 3472, 3468
910, 1921, 1544, 628
911, 2825, 3476, 3475
912, 1794, 1687, 1792
913, 1816, 1814, 1727
914, 2825, 2824, 2821
915, 1312, 1489, 1328
916, 1817, 1820, 2016
917, 1625, 233, 1357
918, 1317, 1619, 1337
919, 1409, 326, 325
920, 1321, 1339, 1652
921, 230, 1453, 231
922, 1453, 1525, 1567
923, 1323, 1340, 1653
924, 232, 1357, 233
925, 1900, 1792, 1898
926, 1625, 874, 1356
927, 1625, 873, 874
928, 1453, 1670, 1525
929, 1383, 1882, 1435
930, 2263, 2037, 1955
931, 1525, 871, 872
932, 1687, 1893, 1894
933, 1453, 1599, 1600
934, 874, 875, 1356
935, 2165, 2420, 2163
936, 1348, 1296, 1513
937, 2419, 2416, 2418
938, 2422, 864, 2416
939, 1838, 1494, 1839
940, 2163, 2162, 1597
941, 1861, 1489, 1312
942, 2113, 2416, 2419
943, 870, 1670, 1600
944, 229, 1760, 1598
945, 1578, 1869, 1870
946, 229, 1599, 230
947, 1598, 1760, 1758
948, 1758, 2162, 867
949, 1700, 1853, 1852
950, 1416, 1856, 1502
951, 866, 867, 2162
952, 1574, 1863, 1864
953, 1852, 1853, 1850
954, 1424, 645, 1404
955, 1310, 1487, 1326
956, 1381, 1876, 1433
957, 1699, 1832, 1697
958, 1707, 2206, 2207
959, 2631, 2617, 2626
960, 2254, 2682, 3285
961, 1757, 1756, 1592
962, 1689, 1913, 1914
963, 3493, 4220, 4228
964, 1325, 1486, 1550
965, 1576, 1538, 950
966, 627, 1804, 1921
967, 943, 3494, 3479
968, 942, 3481, 3495
969, 1646, 1562, 1391
970, 3480, 3486, 3492
971, 4730, 4712, 4719
972, 1586, 1043, 1587
973, 3861, 4225, 4240
974, 788, 1580, 787
975, 4945, 940, 4222
976, 299, 4234, 4231
977, 1114, 1574, 1113
978, 4236, 4711, 4713
979, 3477, 944, 2840
980, 1640, 1556, 1389
981, 948, 949, 1583
982, 1876, 1381, 1875
983, 1504, 1502, 1856
984, 1943, 1996, 1709
985, 1394, 1576, 951
986, 1576, 1867, 1538
987, 1885, 1384, 1884
988, 1538, 1583, 949
989, 2691, 2260, 2841
990, 4242, 4241, 4233
991, 4219, 4230, 4227
992, 1738, 947, 948
993, 1197, 1198, 1677
994, 1963, 946, 947
995, 1526, 547, 1788
996, 1748, 1662, 1054
997, 1478, 1539, 1540
998, 2556, 2558, 7843
999, 2236, 1757, 894
1000, 1630, 1650, 1437
1001, 6084, 6079, 6080
1002, 1622, 1323, 2273
1003, 1608, 1609, 1610
1004, 81, 1616, 82
1005, 5347, 5349, 5351
1006, 5354, 5348, 5352
1007, 1628, 1366, 710
1008, 5359, 5361, 931
1009, 1832, 1137, 1138
1010, 6719, 6728, 6731
1011, 6744, 6101, 6102
1012, 6098, 6100, 6087
1013, 1524, 250, 1665
1014, 1882, 1383, 1881
1015, 6093, 6094, 6081
1016, 1937, 1982, 1703
1017, 5341, 5344, 4952
1018, 6083, 6073, 6068
1019, 4721, 4716, 4723
1020, 558, 1604, 559
1021, 4725, 4723, 4726
1022, 4707, 297, 4710
1023, 1620, 1319, 2269
1024, 1777, 1614, 1612
1025, 4236, 4713, 4232
1026, 935, 5108, 5107
1027, 1515, 1554, 327
1028, 930, 931, 6103
1029, 5343, 5099, 5346
1030, 6075, 5339, 5338
1031, 1654, 1031, 1032
1032, 1277, 1578, 1276
1033, 5095, 5343, 5341
1034, 1519, 1560, 486
1035, 1204, 1205, 1602
1036, 4725, 936, 4723
1037, 229, 228, 1760
1038, 1578, 1542, 1276
1039, 1652, 1632, 1375
1040, 91, 1568, 1460
1041, 955, 1306, 1320
1042, 1379, 2210, 2575
1043, 726, 727, 1685
1044, 319, 1466, 320
1045, 957, 958, 1298
1046, 957, 1298, 1306
1047, 311, 1540, 1539
1048, 957, 1306, 956
1049, 3281, 2254, 2680
1050, 1484, 1408, 154
1051, 1904, 1905, 1577
1052, 1738, 948, 1577
1053, 1758, 868, 1761
1054, 1742, 2215, 1887
1055, 955, 1320, 954
1056, 2682, 3284, 3285
1057, 1620, 316, 1338
1058, 1810, 974, 975
1059, 1974, 1976, 1833
1060, 314, 1426, 315
1061, 1426, 314, 1406
1062, 956, 1306, 955
1063, 1882, 1880, 1518
1064, 1545, 1868, 1359
1065, 2198, 954, 1320
1066, 1500, 1498, 1854
1067, 1782, 1313, 968
1068, 949, 950, 1538
1069, 1539, 312, 311
1070, 1799, 309, 1795
1071, 2015, 1812, 1692
1072, 2258, 148, 2686
1073, 1438, 1338, 1426
1074, 1687, 1794, 1790
1075, 1696, 1830, 1492
1076, 315, 1338, 316
1077, 1498, 1500, 1329
1078, 1771, 1770, 93
1079, 1835, 1839, 1698
1080, 942, 943, 3481
1081, 1545, 1636, 1722
1082, 943, 944, 3494
1083, 1776, 705, 1777
1084, 2034, 1996, 1943
1085, 3485, 3489, 3488
1086, 1765, 1764, 1763
1087, 173, 172, 1829
1088, 1555, 1874, 1814
1089, 170, 1730, 171
1090, 1690, 1808, 1923
1091, 2216, 1749, 1056
1092, 1823, 172, 171
1093, 1564, 1883, 1847
1094, 2047, 1826, 1973
1095, 169, 1557, 1558
1096, 1529, 1686, 708
1097, 161, 1467, 162
1098, 2030, 2031, 1981
1099, 1398, 1415, 1370
1100, 1876, 1874, 1514
1101, 1028, 1029, 1886
1102, 1467, 1326, 162
1103, 7834, 2700, 7833
1104, 163, 1326, 2123
1105, 1642, 1641, 1643
1106, 1788, 546, 1762
1107, 165, 2123, 1342
1108, 1728, 1812, 330
1109, 1825, 1824, 1730
1110, 1430, 165, 1342
1111, 2255, 626, 625
1112, 1410, 1517, 167
1113, 170, 169, 1558
1114, 1561, 1836, 1732
1115, 1791, 2251, 2252
1116, 1302, 1398, 1294
1117, 1474, 1863, 1899
1118, 2197, 1635, 1779
1119, 1843, 648, 649
1120, 1537, 1634, 1716
1121, 5760, 5766, 5774
1122, 1482, 1407, 631
1123, 5749, 5751, 5747
1124, 1509, 1506, 1347
1125, 1946, 2003, 1712
1126, 5755, 5767, 5753
1127, 1371, 1417, 1488
1128, 5747, 5751, 5744
1129, 5075, 5323, 5325
1130, 1451, 1452, 877
1131, 5773, 5779, 5771
1132, 5757, 5750, 5754
1133, 1448, 1524, 1665
1134, 5783, 5805, 197
1135, 1458, 562, 561
1136, 5756, 5765, 5769
1137, 5755, 5761, 5763
1138, 1377, 2204, 2499
1139, 5826, 5223, 5824
1140, 468, 1794, 1901
1141, 4891, 187, 4884
1142, 409, 1566, 1446
1143, 2562, 2574, 2144
1144, 5238, 5236, 5237
1145, 1364, 1396, 1781
1146, 4889, 4888, 4886
1147, 1375, 1321, 1652
1148, 5221, 5743, 5745
1149, 1640, 1433, 1556
1150, 5221, 5224, 5222
1151, 5233, 5231, 5236
1152, 1646, 1435, 1562
1153, 5219, 831, 5222
1154, 1659, 1658, 1657
1155, 4506, 4505, 4500
1156, 5758, 5821, 5220
1157, 2480, 2482, 7837
1158, 1600, 1670, 1453
1159, 845, 846, 4670
1160, 1436, 1424, 1384
1161, 4682, 4692, 844
1162, 1557, 169, 168
1163, 1386, 1541, 1719
1164, 4675, 4680, 4669
1165, 1440, 1428, 1388
1166, 4695, 843, 844
1167, 90, 1736, 1568
1168, 849, 4629, 4632
1169, 1872, 1724, 1929
1170, 846, 847, 4667
1171, 845, 4670, 4681
1172, 1823, 1730, 1824
1173, 4663, 4658, 4637
1174, 1866, 1718, 1909
1175, 4704, 4701, 4694
1176, 4673, 4669, 4671
1177, 4943, 4939, 4935
1178, 1444, 1047, 1349
1179, 1676, 1360, 550
1180, 5815, 5794, 5811
1181, 5782, 5786, 5789
1182, 1678, 1682, 1459
1183, 5768, 5772, 5776
1184, 5076, 5073, 200
1185, 13, 1845, 1851
1186, 4701, 843, 4695
1187, 1688, 1904, 1907
1188, 5331, 5078, 5082
1189, 5081, 5083, 5079
1190, 172, 1823, 1829
1191, 4701, 4703, 843
1192, 1994, 1941, 1991
1193, 2008, 1947, 2005
1194, 4931, 4942, 4699
1195, 1388, 1548, 1725
1196, 1745, 1744, 1030
1197, 1353, 1778, 1537
1198, 249, 1665, 250
1199, 2713, 2714, 177
1200, 1681, 1680, 1362
1201, 175, 2351, 2350
1202, 2032, 1982, 1937
1203, 1402, 1493, 1382
1204, 2713, 177, 2355
1205, 1813, 1817, 1692
1206, 813, 1822, 812
1207, 179, 3799, 3798
1208, 1657, 1033, 1034
1209, 1675, 1454, 1674
1210, 2759, 2746, 2755
1211, 2048, 1826, 2047
1212, 2152, 7843, 7844
1213, 1830, 1696, 1694
1214, 1972, 1933, 2019
1215, 3175, 3168, 3177
1216, 892, 1669, 1668
1217, 2563, 7843, 2558
1218, 1783, 805, 806
1219, 727, 728, 1610
1220, 804, 1302, 803
1221, 803, 1302, 802
1222, 1309, 1325, 1466
1223, 1302, 1294, 802
1224, 1478, 1541, 1479
1225, 1384, 1497, 1884
1226, 1493, 810, 1696
1227, 1483, 1871, 1548
1228, 808, 809, 1402
1229, 1334, 1783, 806
1230, 1728, 329, 1555
1231, 1422, 807, 808
1232, 2143, 800, 7839
1233, 1504, 1856, 1706
1234, 804, 1314, 1302
1235, 802, 1294, 801
1236, 1381, 1491, 1875
1237, 4479, 4486, 4488
1238, 878, 879, 1596
1239, 4106, 3790, 4096
1240, 1626, 1360, 1199
1241, 1640, 1333, 1433
1242, 4495, 4111, 4496
1243, 1773, 1772, 1608
1244, 4106, 4119, 4118
1245, 157, 1622, 158
1246, 4885, 4883, 4884
1247, 1610, 1609, 1460
1248, 4480, 4094, 4478
1249, 4095, 4092, 824
1250, 717, 718, 1616
1251, 4482, 4485, 4486
1252, 1206, 1207, 1604
1253, 4099, 4508, 4103
1254, 4494, 4500, 4493
1255, 1435, 1882, 1950
1256, 2393, 2087, 2388
1257, 7787, 1486, 1413
1258, 2086, 2349, 2085
1259, 2083, 175, 174
1260, 1433, 1876, 1948
1261, 2742, 2392, 2394
1262, 1868, 1721, 1359
1263, 1668, 1669, 1787
1264, 3788, 3786, 822
1265, 3797, 2760, 4098
1266, 1588, 1586, 398
1267, 1393, 1353, 1863
1268, 2756, 2759, 2762
1269, 1736, 90, 89
1270, 1396, 1364, 1872
1271, 3417, 3786, 3794
1272, 868, 869, 1761
1273, 1907, 1583, 1477
1274, 2761, 3796, 3801
1275, 2348, 2350, 2351
1276, 75, 1628, 1367
1277, 2136, 2141, 1330
1278, 1646, 1335, 1435
1279, 1480, 1584, 1542
1280, 1662, 1748, 1591
1281, 1346, 800, 1294
1282, 1476, 1405, 472
1283, 1505, 1502, 1346
1284, 1919, 1721, 1920
1285, 1500, 1854, 1703
1286, 1917, 1914, 1579
1287, 2489, 2490, 2495
1288, 1394, 1358, 1866
1289, 1111, 1582, 1575
1290, 1588, 1042, 1586
1291, 3805, 3803, 1148
1292, 3425, 3803, 3811
1293, 1596, 1594, 239
1294, 2780, 2783, 2777
1295, 2359, 2360, 2357
1296, 1484, 1546, 1483
1297, 7822, 1488, 1417
1298, 1827, 1828, 1825
1299, 2096, 2398, 2403
1300, 2763, 2402, 2404
1301, 1849, 1850, 1847
1302, 2095, 2358, 2094
1303, 3818, 2782, 3813
1304, 1865, 1718, 1358
1305, 4125, 4122, 1150
1306, 870, 1600, 869
1307, 2166, 1219, 1220
1308, 70, 69, 1775
1309, 4524, 4525, 4531
1310, 4517, 4513, 4516
1311, 1618, 716, 1617
1312, 4511, 4124, 4509
1313, 1431, 1343, 1645
1314, 4133, 4129, 4539
1315, 3807, 4126, 4136
1316, 4527, 4526, 4141
1317, 1603, 1206, 1604
1318, 1621, 1321, 2281
1319, 4510, 4517, 4519
1320, 1213, 1627, 1212
1321, 4897, 4898, 4896
1322, 4149, 4148, 4136
1323, 1049, 1624, 1349
1324, 4128, 3814, 2781
1325, 1315, 1303, 1130
1326, 1730, 170, 1558
1327, 2145, 2150, 1331
1328, 1658, 1445, 1657
1329, 1423, 1133, 1134
1330, 1135, 1403, 1134
1331, 1639, 1341, 7787
1332, 1784, 1132, 1335
1333, 2275, 2699, 2276
1334, 720, 721, 1462
1335, 1311, 1327, 1468
1336, 468, 467, 1790
1337, 1303, 1295, 1128
1338, 1303, 1129, 1130
1339, 627, 626, 1800
1340, 1303, 1128, 1129
1341, 1132, 1784, 1131
1342, 2152, 1126, 7842
1343, 1699, 1697, 1841
1344, 1382, 1493, 1878
1345, 2776, 2780, 2767
1346, 3815, 497, 3816
1347, 1446, 1663, 409
1348, 2051, 1837, 2050
1349, 1512, 1860, 1712
1350, 2716, 2717, 495
1351, 1403, 1495, 1383
1352, 3093, 3086, 3095
1353, 1139, 1833, 1138
1354, 2024, 1976, 1934
1355, 1790, 2251, 1793
1356, 1699, 1137, 1832
1357, 495, 2364, 2716
1358, 1699, 1495, 1136
1359, 1526, 1675, 548
1360, 1365, 725, 1528
1361, 1897, 1582, 1474
1362, 493, 2360, 2359
1363, 1034, 1035, 1660
1364, 1834, 1732, 1835
1365, 5645, 5643, 5644
1366, 1690, 1924, 1927
1367, 1492, 1493, 1696
1368, 1496, 1497, 1702
1369, 5609, 1169, 5610
1370, 6460, 5611, 6459
1371, 1769, 1684, 1606
1372, 6459, 5618, 5619
1373, 5857, 5861, 5865
1374, 1194, 1671, 1672
1375, 5900, 5899, 5642
1376, 5618, 5611, 5615
1377, 1451, 878, 1596
1378, 5872, 5891, 515
1379, 1679, 567, 1680
1380, 5641, 5640, 5617
1381, 5607, 5612, 5610
1382, 1708, 1504, 1989
1383, 5181, 5029, 4864
1384, 1714, 1512, 2003
1385, 1633, 1726, 1324
1386, 1631, 1720, 1320
1387, 4421, 4424, 1173
1388, 5029, 4427, 5030
1389, 947, 1738, 1963
1390, 4427, 1172, 4425
1391, 401, 1443, 402
1392, 5626, 5614, 5625
1393, 1171, 5181, 5180
1394, 1169, 1170, 5604
1395, 1391, 1411, 1431
1396, 1385, 1537, 1716
1397, 5040, 5037, 5034
1398, 1387, 1545, 1722
1399, 1389, 1409, 1429
1400, 5184, 5603, 5039
1401, 248, 1666, 1447
1402, 1449, 884, 1355
1403, 5260, 5258, 5263
1404, 1717, 1437, 1716
1405, 1359, 1780, 1545
1406, 1342, 1551, 7821
1407, 5247, 5847, 5909
1408, 5249, 5246, 1157
1409, 1344, 1553, 7823
1410, 5248, 5251, 5249
1411, 1485, 1585, 1549
1412, 4537, 4536, 4531
1413, 505, 4897, 4904
1414, 5264, 5265, 5263
1415, 1544, 629, 628
1416, 1518, 1880, 1561
1417, 5919, 5250, 5917
1418, 1453, 1567, 231
1419, 5834, 5248, 5832
1420, 4901, 4899, 4902
1421, 5839, 5843, 5846
1422, 1590, 1655, 1654
1423, 5862, 5868, 5860
1424, 5869, 5872, 5870
1425, 1465, 715, 1618
1426, 1378, 2207, 2537
1427, 5878, 5869, 5871
1428, 5854, 5858, 5845
1429, 872, 1357, 1525
1430, 5852, 5844, 5850
1431, 5833, 5836, 5840
1432, 5842, 5844, 5856
1433, 1372, 1419, 1489
1434, 1397, 1501, 1293
1435, 5849, 5855, 5863
1436, 1400, 1513, 1296
1437, 152, 1547, 1546
1438, 5838, 5840, 5836
1439, 1657, 1660, 1659
1440, 2518, 2520, 7840
1441, 1457, 1209, 1458
1442, 1030, 1744, 1029
1443, 412, 411, 1750
1444, 409, 1663, 410
1445, 1844, 1843, 649
1446, 1343, 483, 2124
1447, 483, 1343, 1431
1448, 1644, 1646, 1645
1449, 1927, 1928, 1690
1450, 1693, 1819, 1490
1451, 2124, 481, 1327
1452, 1970, 1972, 1822
1453, 1899, 1715, 1900
1454, 1303, 1399, 1295
1455, 1417, 1371, 1399
1456, 480, 1468, 1327
1457, 1870, 1869, 1480
1458, 1494, 1881, 1495
1459, 1468, 480, 479
1460, 1791, 1893, 1793
1461, 1936, 1855, 1414
1462, 485, 1411, 1519
1463, 2163, 1759, 227
1464, 1732, 489, 488
1465, 1834, 490, 489
1466, 491, 490, 1840
1467, 2200, 1723, 1636
1468, 1523, 1735, 1352
1469, 1560, 1561, 487
1470, 1663, 1747, 410
1471, 1783, 1314, 805
1472, 487, 1561, 488
1473, 3507, 3511, 3510
1474, 92, 1771, 93
1475, 2196, 1717, 1634
1476, 1269, 1270, 3516
1477, 1331, 1508, 1711
1478, 2253, 308, 307
1479, 1329, 1500, 1705
1480, 2050, 1837, 1977
1481, 492, 2092, 493
1482, 1949, 1879, 1516
1483, 2200, 1280, 1322
1484, 1558, 1825, 1730
1485, 1339, 1427, 1439
1486, 2256, 625, 2683
1487, 1678, 1680, 1789
1488, 1322, 1280, 1281
1489, 1814, 1813, 1728
1490, 629, 1543, 630
1491, 633, 1339, 634
1492, 385, 1952, 1887
1493, 1281, 1282, 1307
1494, 1475, 1715, 1862
1495, 1884, 1849, 1733
1496, 632, 1407, 1427
1497, 1490, 1875, 1491
1498, 632, 1427, 633
1499, 1804, 627, 1800
1500, 2025, 2026, 1977
1501, 3286, 2256, 2683
1502, 1765, 1763, 1767
1503, 1579, 1914, 1915
1504, 386, 385, 2215
1505, 3289, 3290, 2685
1506, 1274, 1579, 1739
1507, 1753, 1751, 2221
1508, 1307, 1322, 1281
1509, 2157, 2154, 1380
1510, 84, 1462, 85
1511, 1475, 1536, 1715
1512, 1307, 1283, 1299
1513, 1282, 1283, 1307
1514, 478, 1468, 479
1515, 1283, 1284, 1299
1516, 1481, 1544, 1721
1517, 1369, 1413, 1486
1518, 1542, 1275, 1276
1519, 1614, 1777, 706
1520, 1332, 1510, 1512
1521, 1269, 3503, 1268
1522, 1688, 1903, 1904
1523, 5124, 5123, 1261
1524, 91, 1460, 1609
1525, 5115, 5376, 5373
1526, 1920, 1918, 1919
1527, 2600, 2612, 2153
1528, 5111, 5373, 5371
1529, 868, 1758, 867
1530, 6117, 5369, 5368
1531, 4739, 4736, 615
1532, 1429, 1341, 1639
1533, 4750, 4745, 4752
1534, 4754, 1262, 4752
1535, 1594, 880, 1595
1536, 4754, 4752, 4755
1537, 1653, 1633, 1376
1538, 4259, 4263, 4742
1539, 1257, 6145, 1256
1540, 1463, 1615, 719
1541, 6122, 6126, 6121
1542, 1580, 1549, 787
1543, 6141, 6143, 6144
1544, 1560, 1519, 1518
1545, 2001, 1709, 1859
1546, 6135, 6136, 6123
1547, 1353, 1393, 1778
1548, 6140, 6142, 6129
1549, 1769, 569, 1527
1550, 5374, 4961, 5371
1551, 715, 716, 1618
1552, 5382, 5384, 5378
1553, 1257, 5389, 5391
1554, 1614, 707, 1686
1555, 5377, 5379, 5381
1556, 1761, 1600, 1598
1557, 6934, 6932, 6933
1558, 6125, 6115, 6110
1559, 1514, 1874, 1555
1560, 405, 1624, 406
1561, 1273, 1274, 1739
1562, 1693, 974, 1810
1563, 1275, 1584, 1274
1564, 4246, 4257, 4254
1565, 4269, 4268, 4260
1566, 1522, 388, 1786
1567, 1213, 1681, 1362
1568, 1584, 1275, 1542
1569, 1940, 1989, 1706
1570, 1780, 2199, 1636
1571, 1513, 1510, 1348
1572, 1277, 1395, 1578
1573, 1542, 1578, 1870
1574, 1501, 1498, 1345
1575, 1544, 1481, 1543
1576, 1879, 1382, 1878
1577, 1568, 1528, 1460
1578, 3508, 3514, 3502
1579, 4247, 4255, 3515
1580, 1266, 4249, 4954
1581, 1474, 1582, 1534
1582, 4267, 3865, 4252
1583, 4759, 4741, 4748
1584, 951, 1576, 950
1585, 4740, 4742, 4263
1586, 1041, 1042, 1588
1587, 309, 1799, 1911
1588, 1272, 1273, 1964
1589, 2693, 2261, 2848
1590, 1547, 152, 151
1591, 2486, 2498, 2126
1592, 3516, 3501, 1269
1593, 3503, 3517, 1268
1594, 1520, 1883, 1564
1595, 1270, 2847, 3499
1596, 1516, 1877, 1558
1597, 1574, 1534, 1113
1598, 4261, 4258, 617
1599, 893, 1669, 892
1600, 1327, 1488, 1552
1601, 1821, 811, 812
1602, 1631, 1651, 1438
1603, 1135, 1495, 1403
1604, 1650, 1630, 1373
1605, 4420, 4418, 4438
1606, 1477, 1909, 1908
1607, 1767, 1889, 1765
1608, 1853, 1700, 1844
1609, 1194, 1195, 1671
1610, 1358, 1718, 1866
1611, 1364, 1724, 1872
1612, 1762, 1764, 1601
1613, 7831, 2699, 7830
1614, 1788, 547, 546
1615, 2041, 2011, 2040
1616, 491, 1840, 1837
1617, 1501, 1397, 1936
1618, 1191, 1889, 1959
1619, 1764, 1762, 2250
1620, 1309, 1486, 1325
1621, 2250, 1762, 545
1622, 1767, 1959, 1889
1623, 1671, 1195, 1673
1624, 1701, 1845, 1846
1625, 1674, 1454, 1673
1626, 1885, 1884, 1733
1627, 1200, 1626, 1199
1628, 2690, 2259, 2689
1629, 1906, 1963, 1905
1630, 1677, 1360, 1676
1631, 1958, 1191, 1959
1632, 1200, 1361, 1626
1633, 1347, 1295, 1509
1634, 547, 1526, 548
1635, 1308, 1300, 1376
1636, 1675, 1676, 549
1637, 550, 1360, 551
1638, 1345, 1293, 1501
1639, 1454, 1675, 1526
1640, 1423, 1134, 1403
1641, 551, 1360, 1626
1642, 1673, 1196, 1674
1643, 1879, 1878, 1729
1644, 1509, 1399, 1942
1645, 3381, 3373, 3393
1646, 1796, 3285, 1903
1647, 1804, 1802, 1921
1648, 1693, 1810, 1691
1649, 2332, 537, 3351
1650, 3356, 3359, 3357
1651, 1901, 1536, 469
1652, 3362, 1183, 3359
1653, 3376, 3394, 3380
1654, 1786, 1654, 1445
1655, 3380, 3391, 3387
1656, 3364, 3393, 3369
1657, 1713, 2212, 2213
1658, 2593, 2579, 2588
1659, 3360, 3362, 3359
1660, 3383, 3392, 3393
1661, 1185, 2707, 2708
1662, 1545, 1780, 1636
1663, 1188, 2315, 2316
1664, 1694, 1831, 1830
1665, 1114, 1115, 1393
1666, 2057, 2313, 2011
1667, 1189, 2043, 2313
1668, 1355, 885, 886
1669, 2040, 1190, 1958
1670, 2316, 2312, 2326
1671, 2321, 2325, 1186
1672, 2331, 2334, 2337
1673, 551, 1626, 552
1674, 2321, 2319, 2323
1675, 2318, 2320, 1187
1676, 1212, 1363, 1211
1677, 2328, 2317, 2327
1678, 74, 1628, 75
1679, 1399, 1303, 1417
1680, 1816, 1490, 1817
1681, 1611, 1776, 1775
1682, 1535, 1476, 471
1683, 1476, 1385, 1405
1684, 1840, 1834, 2025
1685, 553, 552, 1361
1686, 1361, 1200, 1201
1687, 553, 1455, 554
1688, 1485, 1929, 1928
1689, 1929, 1724, 1930
1690, 1455, 1361, 1202
1691, 1916, 1964, 1915
1692, 1455, 1456, 555
1693, 1127, 1128, 1295
1694, 1361, 1455, 553
1695, 1321, 1621, 1339
1696, 555, 1456, 556
1697, 557, 556, 1602
1698, 1284, 1285, 1299
1699, 1455, 555, 554
1700, 481, 480, 1327
1701, 1456, 1602, 556
1702, 1411, 485, 484
1703, 1603, 558, 557
1704, 1206, 1603, 1205
1705, 1604, 1207, 1605
1706, 558, 1603, 1604
1707, 1927, 1485, 1928
1708, 1605, 559, 1604
1709, 1485, 1872, 1929
1710, 1132, 1133, 1335
1711, 635, 1621, 636
1712, 1605, 1457, 560
1713, 1458, 561, 1457
1714, 2696, 2262, 2695
1715, 2258, 2688, 3295
1716, 1209, 1457, 1208
1717, 1605, 1208, 1457
1718, 1210, 1363, 1458
1719, 1585, 1927, 1581
1720, 1307, 1299, 1375
1721, 1690, 1928, 1807
1722, 1339, 1621, 634
1723, 1855, 1486, 1309
1724, 1859, 1488, 1311
1725, 1317, 1337, 1650
1726, 7832, 1468, 478
1727, 1130, 1131, 1315
1728, 564, 1363, 1627
1729, 563, 562, 1458
1730, 1362, 1680, 566
1731, 1606, 2166, 2169
1732, 1311, 1488, 1327
1733, 1405, 473, 472
1734, 1407, 632, 631
1735, 569, 568, 1527
1736, 1527, 1459, 1769
1737, 1421, 971, 1401
1738, 571, 570, 1768
1739, 1216, 1678, 1215
1740, 1126, 1127, 1295
1741, 1212, 1627, 1363
1742, 563, 1458, 1363
1743, 566, 565, 1362
1744, 1796, 2253, 2254
1745, 2252, 2679, 3280
1746, 1213, 1362, 1627
1747, 1907, 1477, 1908
1748, 1214, 1789, 1681
1749, 1867, 1866, 1477
1750, 2167, 1684, 1219
1751, 1217, 1682, 1216
1752, 1459, 1682, 1683
1753, 1496, 1884, 1497
1754, 1492, 1878, 1493
1755, 1682, 1678, 1216
1756, 1873, 1872, 1485
1757, 544, 1957, 1890
1758, 565, 564, 1627
1759, 1211, 1363, 1210
1760, 1049, 1349, 1048
1761, 1801, 2255, 2256
1762, 2211, 1317, 1373
1763, 1477, 1866, 1909
1764, 1606, 1684, 2167
1765, 3762, 4044, 4046
1766, 1756, 1755, 2244
1767, 3765, 3767, 3402
1768, 1788, 1762, 1601
1769, 3382, 3399, 3397
1770, 4061, 4046, 4047
1771, 2169, 1768, 1606
1772, 4058, 1178, 3766
1773, 1316, 1785, 1647
1774, 4422, 4415, 4410
1775, 528, 4041, 4038
1776, 4039, 4048, 4411
1777, 484, 483, 1431
1778, 1314, 1783, 1641
1779, 3762, 3757, 3763
1780, 1315, 1784, 1644
1781, 325, 324, 1429
1782, 4049, 4414, 4416
1783, 1417, 1303, 1315
1784, 1179, 3403, 3405
1785, 1433, 1421, 1381
1786, 1644, 1645, 7822
1787, 3910, 3913, 3899
1788, 2199, 1278, 1279
1789, 3389, 3404, 1180
1790, 1437, 1425, 1385
1791, 6160, 6158, 6157
1792, 1560, 487, 486
1793, 6154, 5394, 6161
1794, 1439, 1427, 1387
1795, 5130, 5131, 4967
1796, 5131, 5132, 592
1797, 1554, 328, 327
1798, 595, 6165, 6785
1799, 3893, 4272, 3892
1800, 1495, 1135, 1136
1801, 3377, 3379, 3375
1802, 1039, 1040, 1441
1803, 6923, 6930, 6931
1804, 1478, 1540, 1718
1805, 6955, 6957, 6960
1806, 1202, 1203, 1455
1807, 229, 1598, 1599
1808, 6922, 6926, 6938
1809, 567, 1679, 568
1810, 6983, 6957, 6966
1811, 1430, 1342, 1642
1812, 6131, 6135, 6123
1813, 1445, 1522, 1786
1814, 6659, 6504, 6506
1815, 6657, 6784, 6780
1816, 1432, 1344, 1648
1817, 6134, 6509, 6137
1818, 1351, 1660, 1035
1819, 6979, 6971, 6968
1820, 6923, 6779, 6921
1821, 8198, 8196, 8199
1822, 1590, 1654, 1786
1823, 1696, 811, 1821
1824, 8192, 8196, 6663
1825, 6785, 6165, 6786
1826, 1702, 648, 1843
1827, 6166, 6167, 594
1828, 8202, 8208, 8205
1829, 1672, 1601, 1766
1830, 6922, 6944, 6945
1831, 1219, 1684, 1218
1832, 6966, 6957, 6952
1833, 7126, 6976, 6943
1834, 1459, 1527, 1679
1835, 6955, 1249, 6949
1836, 1805, 2257, 1808
1837, 888, 1666, 887
1838, 8207, 8214, 8215
1839, 889, 890, 1664
1840, 1330, 1504, 1708
1841, 1332, 1512, 1714
1842, 1435, 1423, 1383
1843, 3537, 579, 3535
1844, 2517, 2503, 2512
1845, 1397, 1301, 1413
1846, 1710, 2209, 2210
1847, 2859, 3521, 3523
1848, 3527, 3531, 577
1849, 1875, 1490, 1816
1850, 3531, 3529, 578
1851, 3557, 3559, 3547
1852, 1543, 1482, 630
1853, 1689, 1804, 1800
1854, 3544, 3552, 3537
1855, 3867, 3868, 580
1856, 1811, 1810, 975
1857, 1227, 3533, 3526
1858, 3560, 3564, 3869
1859, 3543, 2459, 2860
1860, 1881, 1494, 1838
1861, 2854, 2453, 574
1862, 1277, 1278, 1395
1863, 572, 2446, 573
1864, 2447, 2168, 2170
1865, 1702, 1852, 1496
1866, 2452, 2447, 2450
1867, 724, 725, 1365
1868, 2447, 2117, 2168
1869, 1970, 814, 1933
1870, 3527, 3532, 3541
1871, 575, 574, 2455
1872, 2460, 576, 575
1873, 2025, 1834, 1698
1874, 1732, 1834, 489
1875, 2447, 1222, 2450
1876, 1492, 1830, 1828
1877, 1847, 1846, 1734
1878, 2455, 2458, 575
1879, 1638, 1639, 7787
1880, 1875, 1816, 1727
1881, 4270, 587, 3883
1882, 1313, 1782, 1638
1883, 3884, 3882, 3602
1884, 1476, 472, 471
1885, 1491, 972, 973
1886, 3893, 588, 3889
1887, 1482, 631, 630
1888, 3601, 3602, 586
1889, 2202, 1726, 1637
1890, 4764, 5135, 4963
1891, 1688, 1798, 1903
1892, 3903, 3916, 3900
1893, 3896, 3898, 3885
1894, 1561, 1880, 1836
1895, 3907, 3909, 3899
1896, 1744, 1742, 1746
1897, 3599, 585, 3588
1898, 3917, 589, 4272
1899, 3576, 582, 3569
1900, 2195, 1115, 1116
1901, 1786, 387, 1741
1902, 3563, 3574, 581
1903, 3559, 3570, 3558
1904, 1897, 1898, 1687
1905, 3555, 3557, 3562
1906, 3575, 3870, 583
1907, 545, 544, 2250
1908, 3872, 3878, 3879
1909, 585, 3599, 3601
1910, 1769, 1768, 570
1911, 1752, 1749, 2216
1912, 2199, 1780, 1395
1913, 7296, 7594, 7598
1914, 2193, 1774, 68
1915, 3595, 3579, 3584
1916, 1592, 1669, 1757
1917, 2253, 1795, 308
1918, 3582, 3572, 3580
1919, 1413, 1301, 1313
1920, 2198, 1720, 1635
1921, 1418, 1858, 1506
1922, 1567, 232, 231
1923, 1659, 391, 390
1924, 1439, 1723, 1632
1925, 1581, 1925, 1740
1926, 1830, 1831, 1828
1927, 1931, 1930, 1547
1928, 1702, 647, 648
1929, 1896, 1962, 1895
1930, 1419, 1372, 1400
1931, 1328, 3, 1469
1932, 1469, 3, 2
1933, 1864, 1863, 1474
1934, 1814, 1874, 1727
1935, 1328, 2125, 4
1936, 1744, 1886, 1029
1937, 1838, 1836, 1731
1938, 2125, 1344, 6
1939, 6, 1344, 1432
1940, 1648, 1647, 1649
1941, 1804, 1689, 1802
1942, 1818, 1812, 2015
1943, 1412, 1521, 8
1944, 1695, 1823, 1824
1945, 1400, 1296, 1304
1946, 1844, 650, 1978
1947, 707, 708, 1686
1948, 640, 1304, 639
1949, 1310, 1326, 1467
1950, 2601, 7846, 2596
1951, 1785, 642, 643
1952, 639, 1304, 1296
1953, 1478, 1865, 1541
1954, 641, 1304, 640
1955, 2194, 1776, 1611
1956, 10, 1563, 1564
1957, 12, 11, 1734
1958, 10, 1564, 11
1959, 150, 149, 1805
1960, 1845, 13, 12
1961, 1304, 641, 1316
1962, 1672, 1766, 1193
1963, 1693, 973, 974
1964, 638, 639, 1296
1965, 637, 1296, 1348
1966, 1788, 1671, 1454
1967, 156, 1340, 157
1968, 1836, 1880, 1731
1969, 792, 793, 1308
1970, 1414, 1854, 1498
1971, 1839, 1842, 2026
1972, 155, 1408, 1428
1973, 1481, 1721, 1868
1974, 155, 1428, 156
1975, 1440, 1340, 1428
1976, 332, 1818, 1815
1977, 150, 1805, 1809
1978, 1794, 1792, 1901
1979, 1333, 1638, 1782
1980, 1546, 153, 152
1981, 1924, 1923, 1922
1982, 791, 1324, 2202
1983, 1831, 1694, 1822
1984, 787, 1549, 786
1985, 784, 1740, 1965
1986, 13, 1851, 14
1987, 2053, 1848, 1981
1988, 16, 15, 2101
1989, 1717, 1716, 1634
1990, 1723, 1722, 1636
1991, 2369, 2368, 16
1992, 1812, 1728, 1813
1993, 1740, 785, 1581
1994, 2162, 1758, 1597
1995, 1845, 1734, 1846
1996, 1887, 1955, 1746
1997, 1810, 1811, 1691
1998, 1924, 1925, 1581
1999, 1298, 2203, 1374
2000, 2686, 3291, 2258
2001, 2373, 2719, 18
2002, 2175, 1770, 1607
2003, 1753, 1752, 1751
2004, 3295, 2688, 3294
2005, 1336, 1785, 643
2006, 1687, 1898, 1792
2007, 645, 1424, 644
2008, 2154, 2159, 1332
2009, 8, 1521, 9
2010, 2161, 637, 7845
2011, 1844, 649, 650
2012, 1384, 1404, 1497
2013, 1508, 1506, 1858
2014, 1497, 647, 1702
2015, 1678, 1679, 1680
2016, 2788, 2797, 2801
2017, 3832, 20, 3833
2018, 326, 1515, 327
2019, 1980, 1935, 2029
2020, 2054, 1848, 2053
2021, 1852, 1702, 1700
2022, 1754, 1787, 1592
2023, 1769, 1459, 1683
2024, 645, 646, 1404
2025, 2368, 2369, 2366
2026, 2161, 7846, 7847
2027, 1479, 1539, 1478
2028, 1557, 1516, 1558
2029, 2413, 2105, 2408
2030, 2414, 2784, 2412
2031, 1387, 1482, 1545
2032, 2104, 2367, 2103
2033, 3835, 2803, 3830
2034, 241, 1593, 242
2035, 1808, 1690, 1805
2036, 1043, 1044, 1587
2037, 4158, 3831, 2802
2038, 3820, 3828, 3433
2039, 1793, 1687, 1790
2040, 2804, 2798, 2801
2041, 1563, 1520, 1564
2042, 2720, 18, 2719
2043, 7821, 1487, 1415
2044, 659, 3822, 3820
2045, 1391, 1431, 1645
2046, 4570, 4163, 4159
2047, 4557, 4171, 4558
2048, 4166, 3824, 4156
2049, 4548, 4550, 4541
2050, 552, 1626, 1361
2051, 4178, 4166, 4179
2052, 1389, 1429, 1639
2053, 1596, 879, 1594
2054, 4562, 4555, 4556
2055, 4568, 4567, 4562
2056, 4910, 4917, 28
2057, 1735, 408, 407
2058, 2565, 2566, 2571
2059, 5290, 5291, 5292
2060, 1274, 1584, 1579
2061, 4155, 4152, 661
2062, 92, 91, 1609
2063, 4544, 4547, 4548
2064, 1453, 230, 1599
2065, 1207, 1208, 1605
2066, 705, 1776, 704
2067, 5285, 5290, 5287
2068, 4915, 4914, 4912
2069, 1617, 717, 1616
2070, 4911, 4909, 4910
2071, 1862, 1715, 1353
2072, 5940, 5998, 5274
2073, 5933, 5926, 5929
2074, 5943, 5945, 5937
2075, 1645, 1343, 7822
2076, 1597, 1759, 2163
2077, 5277, 6017, 6019
2078, 2134, 7837, 7838
2079, 1036, 1623, 1351
2080, 4154, 4540, 4542
2081, 88, 1629, 1365
2082, 1388, 1484, 1548
2083, 1366, 1569, 1529
2084, 1654, 1656, 1445
2085, 1506, 1509, 1418
2086, 1508, 1858, 1709
2087, 70, 1612, 1613
2088, 2139, 2136, 1378
2089, 1380, 2213, 2613
2090, 1308, 794, 1300
2091, 793, 794, 1308
2092, 160, 1467, 161
2093, 794, 795, 1300
2094, 1479, 1406, 313
2095, 972, 1491, 1401
2096, 791, 792, 1324
2097, 1734, 11, 1564
2098, 789, 1396, 788
2099, 788, 1396, 1580
2100, 646, 1497, 1404
2101, 2201, 1637, 1781
2102, 1483, 1547, 1724
2103, 792, 1308, 1324
2104, 1399, 1509, 1295
2105, 786, 1549, 1585
2106, 1873, 1549, 1580
2107, 780, 781, 3621
2108, 1832, 1833, 1697
2109, 1614, 1686, 1461
2110, 783, 784, 1965
2111, 1297, 2209, 1373
2112, 3608, 779, 780
2113, 1527, 568, 1679
2114, 785, 786, 1585
2115, 4280, 4291, 4288
2116, 1740, 784, 785
2117, 1591, 1747, 1663
2118, 4303, 4302, 4294
2119, 3607, 3613, 3619
2120, 1563, 1521, 1520
2121, 548, 1675, 549
2122, 1554, 1515, 1514
2123, 3616, 3615, 3612
2124, 2594, 2596, 7846
2125, 1359, 1395, 1780
2126, 2695, 2262, 2862
2127, 1517, 1557, 168
2128, 780, 3621, 3606
2129, 779, 3608, 3622
2130, 1326, 1487, 1551
2131, 3604, 781, 2861
2132, 1521, 1563, 9
2133, 7278, 7424, 7428
2134, 2216, 1056, 1057
2135, 1930, 1928, 1929
2136, 4968, 777, 4283
2137, 4301, 3924, 4286
2138, 1900, 1898, 1899
2139, 1461, 1569, 72
2140, 399, 1587, 400
2141, 3620, 4281, 4289
2142, 1540, 311, 310
2143, 4297, 4770, 4772
2144, 1723, 1439, 1722
2145, 4784, 4782, 4785
2146, 707, 1614, 706
2147, 1602, 1205, 1603
2148, 4769, 4766, 138
2149, 316, 1620, 317
2150, 5149, 772, 5150
2151, 1600, 1599, 1598
2152, 4297, 4772, 4293
2153, 67, 2465, 68
2154, 4784, 773, 4782
2155, 5404, 5407, 4975
2156, 559, 1605, 560
2157, 4775, 4782, 4780
2158, 1450, 1593, 882
2159, 5406, 5404, 5137
2160, 4778, 4789, 4771
2161, 4295, 4292, 140
2162, 716, 717, 1617
2163, 1373, 1317, 1650
2164, 1994, 1706, 1857
2165, 5409, 5406, 5141
2166, 1395, 1359, 1869
2167, 767, 768, 6204
2168, 1554, 1514, 1555
2169, 1917, 1584, 1480
2170, 5401, 6176, 5402
2171, 1560, 1518, 1561
2172, 6185, 6180, 6181
2173, 724, 1629, 723
2174, 5411, 5415, 5417
2175, 1643, 1334, 1434
2176, 6184, 6174, 6169
2177, 6182, 6190, 6194
2178, 1438, 1720, 1631
2179, 768, 5422, 5424
2180, 1649, 1336, 1436
2181, 6195, 6182, 6194
2182, 5410, 5412, 5414
2183, 6202, 6203, 6200
2184, 1383, 1495, 1881
2185, 7005, 7006, 7004
2186, 1732, 488, 1561
2187, 1475, 1862, 1537
2188, 6188, 6199, 6201
2189, 3011, 3004, 3013
2190, 6789, 6664, 6793
2191, 1633, 1653, 1440
2192, 6666, 6515, 6517
2193, 7029, 7032, 7027
2194, 1456, 1204, 1602
2195, 1196, 1673, 1195
2196, 6998, 7010, 6994
2197, 6993, 6995, 6788
2198, 7029, 7038, 7055
2199, 1464, 714, 1465
2200, 6193, 6520, 6196
2201, 1787, 1448, 1668
2202, 1657, 1034, 1660
2203, 1454, 1526, 1788
2204, 7002, 7003, 6995
2205, 7021, 7027, 760
2206, 7017, 6994, 7016
2207, 1662, 1053, 1054
2208, 8074, 8054, 8076
2209, 7051, 7043, 7040
2210, 1360, 1677, 1198
2211, 1800, 2255, 1803
2212, 7038, 7029, 7024
2213, 1846, 1850, 1701
2214, 8066, 8065, 8073
2215, 8038, 8044, 119
2216, 1824, 1828, 1695
2217, 7127, 7048, 7015
2218, 1218, 1684, 1683
2219, 8045, 8044, 8039
2220, 2033, 1989, 1940
2221, 117, 8018, 118
2222, 1392, 1648, 1649
2223, 8004, 8001, 8013
2224, 1430, 1410, 166
2225, 315, 1426, 1338
2226, 8023, 8022, 8013
2227, 1432, 1412, 7
2228, 8001, 8007, 8003
2229, 1541, 1635, 1719
2230, 8016, 8022, 8020
2231, 8004, 8013, 8021
2232, 1548, 1637, 1725
2233, 1687, 1793, 1893
2234, 7977, 7988, 7979
2235, 7971, 7978, 7979
2236, 1950, 1882, 1518
2237, 114, 7992, 7994
2238, 2035, 2003, 1946
2239, 113, 7995, 7991
2240, 8027, 118, 8018
2241, 1441, 1442, 396
2242, 1447, 1665, 249
2243, 242, 1450, 243
2244, 1623, 1350, 393
2245, 386, 1741, 387
2246, 1744, 1743, 1742
2247, 5275, 5278, 5276
2248, 1502, 1504, 1330
2249, 5275, 5925, 5927
2250, 1392, 1432, 1648
2251, 1376, 1323, 1653
2252, 1659, 1351, 391
2253, 5936, 5939, 5932
2254, 5935, 5937, 5949
2255, 1665, 1664, 1448
2256, 5933, 5929, 5931
2257, 2487, 7837, 2482
2258, 5956, 5942, 5948
2259, 5953, 5955, 5961
2260, 5963, 5962, 5965
2261, 1668, 891, 892
2262, 235, 1452, 236
2263, 5962, 5964, 5971
2264, 1209, 1210, 1458
2265, 5947, 5951, 5938
2266, 5273, 668, 5276
2267, 5984, 38, 5965
2268, 1601, 1672, 1671
2269, 1674, 1677, 1676
2270, 1606, 1768, 1769
2271, 5987, 6606, 5986
2272, 5965, 6008, 5959
2273, 1689, 1914, 1917
2274, 675, 5976, 5989
2275, 1633, 1324, 1308
2276, 6004, 6006, 41
2277, 1821, 1822, 1694
2278, 1843, 1844, 1700
2279, 6757, 6756, 6762
2280, 6011, 6012, 6015
2281, 6007, 6011, 42
2282, 6626, 6623, 6481
2283, 1300, 2206, 1376
2284, 5958, 5950, 5954
2285, 1299, 2212, 1375
2286, 1444, 403, 402
2287, 7964, 7973, 7972
2288, 2278, 2211, 1997
2289, 1559, 1517, 1390
2290, 2270, 2205, 1983
2291, 1426, 1406, 1386
2292, 7959, 7961, 7963
2293, 1631, 1320, 1306
2294, 7945, 7963, 7965
2295, 1600, 1761, 869
2296, 7952, 7958, 7950
2297, 7951, 7954, 7928
2298, 7949, 7951, 7947
2299, 109, 7927, 7928
2300, 1763, 2250, 1890
2301, 7949, 7947, 7939
2302, 1772, 1773, 729
2303, 1390, 1642, 1643
2304, 7971, 7986, 7973
2305, 644, 1424, 1336
2306, 6627, 6625, 6630
2307, 6646, 6635, 6770
2308, 6625, 6633, 6632
2309, 6645, 6814, 6827
2310, 2282, 2214, 2004
2311, 6620, 6623, 6014
2312, 807, 1422, 1334
2313, 7921, 7924, 107
2314, 1370, 1939, 1398
2315, 1434, 1334, 1422
2316, 1576, 1394, 1866
2317, 2274, 2208, 1990
2318, 7921, 107, 7913
2319, 1372, 1945, 1400
2320, 108, 7924, 7926
2321, 6635, 6646, 46
2322, 156, 1428, 1340
2323, 6627, 6626, 6481
2324, 106, 7906, 7905
2325, 1390, 1430, 1642
2326, 1481, 1868, 1545
2327, 6822, 6836, 47
2328, 1110, 1737, 1962
2329, 1747, 1750, 411
2330, 1655, 1745, 1030
2331, 7173, 7263, 7262
2332, 6830, 6832, 6821
2333, 1726, 1725, 1637
2334, 48, 6826, 6836
2335, 1565, 1521, 1392
2336, 6831, 7174, 6834
2337, 8152, 7266, 7263
2338, 7173, 7262, 7260
2339, 1422, 1402, 1382
2340, 1424, 1404, 1384
2341, 8147, 8159, 8148
2342, 1428, 1408, 1388
2343, 7170, 7172, 7123
2344, 6644, 6631, 6643
2345, 8146, 8144, 8148
2346, 1758, 1761, 1598
2347, 1610, 1773, 1608
2348, 1890, 1960, 1767
2349, 1541, 1779, 1635
2350, 691, 8901, 8902
2351, 2240, 254, 2244
2352, 8124, 8123, 8150
2353, 1436, 1336, 1424
2354, 690, 8141, 8143
2355, 1336, 1647, 1785
2356, 1894, 1893, 1892
2357, 8126, 8901, 8903
2358, 8111, 8113, 8112
2359, 8137, 8119, 8139
2360, 8093, 8105, 8102
2361, 1911, 1540, 310
2362, 8160, 8161, 8154
2363, 1720, 1719, 1635
2364, 1580, 1396, 1872
2365, 1438, 1386, 1719
2366, 693, 8106, 8108
2367, 8100, 8090, 8098
2368, 8094, 8093, 8088
2369, 1801, 3290, 1913
2370, 8084, 8087, 8089
2371, 694, 8100, 8099
2372, 1712, 1860, 1420
2373, 1510, 1332, 1348
2374, 695, 3632, 8090
2375, 697, 3628, 3629
2376, 3631, 3632, 696
2377, 2871, 2882, 2870
2378, 723, 1368, 722
2379, 3631, 696, 3629
2380, 1547, 1483, 1546
2381, 1809, 1807, 1931
2382, 1653, 1340, 1440
2383, 698, 2880, 2877
2384, 2878, 2880, 2873
2385, 2476, 699, 700
2386, 1827, 1492, 1828
2387, 1841, 1842, 1839
2388, 2873, 2872, 2875
2389, 1696, 1821, 1694
2390, 2474, 2476, 700
2391, 234, 233, 1625
2392, 2469, 65, 2471
2393, 2468, 2467, 703
2394, 1851, 1845, 2030
2395, 14, 1851, 1848
2396, 2119, 2469, 2473
2397, 2473, 2469, 2471
2398, 1661, 1523, 1052
2399, 1697, 1842, 1841
2400, 1198, 1199, 1360
2401, 1811, 976, 1966
2402, 1392, 1521, 1412
2403, 1942, 1859, 1418
2404, 1440, 1388, 1725
2405, 1358, 1779, 1541
2406, 2464, 2463, 2119
2407, 1785, 1316, 642
2408, 7917, 106, 7905
2409, 7899, 7911, 7897
2410, 1651, 1338, 1438
2411, 1502, 1330, 1346
2412, 7906, 105, 7903
2413, 7900, 7903, 105
2414, 7881, 7882, 7883
2415, 1907, 1908, 1688
2416, 7898, 7896, 7897
2417, 1690, 1809, 1805
2418, 7882, 7881, 7872
2419, 7888, 7863, 7879
2420, 2255, 1800, 626
2421, 7885, 104, 103
2422, 2252, 466, 2677
2423, 7890, 7871, 7872
2424, 2015, 2016, 1969
2425, 7870, 7877, 7868
2426, 7873, 7867, 101
2427, 887, 1354, 886
2428, 2198, 1635, 2197
2429, 7862, 7858, 7860
2430, 7864, 7860, 7861
2431, 1215, 1678, 1789
2432, 98, 7849, 7876
2433, 1878, 1827, 1729
2434, 7856, 7874, 7850
2435, 2136, 1330, 1708
2436, 2154, 1332, 1714
2437, 2189, 2120, 2184
2438, 2190, 2189, 2186
2439, 7849, 98, 2190
2440, 2179, 2176, 2177
2441, 709, 710, 1366
2442, 1822, 1821, 812
2443, 1706, 1856, 1416
2444, 2197, 1779, 1394
2445, 1494, 1841, 1839
2446, 2185, 2187, 2189
2447, 1559, 1949, 1517
2448, 1631, 1306, 1374
2449, 2173, 2175, 1607
2450, 2180, 2183, 2184
2451, 2177, 96, 2179
2452, 2173, 730, 731
2453, 2030, 1845, 1701
2454, 731, 2182, 2174
2455, 729, 730, 1772
2456, 2173, 1607, 1772
2457, 1548, 1871, 1364
2458, 1541, 1865, 1358
2459, 728, 729, 1773
2460, 7828, 2698, 7827
2461, 1770, 1771, 1607
2462, 1734, 1845, 12
2463, 728, 1773, 1610
2464, 2123, 165, 164
2465, 1410, 167, 166
2466, 1479, 1386, 1406
2467, 87, 1368, 1629
2468, 1568, 1736, 1528
2469, 2537, 2207, 796
2470, 1365, 1736, 89
2471, 1885, 1883, 1520
2472, 90, 1568, 91
2473, 88, 1365, 89
2474, 725, 726, 1528
2475, 1901, 469, 468
2476, 1895, 1892, 3279
2477, 1629, 724, 1365
2478, 1191, 1192, 1889
2479, 87, 1629, 88
2480, 92, 1609, 1608
2481, 1633, 1308, 1376
2482, 1879, 1877, 1516
2483, 1390, 1517, 1410
2484, 1974, 1140, 1934
2485, 1314, 1641, 1415
2486, 66, 2469, 2463
2487, 2613, 2213, 1285
2488, 69, 68, 1774
2489, 70, 1775, 1612
2490, 1565, 1951, 1521
2491, 2193, 1611, 1774
2492, 2125, 6, 5
2493, 1482, 1387, 1407
2494, 71, 1461, 72
2495, 806, 807, 1334
2496, 73, 1366, 74
2497, 317, 1620, 318
2498, 1379, 1711, 1710
2499, 1529, 1569, 1461
2500, 1484, 1388, 1408
2501, 70, 1613, 71
2502, 958, 959, 1298
2503, 705, 706, 1777
2504, 1478, 1718, 1865
2505, 708, 709, 1529
2506, 1825, 1877, 1729
2507, 1847, 1883, 1733
2508, 1614, 1461, 1613
2509, 1483, 1724, 1871
2510, 1529, 1461, 1686
2511, 75, 1367, 76
2512, 1367, 711, 712
2513, 1628, 74, 1366
2514, 1628, 711, 1367
2515, 1575, 1895, 1737
2516, 1900, 1901, 1792
2517, 1628, 710, 711
2518, 1583, 1907, 1577
2519, 1765, 1889, 1192
2520, 1775, 1776, 1612
2521, 704, 1776, 2194
2522, 713, 1464, 1367
2523, 85, 1462, 86
2524, 7296, 7252, 7249
2525, 800, 801, 1294
2526, 163, 162, 1326
2527, 719, 1615, 718
2528, 1615, 1463, 83
2529, 2130, 2127, 1377
2530, 1463, 1462, 84
2531, 723, 1629, 1368
2532, 87, 86, 1368
2533, 722, 1368, 721
2534, 721, 1368, 1462
2535, 1921, 628, 627
2536, 1920, 1802, 1918
2537, 1463, 720, 1462
2538, 1911, 310, 309
2539, 1616, 1615, 82
2540, 1319, 1620, 1338
2541, 79, 78, 1465
2542, 2272, 2271, 2698
2543, 76, 1464, 77
2544, 76, 1367, 1464
2545, 1927, 1924, 1581
2546, 1464, 78, 77
2547, 804, 805, 1314
2548, 715, 1465, 714
2549, 1616, 718, 1615
2550, 7829, 1467, 160
2551, 81, 80, 1617
2552, 81, 1617, 1616
2553, 1618, 1617, 80
2554, 79, 1618, 80
2555, 1806, 1923, 1808
2556, 1926, 1965, 1925
2557, 1465, 1618, 79
2558, 1806, 2257, 2258
2559, 1922, 1925, 1924
2560, 2208, 1323, 1376
2561, 7287, 7231, 7228
2562, 1920, 1921, 1802
2563, 1910, 1911, 1797
2564, 1316, 1647, 1419
2565, 1039, 1350, 1038
2566, 2692, 2260, 2691
2567, 1690, 1923, 1924
2568, 2235, 2237, 895
2569, 1839, 1835, 1836
2570, 1921, 1920, 1544
2571, 1925, 1922, 3294
2572, 1295, 1347, 1126
2573, 1930, 1807, 1928
2574, 1480, 1919, 1918
2575, 1936, 1414, 1501
2576, 1369, 1855, 1936
2577, 1984, 1937, 1703
2578, 2697, 1986, 2268
2579, 1988, 1987, 1855
2580, 7825, 1984, 1938
2581, 1939, 1416, 1505
2582, 1370, 1857, 1939
2583, 1991, 1940, 1706
2584, 2698, 1993, 2272
2585, 1995, 1994, 1857
2586, 7828, 1991, 1941
2587, 1942, 1418, 1509
2588, 1371, 1859, 1942
2589, 1998, 1943, 1709
2590, 2699, 2000, 2276
2591, 2002, 2001, 1859
2592, 7831, 1998, 1944
2593, 1945, 1420, 1513
2594, 1372, 1861, 1945
2595, 2005, 1946, 1712
2596, 2700, 2007, 2280
2597, 2009, 2008, 1861
2598, 7834, 2005, 1947
2599, 1515, 1948, 1514
2600, 1433, 1948, 1556
2601, 1517, 1949, 1516
2602, 1434, 1949, 1559
2603, 1519, 1950, 1518
2604, 1435, 1950, 1562
2605, 1521, 1951, 1520
2606, 1436, 1951, 1565
2607, 385, 384, 1952
2608, 2264, 2263, 384
2609, 1955, 1954, 1746
2610, 2036, 1953, 1888
2611, 1953, 1954, 1888
2612, 1887, 1952, 2263
2613, 1954, 1955, 1888
2614, 2264, 1956, 2263
2615, 2010, 2037, 2056
2616, 544, 543, 1957
2617, 2266, 2265, 543
2618, 1960, 1959, 1767
2619, 2040, 1958, 1891
2620, 1958, 1959, 1891
2621, 1890, 1957, 2265
2622, 1959, 1960, 1891
2623, 2266, 1961, 2265
2624, 2011, 2041, 2057
2625, 1895, 1962, 1737
2626, 1962, 1896, 2690
2627, 1905, 1963, 1738
2628, 1963, 1906, 2692
2629, 1915, 1964, 1739
2630, 1964, 1916, 2694
2631, 1925, 1965, 1740
2632, 1965, 1926, 2696
2633, 977, 1966, 976
2634, 1968, 1966, 1932
2635, 979, 2376, 2082
2636, 2060, 2074, 333
2637, 1967, 2046, 2014
2638, 2014, 2058, 1968
2639, 2015, 1969, 1815
2640, 1820, 1968, 1969
2641, 814, 1970, 813
2642, 1972, 1970, 1933
2643, 816, 2386, 2091
2644, 2064, 2083, 174
2645, 1971, 2049, 2019
2646, 2019, 2062, 1972
2647, 2020, 1973, 1826
2648, 1831, 1972, 1973
2649, 1140, 1974, 1139
2650, 1976, 1974, 1934
2651, 1142, 2396, 2100
2652, 2068, 2092, 492
2653, 1975, 2052, 2024
2654, 2024, 2066, 1976
2655, 2025, 1977, 1837
2656, 1842, 1976, 1977
2657, 651, 1978, 650
2658, 1980, 1978, 1935
2659, 653, 2406, 2109
2660, 2072, 2101, 15
2661, 1979, 2055, 2029
2662, 2029, 2070, 1980
2663, 2030, 1981, 1848
2664, 1853, 1980, 1981
2665, 1705, 1982, 1704
2666, 1703, 1982, 1500
2667, 1982, 2032, 1704
2668, 1984, 7825, 7824
2669, 1987, 1984, 1703
2670, 1938, 1988, 7826
2671, 7825, 1985, 1499
2672, 2269, 2268, 1986
2673, 1319, 2270, 2269
2674, 2268, 1983, 2267
2675, 1988, 1855, 1309
2676, 1309, 7826, 1988
2677, 1309, 1466, 7826
2678, 1988, 1938, 1987
2679, 1708, 1989, 1707
2680, 1706, 1989, 1504
2681, 1989, 2033, 1707
2682, 1991, 7828, 7827
2683, 1994, 1991, 1706
2684, 1941, 1995, 7829
2685, 7828, 1992, 1503
2686, 2273, 2272, 1993
2687, 1323, 2274, 2273
2688, 2272, 1990, 2271
2689, 1995, 1857, 1310
2690, 1310, 7829, 1995
2691, 1310, 1467, 7829
2692, 1995, 1941, 1994
2693, 1711, 1996, 1710
2694, 1709, 1996, 1508
2695, 1996, 2034, 1710
2696, 1998, 7831, 7830
2697, 2001, 1998, 1709
2698, 1944, 2002, 7832
2699, 7831, 1999, 1507
2700, 2277, 2276, 2000
2701, 1317, 2278, 2277
2702, 2276, 1997, 2275
2703, 2002, 1859, 1311
2704, 1311, 7832, 2002
2705, 1311, 1468, 7832
2706, 2002, 1944, 2001
2707, 1714, 2003, 1713
2708, 1712, 2003, 1512
2709, 2003, 2035, 1713
2710, 2005, 7834, 7833
2711, 2008, 2005, 1712
2712, 1947, 2009, 7835
2713, 7834, 2006, 1511
2714, 2281, 2280, 2007
2715, 1321, 2282, 2281
2716, 2280, 2004, 2279
2717, 2009, 1861, 1312
2718, 1312, 7835, 2009
2719, 1312, 1469, 7835
2720, 2009, 1947, 2008
2721, 2038, 2056, 2264
2722, 2039, 2010, 2285
2723, 2042, 2057, 2266
2724, 2043, 2011, 2313
2725, 978, 2012, 977
2726, 2014, 2012, 1967
2727, 2046, 2013, 2014
2728, 1815, 2045, 2060
2729, 2014, 1932, 2012
2730, 2013, 2044, 2058
2731, 1818, 2015, 1815
2732, 2016, 2015, 1692
2733, 1817, 2016, 1692
2734, 1820, 1969, 2016
2735, 815, 2017, 814
2736, 2019, 2017, 1971
2737, 2049, 2018, 2019
2738, 1826, 2048, 2064
2739, 2019, 1933, 2017
2740, 2018, 2047, 2062
2741, 1829, 2020, 1826
2742, 2021, 2020, 1695
2743, 1828, 2021, 1695
2744, 1831, 1973, 2021
2745, 1141, 2022, 1140
2746, 2024, 2022, 1975
2747, 2052, 2023, 2024
2748, 1837, 2051, 2068
2749, 2024, 1934, 2022
2750, 2023, 2050, 2066
2751, 1840, 2025, 1837
2752, 2026, 2025, 1698
2753, 1839, 2026, 1698
2754, 1842, 1977, 2026
2755, 652, 2027, 651
2756, 2029, 2027, 1979
2757, 2055, 2028, 2029
2758, 1848, 2054, 2072
2759, 2029, 1935, 2027
2760, 2028, 2053, 2070
2761, 1851, 2030, 1848
2762, 2031, 2030, 1701
2763, 1850, 2031, 1701
2764, 1853, 1981, 2031
2765, 2267, 2032, 1937
2766, 2032, 1983, 2205
2767, 2271, 2033, 1940
2768, 2033, 1990, 2208
2769, 2275, 2034, 1943
2770, 2034, 1997, 2211
2771, 2279, 2035, 1946
2772, 2035, 2004, 2214
2773, 2037, 2036, 1888
2774, 2039, 2036, 2010
2775, 1955, 2037, 1888
2776, 2056, 2037, 1956
2777, 383, 2283, 2038
2778, 2283, 2284, 2286
2779, 1026, 1027, 2039
2780, 2036, 2039, 1027
2781, 2041, 2040, 1891
2782, 2043, 2040, 2011
2783, 1960, 2041, 1891
2784, 2057, 2041, 1961
2785, 542, 2311, 2042
2786, 2311, 2312, 2314
2787, 1189, 1190, 2043
2788, 2040, 2043, 1190
2789, 1969, 1968, 2058
2790, 2045, 2044, 2013
2791, 2045, 2013, 2075
2792, 2045, 2074, 2060
2793, 1967, 2082, 2081
2794, 2341, 2344, 335
2795, 1973, 1972, 2062
2796, 2048, 2047, 2018
2797, 2048, 2018, 2084
2798, 2048, 2083, 2064
2799, 1971, 2091, 2090
2800, 2350, 2353, 176
2801, 1977, 1976, 2066
2802, 2051, 2050, 2023
2803, 2051, 2023, 2093
2804, 2051, 2092, 2068
2805, 1975, 2100, 2099
2806, 2359, 2362, 494
2807, 1981, 1980, 2070
2808, 2054, 2053, 2028
2809, 2054, 2028, 2102
2810, 2054, 2101, 2072
2811, 1979, 2109, 2108
2812, 2368, 2371, 17
2813, 2264, 2056, 1956
2814, 2285, 2056, 2038
2815, 2266, 2057, 1961
2816, 2313, 2057, 2042
2817, 2013, 2058, 2014
2818, 1969, 2058, 2044
2819, 2046, 2076, 2013
2820, 1967, 2081, 2046
2821, 333, 332, 2060
2822, 1815, 2060, 332
2823, 2375, 2079, 2080
2824, 2076, 2059, 2075
2825, 2018, 2062, 2019
2826, 1973, 2062, 2047
2827, 2049, 2085, 2018
2828, 1971, 2090, 2049
2829, 174, 173, 2064
2830, 1826, 2064, 173
2831, 2385, 2088, 2089
2832, 2085, 2063, 2084
2833, 2023, 2066, 2024
2834, 1977, 2066, 2050
2835, 2052, 2094, 2023
2836, 1975, 2099, 2052
2837, 492, 491, 2068
2838, 1837, 2068, 491
2839, 2395, 2097, 2098
2840, 2094, 2067, 2093
2841, 2028, 2070, 2029
2842, 1981, 2070, 2053
2843, 2055, 2103, 2028
2844, 1979, 2108, 2055
2845, 15, 14, 2072
2846, 1848, 2072, 14
2847, 2405, 2106, 2107
2848, 2103, 2071, 2102
2849, 2075, 2074, 2045
2850, 2074, 2059, 2342
2851, 2076, 2075, 2013
2852, 2074, 2075, 2059
2853, 2077, 2046, 2081
2854, 2076, 2046, 2077
2855, 2077, 2061, 2080
2856, 2059, 2340, 2339
2857, 2079, 2375, 2378
2858, 2384, 2383, 2378
2859, 2061, 2376, 2375
2860, 2345, 2344, 2339
2861, 2375, 2080, 2061
2862, 2340, 2080, 2079
2863, 2082, 1967, 978
2864, 2077, 2081, 2061
2865, 979, 2082, 978
2866, 2061, 2081, 2082
2867, 2084, 2083, 2048
2868, 2083, 2063, 2351
2869, 2085, 2084, 2018
2870, 2083, 2084, 2063
2871, 2086, 2049, 2090
2872, 2085, 2049, 2086
2873, 2086, 2065, 2089
2874, 2063, 2349, 2348
2875, 2088, 2385, 2388
2876, 2394, 2393, 2388
2877, 2065, 2386, 2385
2878, 2354, 2353, 2348
2879, 2385, 2089, 2065
2880, 2349, 2089, 2088
2881, 2091, 1971, 815
2882, 2086, 2090, 2065
2883, 816, 2091, 815
2884, 2065, 2090, 2091
2885, 2093, 2092, 2051
2886, 2092, 2067, 2360
2887, 2094, 2093, 2023
2888, 2092, 2093, 2067
2889, 2095, 2052, 2099
2890, 2094, 2052, 2095
2891, 2095, 2069, 2098
2892, 2067, 2358, 2357
2893, 2097, 2395, 2398
2894, 2404, 2403, 2398
2895, 2069, 2396, 2395
2896, 2363, 2362, 2357
2897, 2395, 2098, 2069
2898, 2358, 2098, 2097
2899, 2100, 1975, 1141
2900, 2095, 2099, 2069
2901, 1142, 2100, 1141
2902, 2069, 2099, 2100
2903, 2102, 2101, 2054
2904, 2101, 2071, 2369
2905, 2103, 2102, 2028
2906, 2101, 2102, 2071
2907, 2104, 2055, 2108
2908, 2103, 2055, 2104
2909, 2104, 2073, 2107
2910, 2071, 2367, 2366
2911, 2106, 2405, 2408
2912, 2414, 2413, 2408
2913, 2073, 2406, 2405
2914, 2372, 2371, 2366
2915, 2405, 2107, 2073
2916, 2367, 2107, 2106
2917, 2109, 1979, 652
2918, 2104, 2108, 2073
2919, 653, 2109, 652
2920, 2073, 2108, 2109
2921, 2227, 2224, 2110
2922, 2225, 2222, 2223
2923, 2806, 2689, 2259
2924, 2809, 3278, 2111
2925, 2248, 2243, 2112
2926, 254, 2240, 2242
2927, 2426, 2421, 224
2928, 2426, 2429, 2435
2929, 2421, 2420, 225
2930, 866, 2164, 865
2931, 2844, 3283, 2115
2932, 2840, 2444, 3477
2933, 2851, 3288, 2116
2934, 2847, 2445, 3499
2935, 571, 1768, 2169
2936, 2447, 2448, 1222
2937, 2865, 3293, 2118
2938, 2861, 2462, 3604
2939, 65, 2469, 66
2940, 702, 2466, 701
2941, 2184, 733, 2185
2942, 96, 2177, 2181
2943, 2121, 2180, 2177
2944, 95, 94, 2178
2945, 322, 2122, 323
2946, 1550, 2122, 1325
2947, 163, 2123, 164
2948, 1551, 2123, 1326
2949, 481, 2124, 482
2950, 1552, 2124, 1327
2951, 4, 2125, 5
2952, 1553, 2125, 1328
2953, 2929, 2922, 2931
2954, 4310, 3648, 3932
2955, 1377, 2127, 1705
2956, 2890, 2894, 2514
2957, 2508, 2491, 2505
2958, 2483, 2492, 2130
2959, 4307, 4305, 4306
2960, 2480, 2483, 2482
2961, 2480, 7836, 2132
2962, 7836, 2480, 7837
2963, 2132, 1345, 1329
2964, 7836, 1345, 2132
2965, 1378, 2136, 1708
2966, 4319, 3666, 3945
2967, 2972, 2976, 2552
2968, 2546, 2529, 2543
2969, 2521, 2530, 2139
2970, 4316, 4314, 4315
2971, 2518, 2521, 2520
2972, 2518, 7839, 2141
2973, 7839, 2518, 7840
2974, 2141, 1346, 1330
2975, 7839, 1346, 2141
2976, 1379, 2145, 1711
2977, 4328, 3684, 3958
2978, 3054, 3058, 2590
2979, 2584, 2567, 2581
2980, 2559, 2568, 2148
2981, 4325, 4323, 4324
2982, 2556, 2559, 2558
2983, 2556, 7842, 2150
2984, 7842, 2556, 7843
2985, 2150, 1347, 1331
2986, 7842, 1347, 2150
2987, 1380, 2154, 1714
2988, 4337, 3702, 3971
2989, 3136, 3140, 2628
2990, 2622, 2605, 2619
2991, 2597, 2606, 2157
2992, 4334, 4332, 4333
2993, 2594, 2597, 2596
2994, 2594, 7845, 2159
2995, 7845, 2594, 7846
2996, 2159, 1348, 1332
2997, 7845, 1348, 2159
2998, 2165, 2163, 227
2999, 2164, 2162, 2163
3000, 2164, 2163, 2114
3001, 2164, 2114, 2418
3002, 866, 2162, 2164
3003, 227, 226, 2165
3004, 2165, 226, 2420
3005, 1220, 2168, 2166
3006, 572, 571, 2172
3007, 1219, 2166, 2167
3008, 1606, 2167, 2166
3009, 2170, 2168, 1220
3010, 572, 2172, 2171
3011, 2166, 2168, 2169
3012, 2171, 2168, 2117
3013, 1220, 1221, 2170
3014, 2170, 1221, 2447
3015, 2171, 2117, 2446
3016, 2169, 2168, 2171
3017, 571, 2169, 2172
3018, 2171, 2172, 2169
3019, 731, 2174, 2173
3020, 2175, 94, 1770
3021, 2182, 731, 732
3022, 2175, 2174, 2121
3023, 2174, 2175, 2173
3024, 2176, 2175, 2121
3025, 2176, 2121, 2177
3026, 2178, 2176, 95
3027, 2174, 2182, 2121
3028, 2177, 2191, 2181
3029, 94, 2175, 2178
3030, 2176, 2178, 2175
3031, 96, 95, 2179
3032, 2176, 2179, 95
3033, 2180, 2182, 2183
3034, 2191, 2180, 2184
3035, 2192, 2120, 2189
3036, 97, 96, 2181
3037, 2183, 2182, 732
3038, 2121, 2182, 2180
3039, 732, 733, 2183
3040, 2184, 2183, 733
3041, 2185, 733, 734
3042, 2184, 2120, 2191
3043, 2185, 734, 2187
3044, 2184, 2185, 2189
3045, 2187, 2188, 7852
3046, 7853, 7854, 7856
3047, 2188, 2187, 734
3048, 2187, 2186, 2189
3049, 734, 735, 2188
3050, 7850, 7852, 735
3051, 7849, 2186, 7851
3052, 2181, 2192, 97
3053, 98, 97, 2190
3054, 2192, 2190, 97
3055, 2181, 2191, 2120
3056, 2177, 2180, 2191
3057, 2120, 2192, 2181
3058, 2190, 2192, 2189
3059, 2463, 67, 66
3060, 704, 2194, 703
3061, 1611, 2193, 2194
3062, 2468, 2194, 2193
3063, 1115, 2195, 1393
3064, 1116, 1117, 2196
3065, 2196, 1318, 1717
3066, 1116, 2196, 2195
3067, 952, 2197, 1394
3068, 953, 954, 2198
3069, 2198, 1320, 1720
3070, 953, 2198, 2197
3071, 1278, 2199, 1395
3072, 1279, 1280, 2200
3073, 2200, 1322, 1723
3074, 1279, 2200, 2199
3075, 789, 2201, 1396
3076, 790, 791, 2202
3077, 2202, 1324, 1726
3078, 790, 2202, 2201
3079, 2204, 2203, 1298
3080, 1704, 2032, 2205
3081, 959, 2204, 1298
3082, 1704, 2204, 1377
3083, 1374, 2203, 2205
3084, 2205, 2203, 1704
3085, 2207, 2206, 1300
3086, 1707, 2033, 2208
3087, 796, 2207, 1300
3088, 1707, 2207, 1378
3089, 1376, 2206, 2208
3090, 2208, 2206, 1707
3091, 2210, 2209, 1297
3092, 1710, 2034, 2211
3093, 1122, 2210, 1297
3094, 1710, 2210, 1379
3095, 1373, 2209, 2211
3096, 2211, 2209, 1710
3097, 2213, 2212, 1299
3098, 1713, 2035, 2214
3099, 1285, 2213, 1299
3100, 1713, 2213, 1380
3101, 1375, 2212, 2214
3102, 2214, 2212, 1713
3103, 1887, 2215, 385
3104, 1743, 2215, 1742
3105, 2217, 2216, 1057
3106, 1752, 2216, 1751
3107, 1058, 2219, 2217
3108, 2225, 413, 2221
3109, 2230, 2229, 1059
3110, 2217, 1057, 2218
3111, 2222, 2219, 2110
3112, 1751, 2217, 2221
3113, 2219, 1058, 2220
3114, 2222, 2221, 2217
3115, 2219, 2222, 2217
3116, 2223, 2222, 2110
3117, 2223, 2110, 2224
3118, 2225, 414, 413
3119, 2110, 2229, 2227
3120, 2227, 2232, 2224
3121, 2222, 2225, 2221
3122, 414, 2225, 2223
3123, 415, 414, 2226
3124, 2223, 2226, 414
3125, 2230, 2227, 2229
3126, 416, 415, 2231
3127, 2234, 2232, 2227
3128, 2228, 2232, 2233
3129, 2219, 2229, 2110
3130, 1059, 2229, 2220
3131, 1059, 1060, 2230
3132, 2632, 2234, 1060
3133, 2232, 2231, 2224
3134, 416, 2231, 2228
3135, 2227, 2230, 2234
3136, 2231, 2232, 2228
3137, 2632, 2233, 2234
3138, 3216, 2633, 3217
3139, 1060, 2234, 2230
3140, 2232, 2234, 2233
3141, 895, 2238, 2235
3142, 254, 253, 2244
3143, 1757, 2236, 1755
3144, 2237, 2236, 894
3145, 2239, 896, 2634
3146, 2236, 2237, 2235
3147, 2241, 2238, 2112
3148, 2241, 2235, 2238
3149, 2238, 895, 2239
3150, 2241, 2242, 2240
3151, 2242, 2241, 2112
3152, 2235, 2241, 2240
3153, 2242, 2112, 2243
3154, 2242, 255, 254
3155, 2248, 2634, 2246
3156, 2246, 2637, 2248
3157, 2244, 253, 1754
3158, 1755, 2240, 2244
3159, 2635, 2246, 2634
3160, 2243, 256, 2245
3161, 2636, 2247, 2637
3162, 2246, 2635, 2636
3163, 2638, 2640, 2636
3164, 2634, 2248, 2112
3165, 2249, 2243, 2637
3166, 2637, 2243, 2248
3167, 257, 2249, 2247
3168, 1890, 2250, 544
3169, 1764, 2250, 1763
3170, 2252, 2251, 466
3171, 1793, 2251, 1791
3172, 3276, 464, 2678
3173, 2808, 1896, 3279
3174, 2254, 2253, 307
3175, 1798, 2253, 1796
3176, 3281, 305, 2681
3177, 2843, 1906, 3284
3178, 2256, 2255, 625
3179, 1803, 2255, 1801
3180, 3286, 623, 2684
3181, 2850, 1916, 3289
3182, 2258, 2257, 148
3183, 1808, 2257, 1806
3184, 3291, 146, 2687
3185, 2864, 1926, 3294
3186, 3279, 2679, 2808
3187, 2807, 2415, 2806
3188, 3284, 2682, 2843
3189, 2842, 2444, 2841
3190, 3289, 2685, 2850
3191, 2849, 2445, 2848
3192, 3294, 2688, 2864
3193, 2863, 2462, 2862
3194, 1887, 2263, 1955
3195, 384, 2263, 1952
3196, 384, 383, 2264
3197, 2038, 2264, 383
3198, 1890, 2265, 1960
3199, 543, 2265, 1957
3200, 543, 542, 2266
3201, 2042, 2266, 542
3202, 2032, 2267, 1983
3203, 1937, 1984, 7824
3204, 2270, 2268, 2269
3205, 1986, 318, 2269
3206, 2269, 318, 1620
3207, 2205, 2270, 1319
3208, 1983, 2268, 2270
3209, 2033, 2271, 1990
3210, 1940, 1991, 7827
3211, 2274, 2272, 2273
3212, 1993, 159, 2273
3213, 2273, 159, 1622
3214, 2208, 2274, 1323
3215, 1990, 2272, 2274
3216, 2034, 2275, 1997
3217, 1943, 1998, 7830
3218, 2278, 2276, 2277
3219, 2000, 477, 2277
3220, 2277, 477, 1619
3221, 2211, 2278, 1317
3222, 1997, 2276, 2278
3223, 2035, 2279, 2004
3224, 1946, 2005, 7833
3225, 2282, 2280, 2281
3226, 2007, 636, 2281
3227, 2281, 636, 1621
3228, 2214, 2282, 1321
3229, 2004, 2280, 2282
3230, 383, 382, 2283
3231, 2284, 2283, 382
3232, 2701, 2289, 2298
3233, 2287, 1025, 1026
3234, 2038, 2286, 2285
3235, 2287, 2285, 2288
3236, 2283, 2286, 2038
3237, 2286, 2284, 2288
3238, 1026, 2285, 2287
3239, 2285, 2286, 2288
3240, 382, 2701, 2284
3241, 1024, 1025, 2290
3242, 2296, 2299, 2301
3243, 1024, 2292, 2293
3244, 1025, 2288, 2290
3245, 2291, 2300, 2299
3246, 2301, 2299, 2289
3247, 2305, 380, 2302
3248, 2300, 2290, 2288
3249, 2293, 2292, 2291
3250, 2295, 2296, 2305
3251, 1024, 2293, 1023
3252, 2306, 2303, 379
3253, 2295, 2297, 2293
3254, 2296, 2295, 2291
3255, 2295, 2294, 2297
3256, 2299, 2296, 2291
3257, 2307, 2304, 2306
3258, 2309, 2310, 2303
3259, 2308, 1023, 2297
3260, 2701, 2298, 2284
3261, 2300, 2298, 2289
3262, 2300, 2291, 2292
3263, 2301, 2289, 381
3264, 2290, 2300, 2292
3265, 2298, 2300, 2288
3266, 381, 380, 2301
3267, 380, 2296, 2301
3268, 2302, 379, 2303
3269, 2303, 2305, 2302
3270, 2305, 2303, 2294
3271, 2702, 3296, 3297
3272, 2310, 2297, 2294
3273, 2295, 2305, 2294
3274, 2305, 2296, 380
3275, 2304, 2307, 378
3276, 2306, 2304, 2309
3277, 3298, 2304, 3296
3278, 2306, 379, 2307
3279, 2703, 2308, 2297
3280, 2308, 2703, 1022
3281, 2303, 2310, 2294
3282, 2703, 2310, 2309
3283, 542, 541, 2311
3284, 2312, 2311, 541
3285, 2705, 2317, 2326
3286, 2315, 1188, 1189
3287, 2042, 2314, 2313
3288, 2315, 2313, 2316
3289, 2311, 2314, 2042
3290, 2314, 2312, 2316
3291, 1189, 2313, 2315
3292, 2313, 2314, 2316
3293, 541, 2705, 2312
3294, 1187, 1188, 2318
3295, 2324, 2327, 2329
3296, 1187, 2320, 2321
3297, 1188, 2316, 2318
3298, 2319, 2328, 2327
3299, 2329, 2327, 2317
3300, 2333, 539, 2330
3301, 2328, 2318, 2316
3302, 2321, 2320, 2319
3303, 2323, 2324, 2333
3304, 1187, 2321, 1186
3305, 2334, 2331, 538
3306, 2323, 2325, 2321
3307, 2324, 2323, 2319
3308, 2323, 2322, 2325
3309, 2327, 2324, 2319
3310, 2335, 2332, 2334
3311, 2337, 2338, 2331
3312, 2336, 1186, 2325
3313, 2705, 2326, 2312
3314, 2328, 2326, 2317
3315, 2328, 2319, 2320
3316, 2329, 2317, 540
3317, 2318, 2328, 2320
3318, 2326, 2328, 2316
3319, 540, 539, 2329
3320, 539, 2324, 2329
3321, 2330, 538, 2331
3322, 2331, 2333, 2330
3323, 2333, 2331, 2322
3324, 2706, 3351, 3352
3325, 2338, 2325, 2322
3326, 2323, 2333, 2322
3327, 2333, 2324, 539
3328, 2332, 2335, 537
3329, 2334, 2332, 2337
3330, 3353, 2332, 3351
3331, 2334, 538, 2335
3332, 2707, 2336, 2325
3333, 2336, 2707, 1185
3334, 2331, 2338, 2322
3335, 2707, 2338, 2337
3336, 2059, 2076, 2340
3337, 2343, 2344, 2345
3338, 2080, 2340, 2077
3339, 2730, 2731, 2078
3340, 2074, 2342, 334
3341, 2344, 2341, 2339
3342, 2059, 2339, 2342
3343, 2731, 2347, 2078
3344, 2344, 2346, 335
3345, 2345, 2339, 2340
3346, 2346, 2344, 2343
3347, 2340, 2079, 2345
3348, 2347, 2079, 2078
3349, 2343, 2731, 2710
3350, 335, 2346, 336
3351, 2343, 2345, 2347
3352, 2079, 2347, 2345
3353, 2063, 2085, 2349
3354, 2352, 2353, 2354
3355, 2089, 2349, 2086
3356, 2751, 2752, 2087
3357, 2083, 2351, 175
3358, 2353, 2350, 2348
3359, 2063, 2348, 2351
3360, 2752, 2356, 2087
3361, 2353, 2355, 176
3362, 2354, 2348, 2349
3363, 2355, 2353, 2352
3364, 2349, 2088, 2354
3365, 2356, 2088, 2087
3366, 2352, 2752, 2713
3367, 176, 2355, 177
3368, 2352, 2354, 2356
3369, 2088, 2356, 2354
3370, 2067, 2094, 2358
3371, 2361, 2362, 2363
3372, 2098, 2358, 2095
3373, 2772, 2773, 2096
3374, 2092, 2360, 493
3375, 2362, 2359, 2357
3376, 2067, 2357, 2360
3377, 2773, 2365, 2096
3378, 2362, 2364, 494
3379, 2363, 2357, 2358
3380, 2364, 2362, 2361
3381, 2358, 2097, 2363
3382, 2365, 2097, 2096
3383, 2361, 2773, 2716
3384, 494, 2364, 495
3385, 2361, 2363, 2365
3386, 2097, 2365, 2363
3387, 2071, 2103, 2367
3388, 2370, 2371, 2372
3389, 2107, 2367, 2104
3390, 2793, 2794, 2105
3391, 2101, 2369, 16
3392, 2371, 2368, 2366
3393, 2071, 2366, 2369
3394, 2794, 2374, 2105
3395, 2371, 2373, 17
3396, 2372, 2366, 2367
3397, 2373, 2371, 2370
3398, 2367, 2106, 2372
3399, 2374, 2106, 2105
3400, 2370, 2794, 2719
3401, 17, 2373, 18
3402, 2370, 2372, 2374
3403, 2106, 2374, 2372
3404, 2377, 2375, 2376
3405, 2079, 2378, 2078
3406, 2082, 2376, 2061
3407, 2377, 2376, 979
3408, 979, 980, 2377
3409, 2379, 2377, 980
3410, 2379, 2375, 2377
3411, 2378, 2375, 2379
3412, 981, 2380, 980
3413, 2380, 2379, 980
3414, 2732, 2722, 2721
3415, 2379, 2380, 2384
3416, 2722, 2732, 2381
3417, 2709, 2728, 2727
3418, 2721, 2380, 981
3419, 2382, 2722, 2723
3420, 2384, 2378, 2379
3421, 2723, 2383, 2382
3422, 2721, 2384, 2380
3423, 2383, 2384, 2382
3424, 2387, 2385, 2386
3425, 2088, 2388, 2087
3426, 2091, 2386, 2065
3427, 2387, 2386, 816
3428, 816, 817, 2387
3429, 2389, 2387, 817
3430, 2389, 2385, 2387
3431, 2388, 2385, 2389
3432, 818, 2390, 817
3433, 2390, 2389, 817
3434, 2753, 2743, 2742
3435, 2389, 2390, 2394
3436, 2743, 2753, 2391
3437, 2712, 2749, 2748
3438, 2742, 2390, 818
3439, 2392, 2743, 2744
3440, 2394, 2388, 2389
3441, 2744, 2393, 2392
3442, 2742, 2394, 2390
3443, 2393, 2394, 2392
3444, 2397, 2395, 2396
3445, 2097, 2398, 2096
3446, 2100, 2396, 2069
3447, 2397, 2396, 1142
3448, 1142, 1143, 2397
3449, 2399, 2397, 1143
3450, 2399, 2395, 2397
3451, 2398, 2395, 2399
3452, 1144, 2400, 1143
3453, 2400, 2399, 1143
3454, 2774, 2764, 2763
3455, 2399, 2400, 2404
3456, 2764, 2774, 2401
3457, 2715, 2770, 2769
3458, 2763, 2400, 1144
3459, 2402, 2764, 2765
3460, 2404, 2398, 2399
3461, 2765, 2403, 2402
3462, 2763, 2404, 2400
3463, 2403, 2404, 2402
3464, 2407, 2405, 2406
3465, 2106, 2408, 2105
3466, 2109, 2406, 2073
3467, 2407, 2406, 653
3468, 653, 654, 2407
3469, 2409, 2407, 654
3470, 2409, 2405, 2407
3471, 2408, 2405, 2409
3472, 655, 2410, 654
3473, 2410, 2409, 654
3474, 2795, 2785, 2784
3475, 2409, 2410, 2414
3476, 2785, 2795, 2411
3477, 2718, 2791, 2790
3478, 2784, 2410, 655
3479, 2412, 2785, 2786
3480, 2414, 2408, 2409
3481, 2786, 2413, 2412
3482, 2784, 2414, 2410
3483, 2413, 2414, 2412
3484, 2806, 1108, 2689
3485, 3439, 3438, 2415
3486, 2418, 2416, 865
3487, 2422, 2416, 2113
3488, 2164, 2418, 865
3489, 2416, 864, 2417
3490, 2419, 2418, 2114
3491, 2420, 2419, 2114
3492, 2421, 2419, 2420
3493, 2420, 2114, 2163
3494, 225, 2420, 226
3495, 224, 2421, 225
3496, 2113, 2419, 2421
3497, 2425, 2422, 2113
3498, 2424, 864, 2422
3499, 2425, 2113, 2426
3500, 2430, 2440, 2428
3501, 2113, 2421, 2426
3502, 2422, 2425, 2427
3503, 2425, 2423, 2427
3504, 2429, 2426, 224
3505, 2423, 2425, 2426
3506, 2431, 2430, 2428
3507, 2424, 2427, 863
3508, 2434, 2430, 2431
3509, 862, 2428, 2440
3510, 224, 223, 2429
3511, 2429, 223, 2432
3512, 2440, 2439, 862
3513, 863, 2431, 2428
3514, 2423, 2431, 2427
3515, 223, 2436, 2432
3516, 2438, 2436, 222
3517, 2438, 2432, 2436
3518, 2440, 2442, 2433
3519, 2435, 2434, 2423
3520, 2442, 2432, 2438
3521, 2426, 2435, 2423
3522, 2429, 2432, 2435
3523, 223, 222, 2436
3524, 222, 2437, 2438
3525, 222, 2812, 2437
3526, 2437, 2812, 2814
3527, 2442, 2437, 2433
3528, 2442, 2434, 2432
3529, 2442, 2440, 2430
3530, 2443, 2439, 2433
3531, 2439, 2440, 2433
3532, 2815, 2814, 2812
3533, 2828, 2441, 2827
3534, 2434, 2442, 2430
3535, 2437, 2442, 2438
3536, 2437, 2443, 2433
3537, 2828, 2443, 2441
3538, 2841, 945, 2691
3539, 3478, 3477, 2444
3540, 2848, 1271, 2693
3541, 3500, 3499, 2445
3542, 2171, 2446, 572
3543, 2452, 2446, 2117
3544, 2451, 2449, 2450
3545, 2452, 2117, 2447
3546, 2457, 2461, 2857
3547, 2447, 1221, 2448
3548, 2854, 574, 573
3549, 2451, 2450, 1222
3550, 2452, 2450, 2449
3551, 1222, 1223, 2451
3552, 2451, 1223, 2457
3553, 2452, 2449, 2453
3554, 2446, 2452, 573
3555, 2456, 2453, 2449
3556, 574, 2453, 2455
3557, 2456, 2449, 2457
3558, 2855, 2858, 2860
3559, 2456, 2455, 2453
3560, 2455, 2456, 2458
3561, 2449, 2451, 2457
3562, 2456, 2454, 2458
3563, 2461, 2457, 1223
3564, 2454, 2456, 2457
3565, 2458, 2454, 2856
3566, 575, 2458, 2460
3567, 2855, 2459, 2856
3568, 2860, 2459, 2855
3569, 2856, 2460, 2458
3570, 2459, 576, 2460
3571, 1223, 1224, 2461
3572, 1224, 2855, 2857
3573, 2862, 782, 2695
3574, 3605, 3604, 2462
3575, 2464, 2119, 2466
3576, 68, 2465, 2193
3577, 2464, 2466, 2467
3578, 2464, 2468, 2465
3579, 67, 2463, 2465
3580, 2464, 2465, 2463
3581, 2466, 2119, 2479
3582, 2467, 2466, 702
3583, 702, 703, 2467
3584, 2468, 703, 2194
3585, 2465, 2468, 2193
3586, 2467, 2468, 2464
3587, 2470, 2471, 2472
3588, 2463, 2469, 2119
3589, 2475, 2478, 2868
3590, 2477, 2473, 2474
3591, 2472, 2471, 65
3592, 2471, 2470, 2473
3593, 65, 64, 2472
3594, 2472, 64, 2868
3595, 2474, 2473, 2470
3596, 2479, 2473, 2477
3597, 2474, 2470, 2478
3598, 2477, 2474, 700
3599, 2470, 2472, 2868
3600, 2871, 2475, 2868
3601, 2478, 2476, 2474
3602, 2875, 2476, 2475
3603, 700, 701, 2477
3604, 2477, 701, 2479
3605, 2868, 2478, 2470
3606, 2476, 2478, 2475
3607, 2466, 2479, 701
3608, 2119, 2473, 2479
3609, 2492, 2132, 2127
3610, 2482, 2485, 2481
3611, 2480, 2492, 2483
3612, 2484, 2488, 2490
3613, 2488, 2487, 2482
3614, 2486, 2485, 2500
3615, 2482, 2483, 2485
3616, 2495, 2481, 2493
3617, 2507, 3634, 2484
3618, 2500, 2498, 2486
3619, 2483, 2500, 2485
3620, 2130, 2499, 2500
3621, 2486, 2126, 2493
3622, 2488, 2482, 2481
3623, 2487, 2484, 3635
3624, 2481, 2495, 2490
3625, 2484, 2487, 2488
3626, 2504, 2505, 2489
3627, 2507, 2484, 2490
3628, 2481, 2490, 2488
3629, 2489, 2505, 2507
3630, 2489, 2497, 2504
3631, 2484, 3634, 3635
3632, 2132, 2492, 2480
3633, 2130, 2492, 2127
3634, 2495, 2496, 2497
3635, 2485, 2493, 2481
3636, 2496, 2495, 2493
3637, 2493, 2126, 2496
3638, 2497, 2501, 1570
3639, 2126, 2494, 2496
3640, 2496, 2494, 2497
3641, 2497, 2502, 2504
3642, 2489, 2495, 2497
3643, 2499, 959, 2498
3644, 2130, 2500, 2483
3645, 1377, 2499, 2130
3646, 2485, 2486, 2493
3647, 2499, 2498, 2500
3648, 2517, 2508, 2503
3649, 2497, 2494, 2501
3650, 2894, 2899, 2903
3651, 2512, 2510, 2513
3652, 2502, 2503, 2504
3653, 1570, 2502, 2497
3654, 2505, 2504, 2503
3655, 1570, 2510, 2511
3656, 2505, 2491, 2507
3657, 2502, 1570, 2511
3658, 3925, 3926, 2908
3659, 2507, 2491, 3634
3660, 2489, 2507, 2490
3661, 2503, 2508, 2505
3662, 2512, 2503, 2502
3663, 2511, 2512, 2502
3664, 2918, 2491, 2508
3665, 2512, 2511, 2510
3666, 2887, 2892, 2890
3667, 2513, 2515, 2512
3668, 2510, 2506, 2513
3669, 2506, 2887, 2891
3670, 2891, 2889, 2506
3671, 2893, 2894, 2890
3672, 2907, 2509, 2908
3673, 2515, 2516, 2517
3674, 2514, 2915, 2916
3675, 2508, 2517, 3637
3676, 2515, 2517, 2512
3677, 2517, 2516, 3637
3678, 2530, 2141, 2136
3679, 2520, 2523, 2519
3680, 2518, 2530, 2521
3681, 2522, 2526, 2528
3682, 2526, 2525, 2520
3683, 2524, 2523, 2538
3684, 2520, 2521, 2523
3685, 2533, 2519, 2531
3686, 2545, 3652, 2522
3687, 2538, 2536, 2524
3688, 2521, 2538, 2523
3689, 2139, 2537, 2538
3690, 2524, 2135, 2531
3691, 2526, 2520, 2519
3692, 2525, 2522, 3653
3693, 2519, 2533, 2528
3694, 2522, 2525, 2526
3695, 2542, 2543, 2527
3696, 2545, 2522, 2528
3697, 2519, 2528, 2526
3698, 2527, 2543, 2545
3699, 2527, 2535, 2542
3700, 2522, 3652, 3653
3701, 2141, 2530, 2518
3702, 2139, 2530, 2136
3703, 2533, 2534, 2535
3704, 2523, 2531, 2519
3705, 2534, 2533, 2531
3706, 2531, 2135, 2534
3707, 2535, 2539, 1571
3708, 2135, 2532, 2534
3709, 2534, 2532, 2535
3710, 2535, 2540, 2542
3711, 2527, 2533, 2535
3712, 2537, 796, 2536
3713, 2139, 2538, 2521
3714, 1378, 2537, 2139
3715, 2523, 2524, 2531
3716, 2537, 2536, 2538
3717, 2555, 2546, 2541
3718, 2535, 2532, 2539
3719, 2976, 2981, 2985
3720, 2550, 2548, 2551
3721, 2540, 2541, 2542
3722, 1571, 2540, 2535
3723, 2543, 2542, 2541
3724, 1571, 2548, 2549
3725, 2543, 2529, 2545
3726, 2540, 1571, 2549
3727, 3938, 3939, 2990
3728, 2545, 2529, 3652
3729, 2527, 2545, 2528
3730, 2541, 2546, 2543
3731, 2550, 2541, 2540
3732, 2549, 2550, 2540
3733, 3000, 2529, 2546
3734, 2550, 2549, 2548
3735, 2969, 2974, 2972
3736, 2551, 2553, 2550
3737, 2548, 2544, 2551
3738, 2544, 2969, 2973
3739, 2973, 2971, 2544
3740, 2975, 2976, 2972
3741, 2989, 2547, 2990
3742, 2553, 2554, 2555
3743, 2552, 2997, 2998
3744, 2546, 2555, 3655
3745, 2553, 2555, 2550
3746, 2555, 2554, 3655
3747, 2568, 2150, 2145
3748, 2558, 2561, 2557
3749, 2556, 2568, 2559
3750, 2560, 2564, 2566
3751, 2564, 2563, 2558
3752, 2562, 2561, 2576
3753, 2558, 2559, 2561
3754, 2571, 2557, 2569
3755, 2583, 3670, 2560
3756, 2576, 2574, 2562
3757, 2559, 2576, 2561
3758, 2148, 2575, 2576
3759, 2562, 2144, 2569
3760, 2564, 2558, 2557
3761, 2563, 2560, 3671
3762, 2557, 2571, 2566
3763, 2560, 2563, 2564
3764, 2580, 2581, 2565
3765, 2583, 2560, 2566
3766, 2557, 2566, 2564
3767, 2565, 2581, 2583
3768, 2565, 2573, 2580
3769, 2560, 3670, 3671
3770, 2150, 2568, 2556
3771, 2148, 2568, 2145
3772, 2571, 2572, 2573
3773, 2561, 2569, 2557
3774, 2572, 2571, 2569
3775, 2569, 2144, 2572
3776, 2573, 2577, 1572
3777, 2144, 2570, 2572
3778, 2572, 2570, 2573
3779, 2573, 2578, 2580
3780, 2565, 2571, 2573
3781, 2575, 1122, 2574
3782, 2148, 2576, 2559
3783, 1379, 2575, 2148
3784, 2561, 2562, 2569
3785, 2575, 2574, 2576
3786, 2593, 2584, 2579
3787, 2573, 2570, 2577
3788, 3058, 3063, 3067
3789, 2588, 2586, 2589
3790, 2578, 2579, 2580
3791, 1572, 2578, 2573
3792, 2581, 2580, 2579
3793, 1572, 2586, 2587
3794, 2581, 2567, 2583
3795, 2578, 1572, 2587
3796, 3951, 3952, 3072
3797, 2583, 2567, 3670
3798, 2565, 2583, 2566
3799, 2579, 2584, 2581
3800, 2588, 2579, 2578
3801, 2587, 2588, 2578
3802, 3082, 2567, 2584
3803, 2588, 2587, 2586
3804, 3051, 3056, 3054
3805, 2589, 2591, 2588
3806, 2586, 2582, 2589
3807, 2582, 3051, 3055
3808, 3055, 3053, 2582
3809, 3057, 3058, 3054
3810, 3071, 2585, 3072
3811, 2591, 2592, 2593
3812, 2590, 3079, 3080
3813, 2584, 2593, 3673
3814, 2591, 2593, 2588
3815, 2593, 2592, 3673
3816, 2606, 2159, 2154
3817, 2596, 2599, 2595
3818, 2594, 2606, 2597
3819, 2598, 2602, 2604
3820, 2602, 2601, 2596
3821, 2600, 2599, 2614
3822, 2596, 2597, 2599
3823, 2609, 2595, 2607
3824, 2621, 3688, 2598
3825, 2614, 2612, 2600
3826, 2597, 2614, 2599
3827, 2157, 2613, 2614
3828, 2600, 2153, 2607
3829, 2602, 2596, 2595
3830, 2601, 2598, 3689
3831, 2595, 2609, 2604
3832, 2598, 2601, 2602
3833, 2618, 2619, 2603
3834, 2621, 2598, 2604
3835, 2595, 2604, 2602
3836, 2603, 2619, 2621
3837, 2603, 2611, 2618
3838, 2598, 3688, 3689
3839, 2159, 2606, 2594
3840, 2157, 2606, 2154
3841, 2609, 2610, 2611
3842, 2599, 2607, 2595
3843, 2610, 2609, 2607
3844, 2607, 2153, 2610
3845, 2611, 2615, 1573
3846, 2153, 2608, 2610
3847, 2610, 2608, 2611
3848, 2611, 2616, 2618
3849, 2603, 2609, 2611
3850, 2613, 1285, 2612
3851, 2157, 2614, 2597
3852, 1380, 2613, 2157
3853, 2599, 2600, 2607
3854, 2613, 2612, 2614
3855, 2631, 2622, 2617
3856, 2611, 2608, 2615
3857, 3140, 3145, 3149
3858, 2626, 2624, 2627
3859, 2616, 2617, 2618
3860, 1573, 2616, 2611
3861, 2619, 2618, 2617
3862, 1573, 2624, 2625
3863, 2619, 2605, 2621
3864, 2616, 1573, 2625
3865, 3964, 3965, 3154
3866, 2621, 2605, 3688
3867, 2603, 2621, 2604
3868, 2617, 2622, 2619
3869, 2626, 2617, 2616
3870, 2625, 2626, 2616
3871, 3164, 2605, 2622
3872, 2626, 2625, 2624
3873, 3133, 3138, 3136
3874, 2627, 2629, 2626
3875, 2624, 2620, 2627
3876, 2620, 3133, 3137
3877, 3137, 3135, 2620
3878, 3139, 3140, 3136
3879, 3153, 2623, 3154
3880, 2629, 2630, 2631
3881, 2628, 3161, 3162
3882, 2622, 2631, 3691
3883, 2629, 2631, 2626
3884, 2631, 2630, 3691
3885, 1060, 1061, 2632
3886, 3216, 2632, 1061
3887, 2233, 2632, 3216
3888, 3216, 3220, 3222
3889, 2634, 2112, 2238
3890, 2635, 2634, 896
3891, 896, 897, 2635
3892, 2636, 2635, 897
3893, 897, 2638, 2636
3894, 2636, 2640, 2247
3895, 2249, 2637, 2247
3896, 2246, 2636, 2637
3897, 897, 898, 2638
3898, 2640, 2638, 2641
3899, 2641, 2639, 2640
3900, 2639, 2641, 2644
3901, 2641, 2638, 898
3902, 2640, 2639, 2642
3903, 899, 2644, 2643
3904, 2641, 2643, 2644
3905, 2645, 2642, 2639
3906, 257, 2247, 2642
3907, 2648, 900, 2652
3908, 2641, 898, 2643
3909, 2646, 258, 2645
3910, 2649, 2639, 2644
3911, 2642, 2647, 257
3912, 2649, 2645, 2639
3913, 2655, 901, 2660
3914, 2651, 2646, 2649
3915, 2645, 258, 2647
3916, 2644, 899, 2648
3917, 2651, 2644, 2650
3918, 2645, 2649, 2646
3919, 3267, 3266, 2654
3920, 2644, 2651, 2649
3921, 2651, 2650, 2654
3922, 2653, 2652, 900
3923, 2644, 2652, 2650
3924, 2666, 2667, 2657
3925, 2650, 2656, 2654
3926, 2656, 2650, 2653
3927, 259, 3266, 3267
3928, 2656, 2653, 2659
3929, 2653, 900, 2655
3930, 2654, 2656, 2658
3931, 2660, 2659, 2653
3932, 2660, 901, 2661
3933, 2659, 2658, 2656
3934, 2666, 2662, 2667
3935, 2653, 2655, 2660
3936, 2658, 2659, 2657
3937, 2661, 901, 902
3938, 2659, 2660, 2664
3939, 2670, 902, 2669
3940, 2659, 2664, 2657
3941, 2664, 2668, 2657
3942, 2658, 2667, 260
3943, 2665, 2670, 2672
3944, 2676, 2672, 2671
3945, 2660, 2661, 2664
3946, 2665, 2664, 2661
3947, 2670, 2661, 902
3948, 2668, 2666, 2657
3949, 261, 2662, 2666
3950, 260, 2667, 2662
3951, 2657, 2667, 2658
3952, 2665, 2663, 2668
3953, 2668, 2663, 3268
3954, 2671, 2669, 903
3955, 2671, 2672, 2669
3956, 2661, 2670, 2665
3957, 3729, 3275, 904
3958, 2671, 903, 2674
3959, 2665, 2672, 2663
3960, 2669, 2672, 2670
3961, 3723, 3721, 3722
3962, 2676, 2663, 2672
3963, 3275, 2674, 903
3964, 2676, 2673, 2675
3965, 2675, 2673, 3721
3966, 3269, 3733, 3274
3967, 2674, 2676, 2671
3968, 2676, 2675, 3269
3969, 466, 465, 2677
3970, 3276, 2677, 465
3971, 3735, 2678, 464
3972, 3439, 2807, 2111
3973, 2678, 2809, 2810
3974, 2111, 2807, 2809
3975, 307, 306, 2680
3976, 3281, 2680, 306
3977, 3737, 2681, 305
3978, 3478, 2842, 2115
3979, 2681, 2844, 2845
3980, 2115, 2842, 2844
3981, 625, 624, 2683
3982, 3286, 2683, 624
3983, 3739, 2684, 623
3984, 3500, 2849, 2116
3985, 2684, 2851, 2852
3986, 2116, 2849, 2851
3987, 148, 147, 2686
3988, 3291, 2686, 147
3989, 3741, 2687, 146
3990, 3605, 2863, 2118
3991, 2687, 2865, 2866
3992, 2118, 2863, 2865
3993, 1108, 1109, 2689
3994, 2690, 2689, 1109
3995, 1962, 2690, 1109
3996, 2808, 2690, 1896
3997, 945, 946, 2691
3998, 2692, 2691, 946
3999, 1963, 2692, 946
4000, 2843, 2692, 1906
4001, 1271, 1272, 2693
4002, 2694, 2693, 1272
4003, 1964, 2694, 1272
4004, 2850, 2694, 1916
4005, 782, 783, 2695
4006, 2696, 2695, 783
4007, 1965, 2696, 783
4008, 2864, 2696, 1926
4009, 2267, 1937, 7824
4010, 1499, 1986, 2697
4011, 2271, 1940, 7827
4012, 1503, 1993, 2698
4013, 2275, 1943, 7830
4014, 1507, 2000, 2699
4015, 2279, 1946, 7833
4016, 1511, 2007, 2700
4017, 382, 381, 2701
4018, 381, 2289, 2701
4019, 3308, 3311, 3315
4020, 3300, 1022, 2704
4021, 2310, 2703, 2297
4022, 2309, 3299, 2703
4023, 3299, 2304, 3298
4024, 2704, 3298, 3301
4025, 541, 540, 2705
4026, 540, 2317, 2705
4027, 3363, 3366, 3370
4028, 3355, 1185, 2708
4029, 2338, 2707, 2325
4030, 2337, 3354, 2707
4031, 3354, 2332, 3353
4032, 2708, 3353, 3356
4033, 2383, 2723, 2730
4034, 2711, 2727, 337
4035, 2343, 2710, 2346
4036, 2711, 2710, 2709
4037, 2723, 2728, 2709
4038, 336, 2711, 337
4039, 2393, 2744, 2751
4040, 2714, 2748, 178
4041, 2352, 2713, 2355
4042, 2714, 2713, 2712
4043, 2744, 2749, 2712
4044, 177, 2714, 178
4045, 2403, 2765, 2772
4046, 2717, 2769, 496
4047, 2361, 2716, 2364
4048, 2717, 2716, 2715
4049, 2765, 2770, 2715
4050, 495, 2717, 496
4051, 2413, 2786, 2793
4052, 2720, 2790, 19
4053, 2370, 2719, 2373
4054, 2720, 2719, 2718
4055, 2786, 2791, 2718
4056, 18, 2720, 19
4057, 2725, 2733, 982
4058, 2721, 2724, 2733
4059, 2723, 2722, 2381
4060, 2382, 2721, 2722
4061, 2381, 2737, 2728
4062, 2730, 2723, 2709
4063, 983, 2734, 982
4064, 2721, 981, 2724
4065, 2725, 982, 2734
4066, 2381, 2732, 2736
4067, 2729, 337, 2727
4068, 2709, 2727, 2711
4069, 2729, 2727, 2726
4070, 2381, 2728, 2723
4071, 2726, 2727, 2728
4072, 2729, 2726, 3782
4073, 337, 2729, 338
4074, 2709, 2710, 2731
4075, 2383, 2730, 2078
4076, 2347, 2731, 2343
4077, 2709, 2731, 2730
4078, 2733, 2732, 2721
4079, 2736, 2732, 2725
4080, 982, 2733, 2724
4081, 2732, 2733, 2725
4082, 4091, 4090, 339
4083, 2728, 2737, 2726
4084, 2738, 2735, 2736
4085, 3781, 3782, 3784
4086, 2738, 2736, 2725
4087, 2735, 3783, 2737
4088, 2381, 2736, 2737
4089, 2735, 2737, 2736
4090, 983, 3407, 2734
4091, 3410, 3411, 3412
4092, 3412, 2741, 3406
4093, 3411, 3779, 3412
4094, 2734, 3407, 2738
4095, 3412, 3779, 2740
4096, 3406, 2741, 2738
4097, 2741, 2740, 3784
4098, 2746, 2754, 819
4099, 2742, 2745, 2754
4100, 2744, 2743, 2391
4101, 2392, 2742, 2743
4102, 2391, 2758, 2749
4103, 2751, 2744, 2712
4104, 820, 2755, 819
4105, 2742, 818, 2745
4106, 2746, 819, 2755
4107, 2391, 2753, 2757
4108, 2750, 178, 2748
4109, 2712, 2748, 2714
4110, 2750, 2748, 2747
4111, 2391, 2749, 2744
4112, 2747, 2748, 2749
4113, 2750, 2747, 3799
4114, 178, 2750, 179
4115, 2712, 2713, 2752
4116, 2393, 2751, 2087
4117, 2356, 2752, 2352
4118, 2712, 2752, 2751
4119, 2754, 2753, 2742
4120, 2757, 2753, 2746
4121, 819, 2754, 2745
4122, 2753, 2754, 2746
4123, 4121, 4120, 180
4124, 2749, 2758, 2747
4125, 2759, 2756, 2757
4126, 3798, 3799, 3801
4127, 2759, 2757, 2746
4128, 2756, 3800, 2758
4129, 2391, 2757, 2758
4130, 2756, 2758, 2757
4131, 820, 3415, 2755
4132, 3418, 3419, 3420
4133, 3420, 2762, 3414
4134, 3419, 3796, 3420
4135, 2755, 3415, 2759
4136, 3420, 3796, 2761
4137, 3414, 2762, 2759
4138, 2762, 2761, 3801
4139, 2767, 2775, 1145
4140, 2763, 2766, 2775
4141, 2765, 2764, 2401
4142, 2402, 2763, 2764
4143, 2401, 2779, 2770
4144, 2772, 2765, 2715
4145, 1146, 2776, 1145
4146, 2763, 1144, 2766
4147, 2767, 1145, 2776
4148, 2401, 2774, 2778
4149, 2771, 496, 2769
4150, 2715, 2769, 2717
4151, 2771, 2769, 2768
4152, 2401, 2770, 2765
4153, 2768, 2769, 2770
4154, 2771, 2768, 3816
4155, 496, 2771, 497
4156, 2715, 2716, 2773
4157, 2403, 2772, 2096
4158, 2365, 2773, 2361
4159, 2715, 2773, 2772
4160, 2775, 2774, 2763
4161, 2778, 2774, 2767
4162, 1145, 2775, 2766
4163, 2774, 2775, 2767
4164, 4151, 4150, 498
4165, 2770, 2779, 2768
4166, 2780, 2777, 2778
4167, 3815, 3816, 3818
4168, 2780, 2778, 2767
4169, 2777, 3817, 2779
4170, 2401, 2778, 2779
4171, 2777, 2779, 2778
4172, 1146, 3423, 2776
4173, 3426, 3427, 3428
4174, 3428, 2783, 3422
4175, 3427, 3813, 3428
4176, 2776, 3423, 2780
4177, 3428, 3813, 2782
4178, 3422, 2783, 2780
4179, 2783, 2782, 3818
4180, 2788, 2796, 656
4181, 2784, 2787, 2796
4182, 2786, 2785, 2411
4183, 2412, 2784, 2785
4184, 2411, 2800, 2791
4185, 2793, 2786, 2718
4186, 657, 2797, 656
4187, 2784, 655, 2787
4188, 2788, 656, 2797
4189, 2411, 2795, 2799
4190, 2792, 19, 2790
4191, 2718, 2790, 2720
4192, 2792, 2790, 2789
4193, 2411, 2791, 2786
4194, 2789, 2790, 2791
4195, 2792, 2789, 3833
4196, 19, 2792, 20
4197, 2718, 2719, 2794
4198, 2413, 2793, 2105
4199, 2374, 2794, 2370
4200, 2718, 2794, 2793
4201, 2796, 2795, 2784
4202, 2799, 2795, 2788
4203, 656, 2796, 2787
4204, 2795, 2796, 2788
4205, 4181, 4180, 21
4206, 2791, 2800, 2789
4207, 2801, 2798, 2799
4208, 3832, 3833, 3835
4209, 2801, 2799, 2788
4210, 2798, 3834, 2800
4211, 2411, 2799, 2800
4212, 2798, 2800, 2799
4213, 657, 3431, 2797
4214, 3434, 3435, 3436
4215, 3436, 2804, 3430
4216, 3435, 3830, 3436
4217, 2797, 3431, 2801
4218, 3436, 3830, 2803
4219, 3430, 2804, 2801
4220, 2804, 2803, 3835
4221, 1107, 1108, 2805
4222, 2806, 2805, 1108
4223, 2807, 2806, 2259
4224, 2805, 2806, 2415
4225, 2259, 2808, 2807
4226, 3278, 2678, 3735
4227, 2808, 2259, 2690
4228, 2810, 2809, 2808
4229, 2807, 2808, 2809
4230, 2810, 2808, 2679
4231, 2679, 2252, 2810
4232, 3276, 2810, 2252
4233, 3448, 3439, 2111
4234, 3443, 3447, 3441
4235, 222, 221, 2812
4236, 2812, 221, 2815
4237, 2816, 2815, 221
4238, 2816, 2818, 2820
4239, 2827, 2814, 2813
4240, 2441, 2437, 2814
4241, 2816, 221, 220
4242, 2814, 2815, 2813
4243, 2816, 220, 2818
4244, 2813, 2815, 2816
4245, 2818, 2819, 2824
4246, 2824, 2819, 2822
4247, 2819, 2818, 220
4248, 2818, 2817, 2820
4249, 220, 219, 2819
4250, 2819, 219, 2822
4251, 2826, 2820, 2817
4252, 2827, 2441, 2814
4253, 2823, 2822, 219
4254, 2823, 2832, 2821
4255, 2823, 219, 218
4256, 2824, 2822, 2821
4257, 2832, 2823, 2833
4258, 2821, 2822, 2823
4259, 2832, 2838, 3476
4260, 2824, 2817, 2818
4261, 859, 2830, 3460
4262, 859, 2826, 2830
4263, 2830, 2826, 2817
4264, 3461, 2831, 860
4265, 3461, 2820, 2826
4266, 2827, 3461, 2828
4267, 860, 861, 2828
4268, 2443, 2828, 861
4269, 2833, 2829, 2832
4270, 3469, 216, 3467
4271, 2824, 2830, 2817
4272, 2830, 2825, 3460
4273, 2833, 2823, 218
4274, 2826, 859, 2831
4275, 2832, 2829, 2838
4276, 3845, 3846, 3843
4277, 2833, 2835, 2837
4278, 2838, 3462, 2834
4279, 3475, 858, 3460
4280, 2836, 3466, 3463
4281, 2833, 218, 2835
4282, 2829, 3463, 3462
4283, 217, 2837, 2835
4284, 2839, 2837, 2836
4285, 3462, 2838, 2829
4286, 2838, 2834, 3476
4287, 2837, 2839, 2833
4288, 3463, 2839, 2836
4289, 944, 945, 2840
4290, 2841, 2840, 945
4291, 2842, 2841, 2260
4292, 2840, 2841, 2444
4293, 2260, 2843, 2842
4294, 3283, 2681, 3737
4295, 2843, 2260, 2692
4296, 2845, 2844, 2843
4297, 2842, 2843, 2844
4298, 2845, 2843, 2682
4299, 2682, 2254, 2845
4300, 3281, 2845, 2254
4301, 3487, 3478, 2115
4302, 3482, 3486, 3480
4303, 1270, 1271, 2847
4304, 2848, 2847, 1271
4305, 2849, 2848, 2261
4306, 2847, 2848, 2445
4307, 2261, 2850, 2849
4308, 3288, 2684, 3739
4309, 2850, 2261, 2694
4310, 2852, 2851, 2850
4311, 2849, 2850, 2851
4312, 2852, 2850, 2685
4313, 2685, 2256, 2852
4314, 3286, 2852, 2256
4315, 3509, 3500, 2116
4316, 3504, 3508, 3502
4317, 573, 2452, 2854
4318, 2453, 2854, 2452
4319, 2855, 2856, 2857
4320, 2858, 2855, 1224
4321, 2856, 2459, 2460
4322, 2857, 2856, 2454
4323, 2457, 2857, 2454
4324, 1224, 2857, 2461
4325, 1224, 1225, 2858
4326, 1225, 2859, 2860
4327, 3521, 2859, 1225
4328, 3523, 3541, 2859
4329, 1225, 2860, 2858
4330, 2860, 2859, 3543
4331, 781, 782, 2861
4332, 2862, 2861, 782
4333, 2863, 2862, 2262
4334, 2861, 2862, 2462
4335, 2262, 2864, 2863
4336, 3293, 2687, 3741
4337, 2864, 2262, 2696
4338, 2866, 2865, 2864
4339, 2863, 2864, 2865
4340, 2866, 2864, 2688
4341, 2688, 2258, 2866
4342, 3291, 2866, 2258
4343, 3614, 3605, 2118
4344, 3609, 3613, 3607
4345, 64, 2869, 2868
4346, 2868, 2869, 2871
4347, 64, 63, 2869
4348, 2871, 2869, 2882
4349, 2883, 2879, 2882
4350, 2875, 2475, 2874
4351, 2882, 2869, 63
4352, 2872, 699, 2875
4353, 2874, 2871, 2870
4354, 2878, 2876, 2880
4355, 698, 2872, 2873
4356, 2871, 2874, 2475
4357, 2870, 2873, 2874
4358, 2875, 699, 2476
4359, 2873, 2875, 2874
4360, 2876, 2878, 2879
4361, 2879, 2885, 2876
4362, 2878, 2873, 2870
4363, 2876, 3628, 3633
4364, 2879, 2878, 2870
4365, 2877, 2880, 3633
4366, 2882, 2879, 2870
4367, 2879, 62, 2885
4368, 3628, 2876, 3627
4369, 698, 2873, 2880
4370, 8081, 3627, 2884
4371, 8083, 8086, 8085
4372, 2879, 2883, 62
4373, 61, 8082, 3626
4374, 2882, 63, 2883
4375, 2884, 8082, 8081
4376, 3626, 2885, 62
4377, 2876, 2885, 2884
4378, 2888, 2890, 2514
4379, 3637, 2918, 2508
4380, 2888, 2889, 2891
4381, 2916, 2888, 2514
4382, 2889, 2888, 2515
4383, 2515, 2513, 2889
4384, 2506, 2889, 2513
4385, 2892, 2893, 2890
4386, 2887, 2890, 2891
4387, 2888, 2891, 2890
4388, 2887, 2133, 2892
4389, 2892, 2133, 2930
4390, 2895, 2928, 3640
4391, 2906, 2902, 2128
4392, 2897, 2894, 2893
4393, 2915, 2905, 2907
4394, 2914, 2919, 2924
4395, 2920, 2913, 2902
4396, 2894, 2897, 2899
4397, 2903, 2899, 2905
4398, 2910, 2932, 2924
4399, 2938, 3641, 2927
4400, 2939, 2940, 3643
4401, 2897, 2893, 2901
4402, 2897, 2898, 2899
4403, 2899, 2906, 2905
4404, 2927, 2925, 2904
4405, 2932, 2910, 2901
4406, 2919, 2920, 2910
4407, 2921, 2920, 2902
4408, 2899, 2898, 2902
4409, 2896, 2907, 2905
4410, 2899, 2902, 2906
4411, 2514, 2894, 2903
4412, 2128, 2896, 2906
4413, 2901, 2921, 2898
4414, 2915, 2907, 2908
4415, 2905, 2906, 2896
4416, 2896, 2509, 2907
4417, 2912, 2911, 3639
4418, 2917, 2515, 2916
4419, 2903, 2915, 2514
4420, 2930, 2922, 2929
4421, 2921, 2902, 2898
4422, 2937, 2939, 2938
4423, 2921, 2901, 2910
4424, 3639, 2911, 2920
4425, 2920, 2919, 3639
4426, 2929, 2931, 2901
4427, 2912, 3639, 2914
4428, 2897, 2901, 2898
4429, 2915, 2903, 2905
4430, 2913, 2920, 2911
4431, 2916, 2915, 2908
4432, 2917, 2916, 2908
4433, 2916, 2515, 2888
4434, 2918, 3637, 3926
4435, 2515, 2917, 2516
4436, 2914, 3639, 2919
4437, 2908, 3926, 2917
4438, 2902, 2913, 2128
4439, 2911, 2128, 2913
4440, 2939, 3643, 2938
4441, 2910, 2920, 2921
4442, 2909, 2933, 2934
4443, 2893, 2929, 2901
4444, 2925, 2927, 2924
4445, 2910, 2924, 2919
4446, 2924, 2923, 2925
4447, 2946, 2935, 2900
4448, 2926, 2925, 2934
4449, 2904, 2925, 2926
4450, 2923, 2934, 2925
4451, 2927, 2904, 2938
4452, 2914, 2924, 2927
4453, 2904, 2926, 2937
4454, 3641, 3642, 2914
4455, 2930, 2929, 2893
4456, 2931, 2922, 2909
4457, 2892, 2930, 2893
4458, 2922, 2930, 2133
4459, 2933, 2935, 2926
4460, 2931, 2923, 2932
4461, 2931, 2932, 2901
4462, 2924, 2932, 2923
4463, 2909, 2923, 2931
4464, 2909, 2934, 2923
4465, 2933, 2926, 2934
4466, 2933, 2900, 2935
4467, 2937, 2942, 2939
4468, 2937, 2938, 2904
4469, 2940, 2939, 2945
4470, 2941, 2945, 2942
4471, 2948, 2942, 2946
4472, 2951, 2941, 2949
4473, 3641, 3643, 3640
4474, 2926, 2946, 2937
4475, 2940, 2895, 3640
4476, 2959, 2960, 2961
4477, 2948, 2949, 2941
4478, 2942, 2945, 2939
4479, 2946, 2926, 2935
4480, 2952, 2941, 2951
4481, 2943, 2949, 2948
4482, 2946, 2942, 2937
4483, 2941, 2952, 2945
4484, 2953, 2960, 2952
4485, 2945, 2959, 2940
4486, 2900, 2943, 2946
4487, 2948, 2946, 2943
4488, 2951, 2953, 2952
4489, 2947, 2960, 2953
4490, 2949, 2943, 2936
4491, 2942, 2948, 2941
4492, 2954, 2953, 2962
4493, 3646, 2947, 2967
4494, 2954, 2947, 2953
4495, 2953, 2951, 2962
4496, 2950, 2956, 2957
4497, 2947, 2954, 2967
4498, 2950, 2963, 2956
4499, 2957, 2949, 2936
4500, 3651, 2954, 2962
4501, 3645, 2947, 3646
4502, 3645, 2960, 2947
4503, 2959, 2961, 2940
4504, 2951, 2949, 2957
4505, 2963, 2950, 1530
4506, 2950, 2957, 2936
4507, 2957, 2956, 2962
4508, 4309, 4305, 4795
4509, 3929, 3931, 3646
4510, 2952, 2959, 2945
4511, 2959, 2952, 2960
4512, 2960, 2955, 2961
4513, 2961, 2895, 2940
4514, 2955, 2895, 2961
4515, 2957, 2962, 2951
4516, 3651, 2962, 2956
4517, 1530, 2966, 2963
4518, 2963, 2964, 3651
4519, 6222, 4304, 6219
4520, 3935, 3936, 3934
4521, 3650, 3644, 3929
4522, 3928, 2958, 3927
4523, 3650, 2964, 3937
4524, 4794, 4802, 4796
4525, 2966, 2964, 2963
4526, 2967, 2954, 3650
4527, 2970, 2972, 2552
4528, 3655, 3000, 2546
4529, 2970, 2971, 2973
4530, 2998, 2970, 2552
4531, 2971, 2970, 2553
4532, 2553, 2551, 2971
4533, 2544, 2971, 2551
4534, 2974, 2975, 2972
4535, 2969, 2972, 2973
4536, 2970, 2973, 2972
4537, 2969, 2142, 2974
4538, 2974, 2142, 3012
4539, 2977, 3010, 3658
4540, 2988, 2984, 2137
4541, 2979, 2976, 2975
4542, 2997, 2987, 2989
4543, 2996, 3001, 3006
4544, 3002, 2995, 2984
4545, 2976, 2979, 2981
4546, 2985, 2981, 2987
4547, 2992, 3014, 3006
4548, 3020, 3659, 3009
4549, 3021, 3022, 3661
4550, 2979, 2975, 2983
4551, 2979, 2980, 2981
4552, 2981, 2988, 2987
4553, 3009, 3007, 2986
4554, 3014, 2992, 2983
4555, 3001, 3002, 2992
4556, 3003, 3002, 2984
4557, 2981, 2980, 2984
4558, 2978, 2989, 2987
4559, 2981, 2984, 2988
4560, 2552, 2976, 2985
4561, 2137, 2978, 2988
4562, 2983, 3003, 2980
4563, 2997, 2989, 2990
4564, 2987, 2988, 2978
4565, 2978, 2547, 2989
4566, 2994, 2993, 3657
4567, 2999, 2553, 2998
4568, 2985, 2997, 2552
4569, 3012, 3004, 3011
4570, 3003, 2984, 2980
4571, 3019, 3021, 3020
4572, 3003, 2983, 2992
4573, 3657, 2993, 3002
4574, 3002, 3001, 3657
4575, 3011, 3013, 2983
4576, 2994, 3657, 2996
4577, 2979, 2983, 2980
4578, 2997, 2985, 2987
4579, 2995, 3002, 2993
4580, 2998, 2997, 2990
4581, 2999, 2998, 2990
4582, 2998, 2553, 2970
4583, 3000, 3655, 3939
4584, 2553, 2999, 2554
4585, 2996, 3657, 3001
4586, 2990, 3939, 2999
4587, 2984, 2995, 2137
4588, 2993, 2137, 2995
4589, 3021, 3661, 3020
4590, 2992, 3002, 3003
4591, 2991, 3015, 3016
4592, 2975, 3011, 2983
4593, 3007, 3009, 3006
4594, 2992, 3006, 3001
4595, 3006, 3005, 3007
4596, 3028, 3017, 2982
4597, 3008, 3007, 3016
4598, 2986, 3007, 3008
4599, 3005, 3016, 3007
4600, 3009, 2986, 3020
4601, 2996, 3006, 3009
4602, 2986, 3008, 3019
4603, 3659, 3660, 2996
4604, 3012, 3011, 2975
4605, 3013, 3004, 2991
4606, 2974, 3012, 2975
4607, 3004, 3012, 2142
4608, 3015, 3017, 3008
4609, 3013, 3005, 3014
4610, 3013, 3014, 2983
4611, 3006, 3014, 3005
4612, 2991, 3005, 3013
4613, 2991, 3016, 3005
4614, 3015, 3008, 3016
4615, 3015, 2982, 3017
4616, 3019, 3024, 3021
4617, 3019, 3020, 2986
4618, 3022, 3021, 3027
4619, 3023, 3027, 3024
4620, 3030, 3024, 3028
4621, 3033, 3023, 3031
4622, 3659, 3661, 3658
4623, 3008, 3028, 3019
4624, 3022, 2977, 3658
4625, 3041, 3042, 3043
4626, 3030, 3031, 3023
4627, 3024, 3027, 3021
4628, 3028, 3008, 3017
4629, 3034, 3023, 3033
4630, 3025, 3031, 3030
4631, 3028, 3024, 3019
4632, 3023, 3034, 3027
4633, 3035, 3042, 3034
4634, 3027, 3041, 3022
4635, 2982, 3025, 3028
4636, 3030, 3028, 3025
4637, 3033, 3035, 3034
4638, 3029, 3042, 3035
4639, 3031, 3025, 3018
4640, 3024, 3030, 3023
4641, 3036, 3035, 3044
4642, 3664, 3029, 3049
4643, 3036, 3029, 3035
4644, 3035, 3033, 3044
4645, 3032, 3038, 3039
4646, 3029, 3036, 3049
4647, 3032, 3045, 3038
4648, 3039, 3031, 3018
4649, 3669, 3036, 3044
4650, 3663, 3029, 3664
4651, 3663, 3042, 3029
4652, 3041, 3043, 3022
4653, 3033, 3031, 3039
4654, 3045, 3032, 1531
4655, 3032, 3039, 3018
4656, 3039, 3038, 3044
4657, 4318, 4314, 4804
4658, 3942, 3944, 3664
4659, 3034, 3041, 3027
4660, 3041, 3034, 3042
4661, 3042, 3037, 3043
4662, 3043, 2977, 3022
4663, 3037, 2977, 3043
4664, 3039, 3044, 3033
4665, 3669, 3044, 3038
4666, 1531, 3048, 3045
4667, 3045, 3046, 3669
4668, 6266, 4313, 6263
4669, 3948, 3949, 3947
4670, 3668, 3662, 3942
4671, 3941, 3040, 3940
4672, 3668, 3046, 3950
4673, 4803, 4811, 4805
4674, 3048, 3046, 3045
4675, 3049, 3036, 3668
4676, 3052, 3054, 2590
4677, 3673, 3082, 2584
4678, 3052, 3053, 3055
4679, 3080, 3052, 2590
4680, 3053, 3052, 2591
4681, 2591, 2589, 3053
4682, 2582, 3053, 2589
4683, 3056, 3057, 3054
4684, 3051, 3054, 3055
4685, 3052, 3055, 3054
4686, 3051, 2151, 3056
4687, 3056, 2151, 3094
4688, 3059, 3092, 3676
4689, 3070, 3066, 2146
4690, 3061, 3058, 3057
4691, 3079, 3069, 3071
4692, 3078, 3083, 3088
4693, 3084, 3077, 3066
4694, 3058, 3061, 3063
4695, 3067, 3063, 3069
4696, 3074, 3096, 3088
4697, 3102, 3677, 3091
4698, 3103, 3104, 3679
4699, 3061, 3057, 3065
4700, 3061, 3062, 3063
4701, 3063, 3070, 3069
4702, 3091, 3089, 3068
4703, 3096, 3074, 3065
4704, 3083, 3084, 3074
4705, 3085, 3084, 3066
4706, 3063, 3062, 3066
4707, 3060, 3071, 3069
4708, 3063, 3066, 3070
4709, 2590, 3058, 3067
4710, 2146, 3060, 3070
4711, 3065, 3085, 3062
4712, 3079, 3071, 3072
4713, 3069, 3070, 3060
4714, 3060, 2585, 3071
4715, 3076, 3075, 3675
4716, 3081, 2591, 3080
4717, 3067, 3079, 2590
4718, 3094, 3086, 3093
4719, 3085, 3066, 3062
4720, 3101, 3103, 3102
4721, 3085, 3065, 3074
4722, 3675, 3075, 3084
4723, 3084, 3083, 3675
4724, 3093, 3095, 3065
4725, 3076, 3675, 3078
4726, 3061, 3065, 3062
4727, 3079, 3067, 3069
4728, 3077, 3084, 3075
4729, 3080, 3079, 3072
4730, 3081, 3080, 3072
4731, 3080, 2591, 3052
4732, 3082, 3673, 3952
4733, 2591, 3081, 2592
4734, 3078, 3675, 3083
4735, 3072, 3952, 3081
4736, 3066, 3077, 2146
4737, 3075, 2146, 3077
4738, 3103, 3679, 3102
4739, 3074, 3084, 3085
4740, 3073, 3097, 3098
4741, 3057, 3093, 3065
4742, 3089, 3091, 3088
4743, 3074, 3088, 3083
4744, 3088, 3087, 3089
4745, 3110, 3099, 3064
4746, 3090, 3089, 3098
4747, 3068, 3089, 3090
4748, 3087, 3098, 3089
4749, 3091, 3068, 3102
4750, 3078, 3088, 3091
4751, 3068, 3090, 3101
4752, 3677, 3678, 3078
4753, 3094, 3093, 3057
4754, 3095, 3086, 3073
4755, 3056, 3094, 3057
4756, 3086, 3094, 2151
4757, 3097, 3099, 3090
4758, 3095, 3087, 3096
4759, 3095, 3096, 3065
4760, 3088, 3096, 3087
4761, 3073, 3087, 3095
4762, 3073, 3098, 3087
4763, 3097, 3090, 3098
4764, 3097, 3064, 3099
4765, 3101, 3106, 3103
4766, 3101, 3102, 3068
4767, 3104, 3103, 3109
4768, 3105, 3109, 3106
4769, 3112, 3106, 3110
4770, 3115, 3105, 3113
4771, 3677, 3679, 3676
4772, 3090, 3110, 3101
4773, 3104, 3059, 3676
4774, 3123, 3124, 3125
4775, 3112, 3113, 3105
4776, 3106, 3109, 3103
4777, 3110, 3090, 3099
4778, 3116, 3105, 3115
4779, 3107, 3113, 3112
4780, 3110, 3106, 3101
4781, 3105, 3116, 3109
4782, 3117, 3124, 3116
4783, 3109, 3123, 3104
4784, 3064, 3107, 3110
4785, 3112, 3110, 3107
4786, 3115, 3117, 3116
4787, 3111, 3124, 3117
4788, 3113, 3107, 3100
4789, 3106, 3112, 3105
4790, 3118, 3117, 3126
4791, 3682, 3111, 3131
4792, 3118, 3111, 3117
4793, 3117, 3115, 3126
4794, 3114, 3120, 3121
4795, 3111, 3118, 3131
4796, 3114, 3127, 3120
4797, 3121, 3113, 3100
4798, 3687, 3118, 3126
4799, 3681, 3111, 3682
4800, 3681, 3124, 3111
4801, 3123, 3125, 3104
4802, 3115, 3113, 3121
4803, 3127, 3114, 1532
4804, 3114, 3121, 3100
4805, 3121, 3120, 3126
4806, 4327, 4323, 4813
4807, 3955, 3957, 3682
4808, 3116, 3123, 3109
4809, 3123, 3116, 3124
4810, 3124, 3119, 3125
4811, 3125, 3059, 3104
4812, 3119, 3059, 3125
4813, 3121, 3126, 3115
4814, 3687, 3126, 3120
4815, 1532, 3130, 3127
4816, 3127, 3128, 3687
4817, 6310, 4322, 6307
4818, 3961, 3962, 3960
4819, 3686, 3680, 3955
4820, 3954, 3122, 3953
4821, 3686, 3128, 3963
4822, 4812, 4820, 4814
4823, 3130, 3128, 3127
4824, 3131, 3118, 3686
4825, 3134, 3136, 2628
4826, 3691, 3164, 2622
4827, 3134, 3135, 3137
4828, 3162, 3134, 2628
4829, 3135, 3134, 2629
4830, 2629, 2627, 3135
4831, 2620, 3135, 2627
4832, 3138, 3139, 3136
4833, 3133, 3136, 3137
4834, 3134, 3137, 3136
4835, 3133, 2160, 3138
4836, 3138, 2160, 3176
4837, 3141, 3174, 3694
4838, 3152, 3148, 2155
4839, 3143, 3140, 3139
4840, 3161, 3151, 3153
4841, 3160, 3165, 3170
4842, 3166, 3159, 3148
4843, 3140, 3143, 3145
4844, 3149, 3145, 3151
4845, 3156, 3178, 3170
4846, 3184, 3695, 3173
4847, 3185, 3186, 3697
4848, 3143, 3139, 3147
4849, 3143, 3144, 3145
4850, 3145, 3152, 3151
4851, 3173, 3171, 3150
4852, 3178, 3156, 3147
4853, 3165, 3166, 3156
4854, 3167, 3166, 3148
4855, 3145, 3144, 3148
4856, 3142, 3153, 3151
4857, 3145, 3148, 3152
4858, 2628, 3140, 3149
4859, 2155, 3142, 3152
4860, 3147, 3167, 3144
4861, 3161, 3153, 3154
4862, 3151, 3152, 3142
4863, 3142, 2623, 3153
4864, 3158, 3157, 3693
4865, 3163, 2629, 3162
4866, 3149, 3161, 2628
4867, 3176, 3168, 3175
4868, 3167, 3148, 3144
4869, 3183, 3185, 3184
4870, 3167, 3147, 3156
4871, 3693, 3157, 3166
4872, 3166, 3165, 3693
4873, 3175, 3177, 3147
4874, 3158, 3693, 3160
4875, 3143, 3147, 3144
4876, 3161, 3149, 3151
4877, 3159, 3166, 3157
4878, 3162, 3161, 3154
4879, 3163, 3162, 3154
4880, 3162, 2629, 3134
4881, 3164, 3691, 3965
4882, 2629, 3163, 2630
4883, 3160, 3693, 3165
4884, 3154, 3965, 3163
4885, 3148, 3159, 2155
4886, 3157, 2155, 3159
4887, 3185, 3697, 3184
4888, 3156, 3166, 3167
4889, 3155, 3179, 3180
4890, 3139, 3175, 3147
4891, 3171, 3173, 3170
4892, 3156, 3170, 3165
4893, 3170, 3169, 3171
4894, 3192, 3181, 3146
4895, 3172, 3171, 3180
4896, 3150, 3171, 3172
4897, 3169, 3180, 3171
4898, 3173, 3150, 3184
4899, 3160, 3170, 3173
4900, 3150, 3172, 3183
4901, 3695, 3696, 3160
4902, 3176, 3175, 3139
4903, 3177, 3168, 3155
4904, 3138, 3176, 3139
4905, 3168, 3176, 2160
4906, 3179, 3181, 3172
4907, 3177, 3169, 3178
4908, 3177, 3178, 3147
4909, 3170, 3178, 3169
4910, 3155, 3169, 3177
4911, 3155, 3180, 3169
4912, 3179, 3172, 3180
4913, 3179, 3146, 3181
4914, 3183, 3188, 3185
4915, 3183, 3184, 3150
4916, 3186, 3185, 3191
4917, 3187, 3191, 3188
4918, 3194, 3188, 3192
4919, 3197, 3187, 3195
4920, 3695, 3697, 3694
4921, 3172, 3192, 3183
4922, 3186, 3141, 3694
4923, 3205, 3206, 3207
4924, 3194, 3195, 3187
4925, 3188, 3191, 3185
4926, 3192, 3172, 3181
4927, 3198, 3187, 3197
4928, 3189, 3195, 3194
4929, 3192, 3188, 3183
4930, 3187, 3198, 3191
4931, 3199, 3206, 3198
4932, 3191, 3205, 3186
4933, 3146, 3189, 3192
4934, 3194, 3192, 3189
4935, 3197, 3199, 3198
4936, 3193, 3206, 3199
4937, 3195, 3189, 3182
4938, 3188, 3194, 3187
4939, 3200, 3199, 3208
4940, 3700, 3193, 3213
4941, 3200, 3193, 3199
4942, 3199, 3197, 3208
4943, 3196, 3202, 3203
4944, 3193, 3200, 3213
4945, 3196, 3209, 3202
4946, 3203, 3195, 3182
4947, 3705, 3200, 3208
4948, 3699, 3193, 3700
4949, 3699, 3206, 3193
4950, 3205, 3207, 3186
4951, 3197, 3195, 3203
4952, 3209, 3196, 1533
4953, 3196, 3203, 3182
4954, 3203, 3202, 3208
4955, 4336, 4332, 4822
4956, 3968, 3970, 3700
4957, 3198, 3205, 3191
4958, 3205, 3198, 3206
4959, 3206, 3201, 3207
4960, 3207, 3141, 3186
4961, 3201, 3141, 3207
4962, 3203, 3208, 3197
4963, 3705, 3208, 3202
4964, 1533, 3212, 3209
4965, 3209, 3210, 3705
4966, 6354, 4331, 6351
4967, 3974, 3975, 3973
4968, 3704, 3698, 3968
4969, 3967, 3204, 3966
4970, 3704, 3210, 3976
4971, 4821, 4829, 4823
4972, 3212, 3210, 3209
4973, 3213, 3200, 3704
4974, 3215, 3214, 416
4975, 3226, 2633, 3222
4976, 3217, 2228, 2233
4977, 3214, 3215, 2633
4978, 1061, 3218, 3216
4979, 3216, 3218, 3220
4980, 3215, 3217, 2633
4981, 2233, 3216, 3217
4982, 1061, 1062, 3218
4983, 3220, 3218, 1062
4984, 3220, 1062, 3221
4985, 3214, 3226, 417
4986, 3221, 1062, 1063
4987, 3220, 3219, 3222
4988, 3225, 3221, 1063
4989, 3219, 3220, 3221
4990, 3222, 3219, 3224
4991, 2633, 3216, 3222
4992, 3225, 1063, 3229
4993, 3231, 418, 3227
4994, 3227, 3224, 3219
4995, 3228, 417, 3224
4996, 3229, 1063, 1064
4997, 3230, 3225, 3223
4998, 2633, 3226, 3214
4999, 3222, 3224, 3226
5000, 3230, 3227, 3219
5001, 418, 3231, 419
5002, 3235, 3234, 3229
5003, 3227, 3228, 3224
5004, 3223, 3225, 3229
5005, 3230, 3223, 3232
5006, 3221, 3230, 3219
5007, 3232, 3227, 3230
5008, 3223, 3234, 3239
5009, 3232, 3223, 3239
5010, 3227, 3232, 3231
5011, 3233, 3234, 3235
5012, 3244, 3236, 3241
5013, 3235, 3229, 1064
5014, 3234, 3233, 3236
5015, 3251, 3237, 1065
5016, 3237, 3238, 3240
5017, 3241, 3236, 3233
5018, 3231, 3242, 419
5019, 3247, 1066, 3252
5020, 3235, 1064, 3237
5021, 3259, 3241, 3243
5022, 3234, 3236, 3239
5023, 3236, 3242, 3239
5024, 3237, 3240, 3235
5025, 3243, 3240, 3238
5026, 3233, 3240, 3243
5027, 3244, 419, 3242
5028, 3239, 3242, 3231
5029, 3244, 3242, 3236
5030, 3246, 3243, 3238
5031, 3254, 3259, 3255
5032, 3249, 3250, 3260
5033, 3241, 420, 3244
5034, 3258, 3245, 3257
5035, 3246, 3238, 3251
5036, 3248, 3246, 3245
5037, 3251, 1065, 3247
5038, 3252, 3251, 3247
5039, 3257, 3245, 3256
5040, 3248, 421, 3254
5041, 3251, 3249, 3246
5042, 3252, 3250, 3249
5043, 1067, 3263, 3264
5044, 3261, 3263, 3706
5045, 3237, 3251, 3238
5046, 3250, 3252, 1066
5047, 3251, 3252, 3249
5048, 3256, 3245, 3260
5049, 3248, 3258, 421
5050, 421, 420, 3254
5051, 420, 3241, 3259
5052, 3246, 3255, 3243
5053, 3248, 3254, 3255
5054, 3263, 3261, 3262
5055, 3720, 3718, 3256
5056, 3257, 3253, 3258
5057, 421, 3258, 3253
5058, 3245, 3258, 3248
5059, 3255, 3259, 3243
5060, 420, 3259, 3254
5061, 3249, 3260, 3245
5062, 3262, 3260, 3250
5063, 3706, 3708, 3261
5064, 3261, 3708, 3716
5065, 3263, 3262, 3250
5066, 3720, 3261, 3716
5067, 3264, 3250, 1066
5068, 3263, 1067, 3706
5069, 3265, 3266, 259
5070, 3250, 3264, 3263
5071, 3266, 3265, 2646
5072, 2651, 3266, 2646
5073, 2663, 2676, 3269
5074, 2658, 3267, 2654
5075, 3272, 3271, 261
5076, 3270, 3274, 3733
5077, 3268, 3269, 3274
5078, 3733, 3734, 8170
5079, 262, 3274, 3270
5080, 2666, 3272, 261
5081, 3268, 262, 3271
5082, 2668, 3268, 3272
5083, 2673, 3722, 3721
5084, 3721, 3723, 3273
5085, 3733, 3269, 2675
5086, 464, 3276, 465
5087, 2674, 3275, 2673
5088, 2810, 3276, 2678
5089, 3736, 3277, 3735
5090, 3837, 3450, 3459
5091, 2678, 3278, 2809
5092, 3448, 3278, 3277
5093, 1895, 3279, 1896
5094, 3280, 3279, 1892
5095, 1893, 3280, 1892
5096, 2252, 3280, 1791
5097, 305, 3281, 306
5098, 2845, 3281, 2681
5099, 3738, 3282, 3737
5100, 3858, 3489, 3498
5101, 2681, 3283, 2844
5102, 3487, 3283, 3282
5103, 1905, 3284, 1906
5104, 3285, 3284, 1902
5105, 1903, 3285, 1902
5106, 2254, 3285, 1796
5107, 623, 3286, 624
5108, 2852, 3286, 2684
5109, 3740, 3287, 3739
5110, 3862, 3511, 3520
5111, 2684, 3288, 2851
5112, 3509, 3288, 3287
5113, 1915, 3289, 1916
5114, 3290, 3289, 1912
5115, 1913, 3290, 1912
5116, 2256, 3290, 1801
5117, 146, 3291, 147
5118, 2866, 3291, 2687
5119, 3742, 3292, 3741
5120, 3921, 3616, 3625
5121, 2687, 3293, 2865
5122, 3614, 3293, 3292
5123, 1925, 3294, 1926
5124, 3295, 3294, 1922
5125, 1923, 3295, 1922
5126, 2258, 3295, 1806
5127, 3297, 3296, 378
5128, 3298, 3296, 2702
5129, 378, 377, 3297
5130, 3297, 377, 3308
5131, 3301, 3298, 2702
5132, 3298, 2704, 3299
5133, 2703, 3299, 2704
5134, 2304, 3299, 2309
5135, 3306, 3305, 3301
5136, 3302, 3300, 2704
5137, 1020, 1021, 3304
5138, 3300, 3302, 1021
5139, 2704, 3301, 3302
5140, 3303, 3305, 3306
5141, 3319, 3326, 3317
5142, 3302, 3304, 1021
5143, 3305, 3304, 3301
5144, 3306, 3301, 2702
5145, 3305, 3303, 3307
5146, 3308, 2702, 3297
5147, 377, 3311, 3308
5148, 3312, 3307, 3303
5149, 3310, 1020, 3307
5150, 3311, 377, 376
5151, 2702, 3308, 3306
5152, 3315, 3313, 3303
5153, 3326, 3329, 3317
5154, 3329, 3312, 3313
5155, 3307, 3312, 3314
5156, 3306, 3315, 3303
5157, 3313, 3312, 3303
5158, 3312, 3309, 3314
5159, 3311, 376, 3316
5160, 3316, 376, 3317
5161, 1019, 3310, 3314
5162, 3314, 3310, 3307
5163, 3308, 3315, 3306
5164, 3315, 3311, 3316
5165, 3317, 376, 375
5166, 3315, 3316, 3313
5167, 3317, 375, 3319
5168, 3313, 3316, 3317
5169, 3319, 3320, 3324
5170, 3323, 3322, 374
5171, 3320, 3319, 375
5172, 3319, 3318, 3326
5173, 375, 374, 3320
5174, 3320, 374, 3322
5175, 3330, 3346, 3344
5176, 3324, 3325, 3332
5177, 3323, 374, 373
5178, 3324, 3322, 3321
5179, 3323, 373, 3331
5180, 3321, 3322, 3323
5181, 3325, 3324, 3321
5182, 3324, 3318, 3319
5183, 3346, 3323, 3331
5184, 3325, 3334, 3336
5185, 3328, 3318, 3332
5186, 3329, 3326, 3309
5187, 3331, 3340, 3342
5188, 3743, 3341, 3343
5189, 3328, 1018, 3337
5190, 3318, 3328, 3338
5191, 3312, 3329, 3309
5192, 3317, 3329, 3313
5193, 3350, 3345, 3347
5194, 1017, 3333, 3336
5195, 3340, 3331, 373
5196, 3331, 3342, 3344
5197, 3324, 3332, 3318
5198, 3336, 3334, 1017
5199, 3325, 3339, 3334
5200, 3328, 3336, 1018
5201, 3335, 3334, 3330
5202, 3330, 3344, 3345
5203, 3349, 3348, 1017
5204, 1018, 3336, 3333
5205, 3332, 3336, 3328
5206, 1018, 1019, 3337
5207, 3337, 1019, 3314
5208, 3314, 3338, 3337
5209, 3309, 3326, 3338
5210, 3339, 3321, 3346
5211, 3334, 3339, 3330
5212, 373, 372, 3340
5213, 3340, 372, 3343
5214, 3743, 3746, 3341
5215, 3347, 3327, 3752
5216, 3343, 3342, 3340
5217, 3752, 3342, 3341
5218, 3743, 3343, 372
5219, 3342, 3343, 3341
5220, 3345, 3344, 3327
5221, 3330, 3339, 3346
5222, 3345, 3327, 3347
5223, 3330, 3345, 3335
5224, 3323, 3346, 3321
5225, 3331, 3344, 3346
5226, 3327, 3342, 3752
5227, 1016, 3350, 3755
5228, 3334, 3335, 3349
5229, 3350, 3348, 3335
5230, 3348, 3349, 3335
5231, 3345, 3350, 3335
5232, 3755, 3350, 3347
5233, 3352, 3351, 537
5234, 3353, 3351, 2706
5235, 537, 536, 3352
5236, 3352, 536, 3363
5237, 3356, 3353, 2706
5238, 3353, 2708, 3354
5239, 2707, 3354, 2708
5240, 2332, 3354, 2337
5241, 3361, 3360, 3356
5242, 3357, 3355, 2708
5243, 1183, 1184, 3359
5244, 3355, 3357, 1184
5245, 2708, 3356, 3357
5246, 3358, 3360, 3361
5247, 3374, 3381, 3372
5248, 3357, 3359, 1184
5249, 3360, 3359, 3356
5250, 3361, 3356, 2706
5251, 3360, 3358, 3362
5252, 3363, 2706, 3352
5253, 536, 3366, 3363
5254, 3367, 3362, 3358
5255, 3365, 1183, 3362
5256, 3366, 536, 535
5257, 2706, 3363, 3361
5258, 3370, 3368, 3358
5259, 3381, 3384, 3372
5260, 3384, 3367, 3368
5261, 3362, 3367, 3369
5262, 3361, 3370, 3358
5263, 3368, 3367, 3358
5264, 3367, 3364, 3369
5265, 3366, 535, 3371
5266, 3371, 535, 3372
5267, 1182, 3365, 3369
5268, 3369, 3365, 3362
5269, 3363, 3370, 3361
5270, 3370, 3366, 3371
5271, 3372, 535, 534
5272, 3370, 3371, 3368
5273, 3372, 534, 3374
5274, 3368, 3371, 3372
5275, 3374, 3375, 3379
5276, 3378, 3377, 533
5277, 3375, 3374, 534
5278, 3374, 3373, 3381
5279, 534, 533, 3375
5280, 3375, 533, 3377
5281, 3385, 3401, 3399
5282, 3379, 3380, 3387
5283, 3378, 533, 532
5284, 3379, 3377, 3376
5285, 3378, 532, 3386
5286, 3376, 3377, 3378
5287, 3380, 3379, 3376
5288, 3379, 3373, 3374
5289, 3401, 3378, 3386
5290, 3380, 3389, 3391
5291, 3383, 3373, 3387
5292, 3384, 3381, 3364
5293, 3386, 3395, 3397
5294, 3756, 3396, 3398
5295, 3383, 1181, 3392
5296, 3373, 3383, 3393
5297, 3367, 3384, 3364
5298, 3372, 3384, 3368
5299, 3405, 3400, 3402
5300, 1180, 3388, 3391
5301, 3395, 3386, 532
5302, 3386, 3397, 3399
5303, 3379, 3387, 3373
5304, 3391, 3389, 1180
5305, 3380, 3394, 3389
5306, 3383, 3391, 1181
5307, 3390, 3389, 3385
5308, 3385, 3399, 3400
5309, 3404, 3403, 1180
5310, 1181, 3391, 3388
5311, 3387, 3391, 3383
5312, 1181, 1182, 3392
5313, 3392, 1182, 3369
5314, 3369, 3393, 3392
5315, 3364, 3381, 3393
5316, 3394, 3376, 3401
5317, 3389, 3394, 3385
5318, 532, 531, 3395
5319, 3395, 531, 3398
5320, 3756, 3759, 3396
5321, 3402, 3382, 3765
5322, 3398, 3397, 3395
5323, 3765, 3397, 3396
5324, 3756, 3398, 531
5325, 3397, 3398, 3396
5326, 3400, 3399, 3382
5327, 3385, 3394, 3401
5328, 3400, 3382, 3402
5329, 3385, 3400, 3390
5330, 3378, 3401, 3376
5331, 3386, 3399, 3401
5332, 3382, 3397, 3765
5333, 1179, 3405, 3768
5334, 3389, 3390, 3404
5335, 3405, 3403, 3390
5336, 3403, 3404, 3390
5337, 3400, 3405, 3390
5338, 3768, 3405, 3402
5339, 3408, 3406, 3407
5340, 3408, 3410, 3406
5341, 3408, 3407, 983
5342, 2738, 3407, 3406
5343, 983, 984, 3408
5344, 984, 3409, 3410
5345, 984, 3769, 3409
5346, 3777, 3775, 4067
5347, 984, 3410, 3408
5348, 3410, 3409, 3411
5349, 4067, 3411, 3409
5350, 3411, 2739, 3779
5351, 2741, 3412, 2740
5352, 3410, 3412, 3406
5353, 3413, 3779, 3780
5354, 3781, 3413, 3785
5355, 3416, 3414, 3415
5356, 3416, 3418, 3414
5357, 3416, 3415, 820
5358, 2759, 3415, 3414
5359, 820, 821, 3416
5360, 821, 3417, 3418
5361, 821, 3786, 3417
5362, 3794, 3792, 4097
5363, 821, 3418, 3416
5364, 3418, 3417, 3419
5365, 4097, 3419, 3417
5366, 3419, 2760, 3796
5367, 2762, 3420, 2761
5368, 3418, 3420, 3414
5369, 3421, 3796, 3797
5370, 3798, 3421, 3802
5371, 3424, 3422, 3423
5372, 3424, 3426, 3422
5373, 3424, 3423, 1146
5374, 2780, 3423, 3422
5375, 1146, 1147, 3424
5376, 1147, 3425, 3426
5377, 1147, 3803, 3425
5378, 3811, 3809, 4127
5379, 1147, 3426, 3424
5380, 3426, 3425, 3427
5381, 4127, 3427, 3425
5382, 3427, 2781, 3813
5383, 2783, 3428, 2782
5384, 3426, 3428, 3422
5385, 3429, 3813, 3814
5386, 3815, 3429, 3819
5387, 3432, 3430, 3431
5388, 3432, 3434, 3430
5389, 3432, 3431, 657
5390, 2801, 3431, 3430
5391, 657, 658, 3432
5392, 658, 3433, 3434
5393, 658, 3820, 3433
5394, 3828, 3826, 4157
5395, 658, 3434, 3432
5396, 3434, 3433, 3435
5397, 4157, 3435, 3433
5398, 3435, 2802, 3830
5399, 2804, 3436, 2803
5400, 3434, 3436, 3430
5401, 3437, 3830, 3831
5402, 3832, 3437, 3836
5403, 2415, 2807, 3439
5404, 3438, 2811, 3440
5405, 3277, 3458, 3448
5406, 2811, 3438, 3439
5407, 3443, 3440, 2811
5408, 1106, 3440, 3442
5409, 3447, 3443, 3445
5410, 3451, 4184, 3453
5411, 3443, 3442, 3440
5412, 3456, 3442, 3441
5413, 3445, 3443, 2811
5414, 3442, 3443, 3441
5415, 3445, 3449, 3444
5416, 3451, 3444, 3838
5417, 3449, 2811, 3446
5418, 3445, 3444, 3447
5419, 3448, 2811, 3439
5420, 3450, 3458, 3736
5421, 3837, 3838, 3444
5422, 3447, 3444, 3451
5423, 3448, 2111, 3278
5424, 2811, 3448, 3446
5425, 2811, 3449, 3445
5426, 3446, 3458, 3450
5427, 3837, 3459, 462
5428, 3444, 3449, 3450
5429, 460, 3839, 4183
5430, 4182, 3451, 3838
5431, 4189, 4187, 3839
5432, 3441, 3453, 3454
5433, 3451, 3453, 3447
5434, 3453, 3452, 4186
5435, 4186, 4185, 4194
5436, 3457, 1104, 1105
5437, 1107, 3438, 3455
5438, 3440, 3455, 3438
5439, 3441, 3454, 3456
5440, 3454, 4194, 3457
5441, 1105, 3456, 3457
5442, 3454, 3457, 3456
5443, 3448, 3458, 3446
5444, 3458, 3277, 3736
5445, 2828, 3461, 860
5446, 3450, 463, 3459
5447, 3475, 3460, 2825
5448, 2820, 3461, 2827
5449, 2829, 2839, 3463
5450, 857, 3462, 3464
5451, 3470, 2836, 2837
5452, 857, 3464, 856
5453, 3462, 3463, 3464
5454, 3463, 3466, 3473
5455, 4209, 4210, 3846
5456, 856, 3464, 3471
5457, 217, 3469, 3470
5458, 3466, 3465, 3472
5459, 3465, 3466, 3467
5460, 3466, 2836, 3470
5461, 3468, 3472, 3841
5462, 856, 3468, 3842
5463, 3470, 2837, 217
5464, 3469, 3467, 3470
5465, 3466, 3470, 3467
5466, 3463, 3471, 3464
5467, 3468, 856, 3471
5468, 3841, 3472, 3465
5469, 3473, 3468, 3471
5470, 3472, 3473, 3466
5471, 3471, 3463, 3473
5472, 3476, 2825, 2821
5473, 3462, 3474, 2834
5474, 3474, 3475, 2834
5475, 3476, 2821, 2832
5476, 2834, 3475, 3476
5477, 2444, 2842, 3478
5478, 3477, 2846, 3479
5479, 3282, 3497, 3487
5480, 2846, 3477, 3478
5481, 3482, 3479, 2846
5482, 943, 3479, 3481
5483, 3486, 3482, 3484
5484, 3490, 4218, 3492
5485, 3482, 3481, 3479
5486, 3495, 3481, 3480
5487, 3484, 3482, 2846
5488, 3481, 3482, 3480
5489, 3484, 3488, 3483
5490, 3490, 3483, 3859
5491, 3488, 2846, 3485
5492, 3484, 3483, 3486
5493, 3487, 2846, 3478
5494, 3489, 3497, 3738
5495, 3858, 3859, 3483
5496, 3486, 3483, 3490
5497, 3487, 2115, 3283
5498, 2846, 3487, 3485
5499, 2846, 3488, 3484
5500, 3485, 3497, 3489
5501, 3858, 3498, 303
5502, 3483, 3488, 3489
5503, 301, 3860, 4217
5504, 4216, 3490, 3859
5505, 4223, 4221, 3860
5506, 3480, 3492, 3493
5507, 3490, 3492, 3486
5508, 3492, 3491, 4220
5509, 4220, 4219, 4228
5510, 3496, 941, 942
5511, 944, 3477, 3494
5512, 3479, 3494, 3477
5513, 3480, 3493, 3495
5514, 3493, 4228, 3496
5515, 942, 3495, 3496
5516, 3493, 3496, 3495
5517, 3487, 3497, 3485
5518, 3497, 3282, 3738
5519, 2445, 2849, 3500
5520, 3489, 304, 3498
5521, 3499, 2853, 3501
5522, 3287, 3519, 3509
5523, 2853, 3499, 3500
5524, 3504, 3501, 2853
5525, 1269, 3501, 3503
5526, 3508, 3504, 3506
5527, 3512, 4245, 3514
5528, 3504, 3503, 3501
5529, 3517, 3503, 3502
5530, 3506, 3504, 2853
5531, 3503, 3504, 3502
5532, 3506, 3510, 3505
5533, 3512, 3505, 3863
5534, 3510, 2853, 3507
5535, 3506, 3505, 3508
5536, 3509, 2853, 3500
5537, 3511, 3519, 3740
5538, 3862, 3863, 3505
5539, 3508, 3505, 3512
5540, 3509, 2116, 3288
5541, 2853, 3509, 3507
5542, 2853, 3510, 3506
5543, 3507, 3519, 3511
5544, 3862, 3520, 621
5545, 3505, 3510, 3511
5546, 619, 3864, 4244
5547, 4243, 3512, 3863
5548, 4250, 4248, 3864
5549, 3502, 3514, 3515
5550, 3512, 3514, 3508
5551, 3514, 3513, 4247
5552, 4247, 4246, 4255
5553, 3518, 1267, 1268
5554, 1270, 3499, 3516
5555, 3501, 3516, 3499
5556, 3502, 3515, 3517
5557, 3515, 4255, 3518
5558, 1268, 3517, 3518
5559, 3515, 3518, 3517
5560, 3509, 3519, 3507
5561, 3519, 3287, 3740
5562, 1225, 1226, 3521
5563, 3511, 622, 3520
5564, 3524, 3523, 3521
5565, 3524, 3525, 3526
5566, 3522, 3524, 3526
5567, 3524, 3521, 1226
5568, 3527, 3523, 3522
5569, 3526, 3525, 1227
5570, 3522, 3523, 3524
5571, 3866, 1228, 3545
5572, 3524, 1226, 3525
5573, 579, 3537, 3867
5574, 3527, 3522, 3529
5575, 3527, 577, 3532
5576, 3540, 3552, 3544
5577, 578, 3529, 3536
5578, 3533, 3539, 3538
5579, 3522, 3526, 3538
5580, 3538, 3526, 3533
5581, 579, 3530, 3535
5582, 3542, 576, 3532
5583, 3529, 3531, 3527
5584, 3543, 576, 2459
5585, 3866, 3533, 1227
5586, 3533, 3528, 3539
5587, 3535, 3530, 3536
5588, 3530, 578, 3536
5589, 3535, 3534, 3544
5590, 3538, 3529, 3522
5591, 3534, 3535, 3536
5592, 3544, 3539, 3540
5593, 3528, 3545, 3540
5594, 3534, 3536, 3538
5595, 3538, 3536, 3529
5596, 3539, 3528, 3540
5597, 3534, 3538, 3539
5598, 3546, 3545, 1228
5599, 3551, 3546, 3548
5600, 3527, 3541, 3523
5601, 3543, 3541, 3532
5602, 3541, 3543, 2859
5603, 3532, 577, 3542
5604, 576, 3543, 3532
5605, 3535, 3544, 3537
5606, 3539, 3544, 3534
5607, 3866, 3545, 3528
5608, 3546, 1228, 1229
5609, 3546, 1229, 3548
5610, 3545, 3546, 3551
5611, 3548, 3550, 3562
5612, 3556, 3555, 1230
5613, 3550, 3548, 1229
5614, 3562, 3553, 3548
5615, 3540, 3545, 3551
5616, 3547, 3559, 3560
5617, 1229, 1230, 3550
5618, 3550, 1230, 3555
5619, 3553, 3551, 3548
5620, 3552, 3551, 3549
5621, 3551, 3552, 3540
5622, 3868, 3552, 3549
5623, 3565, 3553, 3547
5624, 3551, 3553, 3549
5625, 3568, 3556, 3566
5626, 3558, 3563, 3559
5627, 3556, 1230, 1231
5628, 3557, 3555, 3554
5629, 3566, 3556, 1231
5630, 3554, 3555, 3556
5631, 3570, 3559, 3554
5632, 3553, 3562, 3547
5633, 3554, 3556, 3568
5634, 3558, 3573, 3574
5635, 3554, 3559, 3557
5636, 3558, 3574, 3563
5637, 3869, 580, 3868
5638, 3553, 3565, 3549
5639, 3567, 3566, 1231
5640, 3585, 1232, 3586
5641, 3555, 3562, 3550
5642, 3547, 3562, 3557
5643, 581, 3560, 3563
5644, 3559, 3563, 3560
5645, 3547, 3560, 3565
5646, 3560, 581, 3564
5647, 3565, 3560, 3869
5648, 3567, 1231, 1232
5649, 3566, 3561, 3568
5650, 3585, 3581, 3567
5651, 3566, 3567, 3581
5652, 3568, 3561, 3571
5653, 3554, 3568, 3570
5654, 3569, 3571, 3572
5655, 3569, 3575, 3576
5656, 3571, 3570, 3568
5657, 3573, 3569, 582
5658, 3572, 3571, 3561
5659, 3570, 3571, 3569
5660, 3580, 3581, 3578
5661, 3870, 3572, 3579
5662, 3558, 3570, 3573
5663, 3569, 3573, 3570
5664, 3569, 3572, 3575
5665, 3573, 582, 3574
5666, 3870, 3579, 3577
5667, 3572, 3561, 3580
5668, 3575, 583, 3576
5669, 3592, 3595, 3584
5670, 3584, 3591, 3590
5671, 3579, 584, 3577
5672, 3582, 3584, 3579
5673, 3581, 3580, 3561
5674, 3582, 3580, 3578
5675, 3566, 3581, 3561
5676, 3567, 1232, 3585
5677, 3591, 3578, 3585
5678, 3572, 3582, 3579
5679, 3587, 3589, 3596
5680, 3600, 3593, 3599
5681, 3578, 3584, 3582
5682, 3584, 3590, 3592
5683, 3586, 1232, 1233
5684, 3578, 3581, 3585
5685, 3587, 3586, 1233
5686, 3585, 3586, 3591
5687, 3589, 3587, 1233
5688, 3590, 3583, 3592
5689, 3597, 3600, 3583
5690, 3595, 3594, 584
5691, 1233, 1234, 3589
5692, 3598, 3881, 3596
5693, 3591, 3584, 3578
5694, 3596, 3590, 3587
5695, 3586, 3587, 3591
5696, 3590, 3591, 3587
5697, 3600, 3592, 3583
5698, 3595, 3592, 3588
5699, 3590, 3596, 3583
5700, 3920, 586, 3602
5701, 3594, 3595, 3588
5702, 3588, 585, 3594
5703, 584, 3579, 3595
5704, 3603, 3589, 1234
5705, 3583, 3596, 3597
5706, 3589, 3603, 3596
5707, 3881, 3874, 3873
5708, 3871, 3598, 3603
5709, 3884, 3873, 3882
5710, 3588, 3592, 3600
5711, 3601, 3599, 3593
5712, 3593, 3600, 3597
5713, 3588, 3600, 3599
5714, 3601, 3593, 3884
5715, 585, 3601, 586
5716, 3593, 3597, 3881
5717, 3598, 3871, 3874
5718, 3871, 3603, 1234
5719, 3596, 3603, 3598
5720, 2462, 2863, 3605
5721, 3604, 2867, 3606
5722, 3292, 3624, 3614
5723, 2867, 3604, 3605
5724, 3609, 3606, 2867
5725, 780, 3606, 3608
5726, 3613, 3609, 3611
5727, 3617, 4279, 3619
5728, 3609, 3608, 3606
5729, 3622, 3608, 3607
5730, 3611, 3609, 2867
5731, 3608, 3609, 3607
5732, 3611, 3615, 3610
5733, 3617, 3610, 3922
5734, 3615, 2867, 3612
5735, 3611, 3610, 3613
5736, 3614, 2867, 3605
5737, 3616, 3624, 3742
5738, 3921, 3922, 3610
5739, 3613, 3610, 3617
5740, 3614, 2118, 3293
5741, 2867, 3614, 3612
5742, 2867, 3615, 3611
5743, 3612, 3624, 3616
5744, 3921, 3625, 144
5745, 3610, 3615, 3616
5746, 142, 3923, 4278
5747, 4277, 3617, 3922
5748, 4284, 4282, 3923
5749, 3607, 3619, 3620
5750, 3617, 3619, 3613
5751, 3619, 3618, 4281
5752, 4281, 4280, 4289
5753, 3623, 778, 779
5754, 781, 3604, 3621
5755, 3606, 3621, 3604
5756, 3607, 3620, 3622
5757, 3620, 4289, 3623
5758, 779, 3622, 3623
5759, 3620, 3623, 3622
5760, 3614, 3624, 3612
5761, 3624, 3292, 3742
5762, 3628, 3627, 2881
5763, 3616, 145, 3625
5764, 2885, 3626, 2884
5765, 2876, 2884, 3627
5766, 3629, 3628, 2881
5767, 3628, 697, 3633
5768, 2881, 8116, 3631
5769, 697, 3629, 696
5770, 2881, 3627, 8081
5771, 8083, 8085, 8081
5772, 2881, 3631, 3629
5773, 3632, 3631, 3630
5774, 3630, 8097, 8090
5775, 696, 3632, 695
5776, 2877, 3633, 697
5777, 2876, 3633, 2880
5778, 3636, 3634, 2491
5779, 3635, 3634, 2886
5780, 2886, 2131, 3635
5781, 2131, 7838, 3635
5782, 1470, 2886, 3636
5783, 3634, 3636, 2886
5784, 2917, 3637, 2516
5785, 2509, 3925, 2908
5786, 3636, 2918, 1470
5787, 2491, 2918, 3636
5788, 3640, 2928, 3641
5789, 2918, 3638, 1470
5790, 3642, 3641, 2928
5791, 2927, 3641, 2914
5792, 2928, 2912, 3642
5793, 2914, 3642, 2912
5794, 3640, 3643, 2940
5795, 2938, 3643, 3641
5796, 3927, 2958, 3929
5797, 2944, 2955, 3645
5798, 2960, 3645, 2955
5799, 3650, 3929, 2967
5800, 2944, 3645, 3646
5801, 3935, 3927, 3644
5802, 4305, 4309, 4306
5803, 1530, 3649, 4306
5804, 3651, 3650, 2954
5805, 2963, 3651, 2956
5806, 3650, 3651, 2964
5807, 3654, 3652, 2529
5808, 3653, 3652, 2968
5809, 2968, 2140, 3653
5810, 2140, 7841, 3653
5811, 1471, 2968, 3654
5812, 3652, 3654, 2968
5813, 2999, 3655, 2554
5814, 2547, 3938, 2990
5815, 3654, 3000, 1471
5816, 2529, 3000, 3654
5817, 3658, 3010, 3659
5818, 3000, 3656, 1471
5819, 3660, 3659, 3010
5820, 3009, 3659, 2996
5821, 3010, 2994, 3660
5822, 2996, 3660, 2994
5823, 3658, 3661, 3022
5824, 3020, 3661, 3659
5825, 3940, 3040, 3942
5826, 3026, 3037, 3663
5827, 3042, 3663, 3037
5828, 3668, 3942, 3049
5829, 3026, 3663, 3664
5830, 3948, 3940, 3662
5831, 4314, 4318, 4315
5832, 1531, 3667, 4315
5833, 3669, 3668, 3036
5834, 3045, 3669, 3038
5835, 3668, 3669, 3046
5836, 3672, 3670, 2567
5837, 3671, 3670, 3050
5838, 3050, 2149, 3671
5839, 2149, 7844, 3671
5840, 1472, 3050, 3672
5841, 3670, 3672, 3050
5842, 3081, 3673, 2592
5843, 2585, 3951, 3072
5844, 3672, 3082, 1472
5845, 2567, 3082, 3672
5846, 3676, 3092, 3677
5847, 3082, 3674, 1472
5848, 3678, 3677, 3092
5849, 3091, 3677, 3078
5850, 3092, 3076, 3678
5851, 3078, 3678, 3076
5852, 3676, 3679, 3104
5853, 3102, 3679, 3677
5854, 3953, 3122, 3955
5855, 3108, 3119, 3681
5856, 3124, 3681, 3119
5857, 3686, 3955, 3131
5858, 3108, 3681, 3682
5859, 3961, 3953, 3680
5860, 4323, 4327, 4324
5861, 1532, 3685, 4324
5862, 3687, 3686, 3118
5863, 3127, 3687, 3120
5864, 3686, 3687, 3128
5865, 3690, 3688, 2605
5866, 3689, 3688, 3132
5867, 3132, 2158, 3689
5868, 2158, 7847, 3689
5869, 1473, 3132, 3690
5870, 3688, 3690, 3132
5871, 3163, 3691, 2630
5872, 2623, 3964, 3154
5873, 3690, 3164, 1473
5874, 2605, 3164, 3690
5875, 3694, 3174, 3695
5876, 3164, 3692, 1473
5877, 3696, 3695, 3174
5878, 3173, 3695, 3160
5879, 3174, 3158, 3696
5880, 3160, 3696, 3158
5881, 3694, 3697, 3186
5882, 3184, 3697, 3695
5883, 3966, 3204, 3968
5884, 3190, 3201, 3699
5885, 3206, 3699, 3201
5886, 3704, 3968, 3213
5887, 3190, 3699, 3700
5888, 3974, 3966, 3698
5889, 4332, 4336, 4333
5890, 1533, 3703, 4333
5891, 3705, 3704, 3200
5892, 3209, 3705, 3202
5893, 3704, 3705, 3210
5894, 1067, 1068, 3706
5895, 3709, 3708, 3706
5896, 3710, 3709, 1068
5897, 3988, 4340, 1070
5898, 3709, 3706, 1068
5899, 3708, 3713, 3715
5900, 3710, 1068, 1069
5901, 3708, 3709, 3713
5902, 1069, 4340, 3714
5903, 3713, 3707, 3715
5904, 3711, 3715, 3977
5905, 3716, 3711, 3717
5906, 3987, 425, 3985
5907, 3707, 3980, 3977
5908, 3709, 3710, 3713
5909, 3714, 3713, 3710
5910, 1069, 3714, 3710
5911, 3712, 3978, 3981
5912, 3977, 3715, 3707
5913, 3716, 3715, 3711
5914, 3717, 3711, 423
5915, 3720, 3262, 3261
5916, 422, 3718, 3719
5917, 3257, 3718, 422
5918, 3256, 3718, 3257
5919, 3719, 3717, 423
5920, 3262, 3720, 3256
5921, 3717, 3719, 3718
5922, 3717, 3720, 3716
5923, 3722, 2673, 3729
5924, 3734, 3721, 3273
5925, 3726, 905, 3727
5926, 3722, 3725, 3723
5927, 3727, 3725, 3730
5928, 3725, 8175, 3723
5929, 4012, 4350, 907
5930, 8170, 8174, 264
5931, 904, 3726, 3730
5932, 8172, 8175, 3724
5933, 3725, 3722, 3730
5934, 3725, 3727, 3724
5935, 4349, 3728, 906
5936, 3731, 3728, 4349
5937, 905, 3728, 3732
5938, 3275, 3729, 2673
5939, 3730, 3729, 904
5940, 3730, 3722, 3729
5941, 3726, 3727, 3730
5942, 8176, 8171, 8172
5943, 905, 3732, 3727
5944, 3728, 3731, 3732
5945, 2675, 3721, 3734
5946, 3270, 3733, 263
5947, 3734, 3273, 8170
5948, 2675, 3734, 3733
5949, 3736, 3735, 464
5950, 3278, 3735, 3277
5951, 464, 463, 3736
5952, 3736, 463, 3450
5953, 3738, 3737, 305
5954, 3283, 3737, 3282
5955, 305, 304, 3738
5956, 3738, 304, 3489
5957, 3740, 3739, 623
5958, 3288, 3739, 3287
5959, 623, 622, 3740
5960, 3740, 622, 3511
5961, 3742, 3741, 146
5962, 3293, 3741, 3292
5963, 146, 145, 3742
5964, 3742, 145, 3616
5965, 372, 371, 3743
5966, 3745, 3746, 3747
5967, 3748, 3747, 371
5968, 4014, 3749, 3751
5969, 3747, 3743, 371
5970, 4030, 4035, 4037
5971, 3747, 3746, 3743
5972, 3746, 3745, 4036
5973, 3748, 371, 370
5974, 3745, 3747, 3750
5975, 3751, 3748, 370
5976, 3745, 3750, 3744
5977, 4014, 4017, 4018
5978, 3749, 4018, 4020
5979, 3747, 3748, 3750
5980, 3750, 3748, 3751
5981, 4014, 3751, 370
5982, 3750, 3751, 3749
5983, 4036, 3341, 3746
5984, 3753, 1015, 3755
5985, 4035, 3753, 4036
5986, 3753, 4035, 4030
5987, 4036, 3754, 3752
5988, 3755, 3754, 3753
5989, 531, 530, 3756
5990, 3755, 3347, 3754
5991, 3758, 3759, 3760
5992, 3761, 3760, 530
5993, 4038, 3762, 3764
5994, 3760, 3756, 530
5995, 4054, 4059, 4061
5996, 3760, 3759, 3756
5997, 3759, 3758, 4060
5998, 3761, 530, 529
5999, 3758, 3760, 3763
6000, 3764, 3761, 529
6001, 3758, 3763, 3757
6002, 4038, 4041, 4042
6003, 3762, 4042, 4044
6004, 3760, 3761, 3763
6005, 3763, 3761, 3764
6006, 4038, 3764, 529
6007, 3763, 3764, 3762
6008, 4060, 3396, 3759
6009, 3766, 1178, 3768
6010, 4059, 3766, 4060
6011, 3766, 4059, 4054
6012, 4060, 3767, 3765
6013, 3768, 3767, 3766
6014, 984, 985, 3769
6015, 3768, 3402, 3767
6016, 3772, 3774, 3776
6017, 3778, 3776, 3770
6018, 2739, 3411, 4067
6019, 3772, 3771, 985
6020, 3776, 3778, 3771
6021, 985, 986, 3772
6022, 3772, 986, 3774
6023, 4062, 3773, 3774
6024, 4062, 4065, 4066
6025, 4062, 3774, 986
6026, 3776, 3773, 3770
6027, 3780, 4077, 340
6028, 4077, 4073, 4072
6029, 3772, 3776, 3771
6030, 3773, 3776, 3774
6031, 3769, 3771, 3777
6032, 3778, 3777, 3771
6033, 4070, 4069, 4071
6034, 3777, 3778, 3775
6035, 3780, 3779, 2739
6036, 3784, 3779, 3413
6037, 2739, 4067, 4068
6038, 4091, 339, 3785
6039, 339, 338, 3781
6040, 338, 2729, 3782
6041, 2726, 3783, 3782
6042, 3784, 3413, 3781
6043, 2737, 3783, 2726
6044, 2741, 3784, 2735
6045, 3782, 3783, 3784
6046, 3783, 2735, 3784
6047, 4091, 3413, 3780
6048, 339, 3781, 3785
6049, 821, 822, 3786
6050, 3789, 3791, 3793
6051, 3795, 3793, 3787
6052, 2760, 3419, 4097
6053, 3789, 3788, 822
6054, 3793, 3795, 3788
6055, 822, 823, 3789
6056, 3789, 823, 3791
6057, 4092, 3790, 3791
6058, 4092, 4095, 4096
6059, 4092, 3791, 823
6060, 3793, 3790, 3787
6061, 3797, 4107, 181
6062, 4107, 4103, 4102
6063, 3789, 3793, 3788
6064, 3790, 3793, 3791
6065, 3786, 3788, 3794
6066, 3795, 3794, 3788
6067, 4100, 4099, 4101
6068, 3794, 3795, 3792
6069, 3797, 3796, 2760
6070, 3801, 3796, 3421
6071, 2760, 4097, 4098
6072, 4121, 180, 3802
6073, 180, 179, 3798
6074, 179, 2750, 3799
6075, 2747, 3800, 3799
6076, 3801, 3421, 3798
6077, 2758, 3800, 2747
6078, 2762, 3801, 2756
6079, 3799, 3800, 3801
6080, 3800, 2756, 3801
6081, 4121, 3421, 3797
6082, 180, 3798, 3802
6083, 1147, 1148, 3803
6084, 3806, 3808, 3810
6085, 3812, 3810, 3804
6086, 2781, 3427, 4127
6087, 3806, 3805, 1148
6088, 3810, 3812, 3805
6089, 1148, 1149, 3806
6090, 3806, 1149, 3808
6091, 4122, 3807, 3808
6092, 4122, 4125, 4126
6093, 4122, 3808, 1149
6094, 3810, 3807, 3804
6095, 3814, 4137, 499
6096, 4137, 4133, 4132
6097, 3806, 3810, 3805
6098, 3807, 3810, 3808
6099, 3803, 3805, 3811
6100, 3812, 3811, 3805
6101, 4130, 4129, 4131
6102, 3811, 3812, 3809
6103, 3814, 3813, 2781
6104, 3818, 3813, 3429
6105, 2781, 4127, 4128
6106, 4151, 498, 3819
6107, 498, 497, 3815
6108, 497, 2771, 3816
6109, 2768, 3817, 3816
6110, 3818, 3429, 3815
6111, 2779, 3817, 2768
6112, 2783, 3818, 2777
6113, 3816, 3817, 3818
6114, 3817, 2777, 3818
6115, 4151, 3429, 3814
6116, 498, 3815, 3819
6117, 658, 659, 3820
6118, 3823, 3825, 3827
6119, 3829, 3827, 3821
6120, 2802, 3435, 4157
6121, 3823, 3822, 659
6122, 3827, 3829, 3822
6123, 659, 660, 3823
6124, 3823, 660, 3825
6125, 4152, 3824, 3825
6126, 4152, 4155, 4156
6127, 4152, 3825, 660
6128, 3827, 3824, 3821
6129, 3831, 4167, 22
6130, 4167, 4163, 4162
6131, 3823, 3827, 3822
6132, 3824, 3827, 3825
6133, 3820, 3822, 3828
6134, 3829, 3828, 3822
6135, 4160, 4159, 4161
6136, 3828, 3829, 3826
6137, 3831, 3830, 2802
6138, 3835, 3830, 3437
6139, 2802, 4157, 4158
6140, 4181, 21, 3836
6141, 21, 20, 3832
6142, 20, 2792, 3833
6143, 2789, 3834, 3833
6144, 3835, 3437, 3832
6145, 2800, 3834, 2789
6146, 2804, 3835, 2798
6147, 3833, 3834, 3835
6148, 3834, 2798, 3835
6149, 4181, 3437, 3831
6150, 21, 3832, 3836
6151, 3837, 462, 3838
6152, 3444, 3450, 3837
6153, 462, 461, 3838
6154, 4182, 3838, 461
6155, 4191, 4187, 4189
6156, 4184, 3839, 4187
6157, 4186, 4187, 4185
6158, 4197, 4207, 4192
6159, 3850, 3845, 3465
6160, 855, 3841, 3844
6161, 856, 3842, 855
6162, 3468, 3841, 3842
6163, 4214, 4211, 214
6164, 3849, 3847, 3843
6165, 3847, 3841, 3845
6166, 3844, 3841, 3847
6167, 3850, 3465, 3467
6168, 3845, 3843, 3847
6169, 216, 3846, 3850
6170, 4210, 4209, 215
6171, 3848, 3849, 3856
6172, 3844, 3847, 3853
6173, 4214, 4603, 3856
6174, 3844, 3853, 854
6175, 3855, 3849, 3843
6176, 4601, 3854, 3848
6177, 216, 3850, 3467
6178, 3845, 3850, 3846
6179, 3855, 4210, 3851
6180, 3857, 4603, 4214
6181, 3852, 4601, 4600
6182, 854, 3853, 4213
6183, 3854, 3847, 3849
6184, 3853, 3852, 4213
6185, 3848, 3854, 3849
6186, 3852, 3853, 3854
6187, 4210, 3855, 3843
6188, 3856, 3855, 3851
6189, 3855, 3856, 3849
6190, 3851, 4211, 4214
6191, 4215, 213, 3857
6192, 4212, 4601, 4602
6193, 3858, 303, 3859
6194, 3483, 3489, 3858
6195, 303, 302, 3859
6196, 4216, 3859, 302
6197, 4225, 4221, 4223
6198, 4218, 3860, 4221
6199, 4220, 4221, 4219
6200, 4231, 4241, 4226
6201, 3862, 621, 3863
6202, 3505, 3511, 3862
6203, 621, 620, 3863
6204, 4243, 3863, 620
6205, 4252, 4248, 4250
6206, 4245, 3864, 4248
6207, 4247, 4248, 4246
6208, 4258, 4268, 4253
6209, 3552, 3868, 3537
6210, 3533, 3866, 3528
6211, 3868, 3867, 3537
6212, 3549, 3565, 3869
6213, 580, 3869, 3564
6214, 3869, 3868, 3549
6215, 583, 3870, 3577
6216, 3572, 3870, 3575
6217, 1234, 1235, 3871
6218, 3875, 3874, 3871
6219, 3875, 3872, 3874
6220, 3872, 3875, 3878
6221, 3884, 3881, 3873
6222, 3873, 3872, 3882
6223, 3875, 3871, 1235
6224, 3873, 3874, 3872
6225, 1236, 3880, 3876
6226, 3878, 3875, 3880
6227, 4271, 1237, 4274
6228, 3875, 1235, 3876
6229, 4270, 3883, 3886
6230, 3880, 3875, 3876
6231, 3879, 3878, 3877
6232, 3879, 3877, 3888
6233, 3883, 3602, 3882
6234, 3890, 3880, 1236
6235, 3878, 3880, 3877
6236, 3596, 3881, 3597
6237, 3874, 3881, 3598
6238, 3872, 3879, 3882
6239, 587, 3919, 3920
6240, 3882, 3886, 3883
6241, 3887, 4270, 3886
6242, 3601, 3884, 3602
6243, 3881, 3884, 3593
6244, 3895, 3896, 3888
6245, 3896, 3890, 4274
6246, 3882, 3879, 3886
6247, 3886, 3879, 3894
6248, 3887, 3886, 3894
6249, 3887, 3891, 3893
6250, 3895, 3888, 3877
6251, 3891, 3888, 3885
6252, 3893, 3889, 3887
6253, 3895, 3880, 3890
6254, 3897, 4274, 4275
6255, 4272, 3900, 3917
6256, 3894, 3891, 3887
6257, 3898, 3905, 4273
6258, 588, 3893, 3892
6259, 4272, 3891, 3885
6260, 4272, 3893, 3891
6261, 3879, 3888, 3894
6262, 3891, 3894, 3888
6263, 3880, 3895, 3877
6264, 3896, 3895, 3890
6265, 4271, 4274, 3890
6266, 3888, 3896, 3885
6267, 3907, 3914, 3909
6268, 4274, 3898, 3896
6269, 3901, 3898, 3897
6270, 3892, 4272, 589
6271, 3901, 3897, 3902
6272, 4965, 4966, 4964
6273, 3903, 3905, 3901
6274, 3903, 3900, 3905
6275, 3897, 4275, 3902
6276, 3901, 3899, 3903
6277, 4964, 3908, 4965
6278, 3901, 3902, 3907
6279, 3916, 3899, 3904
6280, 3899, 3916, 3903
6281, 3899, 3909, 3910
6282, 591, 590, 3912
6283, 3905, 3900, 4273
6284, 3898, 3901, 3905
6285, 3914, 3908, 3909
6286, 3901, 3907, 3899
6287, 1238, 3906, 3915
6288, 3915, 3907, 3902
6289, 5128, 5127, 4276
6290, 4764, 5128, 5135
6291, 3915, 3902, 1238
6292, 3909, 3908, 4963
6293, 4764, 4964, 5127
6294, 5134, 3912, 3913
6295, 589, 3917, 3911
6296, 3917, 3916, 3918
6297, 590, 3904, 3912
6298, 3913, 3912, 3904
6299, 3899, 3913, 3904
6300, 3913, 3910, 5134
6301, 1239, 3914, 3906
6302, 3906, 3914, 3915
6303, 3907, 3915, 3914
6304, 3918, 3904, 590
6305, 3918, 3911, 3917
6306, 3916, 3917, 3900
6307, 3904, 3918, 3916
6308, 590, 3911, 3918
6309, 587, 3920, 3883
6310, 3883, 3920, 3602
6311, 586, 3920, 3919
6312, 3921, 144, 3922
6313, 3610, 3616, 3921
6314, 144, 143, 3922
6315, 4277, 3922, 143
6316, 4286, 4282, 4284
6317, 4279, 3923, 4282
6318, 4281, 4282, 4280
6319, 4292, 4302, 4287
6320, 2509, 3638, 3925
6321, 3926, 3925, 3638
6322, 2918, 3926, 3638
6323, 2917, 3926, 3637
6324, 2958, 3931, 3929
6325, 3650, 3937, 3644
6326, 2967, 3929, 3646
6327, 3934, 3928, 3927
6328, 3644, 3927, 3929
6329, 4305, 4310, 4795
6330, 3928, 3934, 2129
6331, 2958, 2944, 3931
6332, 3646, 3931, 2944
6333, 4798, 4795, 4310
6334, 4312, 4794, 4795
6335, 2966, 3933, 3937
6336, 4306, 3649, 4307
6337, 3935, 3934, 3927
6338, 4794, 4796, 3936
6339, 3937, 3935, 3644
6340, 3933, 4309, 3936
6341, 4308, 4800, 3930
6342, 3933, 3936, 3935
6343, 2966, 3937, 2964
6344, 3935, 3937, 3933
6345, 2547, 3656, 3938
6346, 3939, 3938, 3656
6347, 3000, 3939, 3656
6348, 2999, 3939, 3655
6349, 3040, 3944, 3942
6350, 3668, 3950, 3662
6351, 3049, 3942, 3664
6352, 3947, 3941, 3940
6353, 3662, 3940, 3942
6354, 4314, 4319, 4804
6355, 3941, 3947, 2138
6356, 3040, 3026, 3944
6357, 3664, 3944, 3026
6358, 4807, 4804, 4319
6359, 4321, 4803, 4804
6360, 3048, 3946, 3950
6361, 4315, 3667, 4316
6362, 3948, 3947, 3940
6363, 4803, 4805, 3949
6364, 3950, 3948, 3662
6365, 3946, 4318, 3949
6366, 4317, 4809, 3943
6367, 3946, 3949, 3948
6368, 3048, 3950, 3046
6369, 3948, 3950, 3946
6370, 2585, 3674, 3951
6371, 3952, 3951, 3674
6372, 3082, 3952, 3674
6373, 3081, 3952, 3673
6374, 3122, 3957, 3955
6375, 3686, 3963, 3680
6376, 3131, 3955, 3682
6377, 3960, 3954, 3953
6378, 3680, 3953, 3955
6379, 4323, 4328, 4813
6380, 3954, 3960, 2147
6381, 3122, 3108, 3957
6382, 3682, 3957, 3108
6383, 4816, 4813, 4328
6384, 4330, 4812, 4813
6385, 3130, 3959, 3963
6386, 4324, 3685, 4325
6387, 3961, 3960, 3953
6388, 4812, 4814, 3962
6389, 3963, 3961, 3680
6390, 3959, 4327, 3962
6391, 4326, 4818, 3956
6392, 3959, 3962, 3961
6393, 3130, 3963, 3128
6394, 3961, 3963, 3959
6395, 2623, 3692, 3964
6396, 3965, 3964, 3692
6397, 3164, 3965, 3692
6398, 3163, 3965, 3691
6399, 3204, 3970, 3968
6400, 3704, 3976, 3698
6401, 3213, 3968, 3700
6402, 3973, 3967, 3966
6403, 3698, 3966, 3968
6404, 4332, 4337, 4822
6405, 3967, 3973, 2156
6406, 3204, 3190, 3970
6407, 3700, 3970, 3190
6408, 4825, 4822, 4337
6409, 4339, 4821, 4822
6410, 3212, 3972, 3976
6411, 4333, 3703, 4334
6412, 3974, 3973, 3966
6413, 4821, 4823, 3975
6414, 3976, 3974, 3698
6415, 3972, 4336, 3975
6416, 4335, 4827, 3969
6417, 3972, 3975, 3974
6418, 3212, 3976, 3210
6419, 3974, 3976, 3972
6420, 3981, 3707, 3713
6421, 3979, 3977, 424
6422, 3978, 3712, 3984
6423, 3978, 3985, 3986
6424, 424, 423, 3979
6425, 423, 3711, 3979
6426, 3981, 3980, 3707
6427, 3983, 3986, 3985
6428, 3712, 3981, 3714
6429, 3980, 3981, 3978
6430, 3992, 3984, 3712
6431, 3988, 4003, 3997
6432, 3983, 3985, 425
6433, 3977, 3986, 424
6434, 4340, 3988, 3992
6435, 3987, 3985, 3989
6436, 3989, 3982, 3987
6437, 424, 3986, 3983
6438, 3986, 3977, 3980
6439, 3990, 3987, 3982
6440, 3991, 425, 3987
6441, 4003, 1070, 4001
6442, 3984, 3992, 3982
6443, 3978, 3989, 3985
6444, 3982, 3989, 3984
6445, 3997, 3995, 3982
6446, 426, 3990, 3994
6447, 4340, 3992, 3712
6448, 3990, 3991, 3987
6449, 3982, 3992, 3988
6450, 4342, 4347, 4341
6451, 426, 3994, 427
6452, 3999, 3990, 3995
6453, 3999, 3998, 3994
6454, 3997, 3982, 3988
6455, 3993, 3996, 3999
6456, 4004, 4010, 3993
6457, 3998, 4000, 427
6458, 4004, 4002, 1071
6459, 3995, 3997, 4005
6460, 3994, 3990, 3999
6461, 4000, 3998, 3996
6462, 3993, 3999, 3995
6463, 3996, 3998, 3999
6464, 3996, 3993, 4010
6465, 427, 4000, 428
6466, 1071, 4002, 4001
6467, 4002, 3997, 4003
6468, 4005, 4002, 4004
6469, 1070, 4003, 3988
6470, 4001, 4002, 4003
6471, 1072, 4341, 4007
6472, 1072, 4342, 4341
6473, 3995, 4005, 3993
6474, 3997, 4002, 4005
6475, 4346, 4343, 4006
6476, 4834, 4009, 4835
6477, 4008, 4010, 4341
6478, 4004, 1071, 4007
6479, 4346, 4009, 4345
6480, 4000, 4345, 4011
6481, 4346, 4835, 4009
6482, 4341, 4010, 4004
6483, 3996, 4010, 4008
6484, 4345, 4000, 3996
6485, 4834, 4011, 4009
6486, 4360, 4351, 4357
6487, 4364, 4352, 4353
6488, 3731, 4349, 4353
6489, 4355, 4362, 4363
6490, 370, 369, 4014
6491, 4373, 4024, 4016
6492, 367, 4398, 4406
6493, 4031, 4027, 4021
6494, 4016, 4017, 4371
6495, 4014, 4018, 3749
6496, 4371, 4017, 369
6497, 4018, 4017, 4016
6498, 4021, 4018, 4024
6499, 4027, 4029, 4026
6500, 4020, 4018, 4021
6501, 4028, 4023, 4026
6502, 4016, 4024, 4018
6503, 4022, 4020, 4019
6504, 4021, 4024, 4031
6505, 4019, 4020, 4021
6506, 4023, 4022, 4019
6507, 3749, 4022, 3744
6508, 4026, 4023, 4019
6509, 4032, 4030, 4037
6510, 4371, 4374, 4373
6511, 4031, 4024, 4015
6512, 4031, 4376, 4025
6513, 4029, 1013, 4026
6514, 4027, 4026, 4019
6515, 4028, 1014, 4032
6516, 4021, 4027, 4019
6517, 4027, 4025, 4029
6518, 4025, 1012, 4029
6519, 4026, 1013, 4028
6520, 1012, 1013, 4029
6521, 4034, 4033, 1015
6522, 3753, 3754, 4036
6523, 4377, 4015, 4373
6524, 4027, 4031, 4025
6525, 4028, 4032, 4023
6526, 4033, 4032, 1014
6527, 3753, 4030, 4034
6528, 4032, 4033, 4030
6529, 4033, 4034, 4030
6530, 3745, 3744, 4035
6531, 4037, 4023, 4032
6532, 4036, 3752, 3341
6533, 3745, 4035, 4036
6534, 4035, 3744, 4037
6535, 4022, 4037, 3744
6536, 529, 528, 4038
6537, 4411, 4048, 4040
6538, 526, 4436, 4444
6539, 4055, 4051, 4045
6540, 4040, 4041, 4409
6541, 4038, 4042, 3762
6542, 4409, 4041, 528
6543, 4042, 4041, 4040
6544, 4045, 4042, 4048
6545, 4051, 4053, 4050
6546, 4044, 4042, 4045
6547, 4052, 4047, 4050
6548, 4040, 4048, 4042
6549, 4046, 4044, 4043
6550, 4045, 4048, 4055
6551, 4043, 4044, 4045
6552, 4047, 4046, 4043
6553, 3762, 4046, 3757
6554, 4050, 4047, 4043
6555, 4056, 4054, 4061
6556, 4409, 4412, 4411
6557, 4055, 4048, 4039
6558, 4055, 4414, 4049
6559, 4053, 1176, 4050
6560, 4051, 4050, 4043
6561, 4052, 1177, 4056
6562, 4045, 4051, 4043
6563, 4051, 4049, 4053
6564, 4049, 1175, 4053
6565, 4050, 1176, 4052
6566, 1175, 1176, 4053
6567, 4058, 4057, 1178
6568, 3766, 3767, 4060
6569, 4415, 4039, 4411
6570, 4051, 4055, 4049
6571, 4052, 4056, 4047
6572, 4057, 4056, 1177
6573, 3766, 4054, 4058
6574, 4056, 4057, 4054
6575, 4057, 4058, 4054
6576, 3758, 3757, 4059
6577, 4061, 4047, 4056
6578, 4060, 3765, 3396
6579, 3758, 4059, 4060
6580, 4059, 3757, 4061
6581, 4046, 4061, 3757
6582, 986, 987, 4062
6583, 4450, 4449, 4447
6584, 4451, 4450, 988
6585, 4088, 4074, 4075
6586, 4064, 4065, 4447
6587, 4062, 4066, 3773
6588, 4447, 4065, 987
6589, 4066, 4065, 4064
6590, 4080, 4064, 4449
6591, 4079, 4089, 4076
6592, 3777, 4067, 3409
6593, 4067, 3775, 4068
6594, 3775, 4070, 4071
6595, 4069, 4077, 4071
6596, 4070, 3775, 3778
6597, 341, 4073, 4477
6598, 3778, 3770, 4070
6599, 4070, 3770, 4075
6600, 4069, 4073, 4077
6601, 3775, 4071, 4068
6602, 4073, 341, 4072
6603, 4068, 4071, 4077
6604, 4069, 4074, 4477
6605, 340, 4077, 4072
6606, 4075, 4069, 4070
6607, 4069, 4075, 4074
6608, 4078, 3773, 4076
6609, 3770, 4078, 4075
6610, 4066, 4064, 4080
6611, 4066, 4079, 4076
6612, 3780, 4068, 4077
6613, 3773, 4078, 3770
6614, 4076, 4075, 4078
6615, 4083, 4079, 4080
6616, 4087, 4074, 4088
6617, 4083, 4080, 4063
6618, 4066, 4080, 4079
6619, 4083, 4458, 4081
6620, 4087, 4085, 4086
6621, 4084, 4079, 4083
6622, 4081, 4085, 4084
6623, 4460, 4458, 4063
6624, 4084, 4083, 4081
6625, 4081, 4464, 4085
6626, 4084, 4082, 4089
6627, 4087, 4086, 342
6628, 4084, 4085, 4087
6629, 4074, 4087, 342
6630, 4085, 343, 4086
6631, 4087, 4082, 4084
6632, 4076, 4088, 4075
6633, 4087, 4088, 4082
6634, 4084, 4089, 4079
6635, 4088, 4089, 4082
6636, 3413, 4091, 3785
6637, 3780, 340, 4090
6638, 3780, 4090, 4091
6639, 823, 824, 4092
6640, 4481, 4480, 4478
6641, 4482, 4481, 825
6642, 4118, 4104, 4105
6643, 4094, 4095, 4478
6644, 4092, 4096, 3790
6645, 4478, 4095, 824
6646, 4096, 4095, 4094
6647, 4110, 4094, 4480
6648, 4109, 4119, 4106
6649, 3794, 4097, 3417
6650, 4097, 3792, 4098
6651, 3792, 4100, 4101
6652, 4099, 4107, 4101
6653, 4100, 3792, 3795
6654, 182, 4103, 4508
6655, 3795, 3787, 4100
6656, 4100, 3787, 4105
6657, 4099, 4103, 4107
6658, 3792, 4101, 4098
6659, 4103, 182, 4102
6660, 4098, 4101, 4107
6661, 4099, 4104, 4508
6662, 181, 4107, 4102
6663, 4105, 4099, 4100
6664, 4099, 4105, 4104
6665, 4108, 3790, 4106
6666, 3787, 4108, 4105
6667, 4096, 4094, 4110
6668, 4096, 4109, 4106
6669, 3797, 4098, 4107
6670, 3790, 4108, 3787
6671, 4106, 4105, 4108
6672, 4113, 4109, 4110
6673, 4117, 4104, 4118
6674, 4113, 4110, 4093
6675, 4096, 4110, 4109
6676, 4113, 4489, 4111
6677, 4117, 4115, 4116
6678, 4114, 4109, 4113
6679, 4111, 4115, 4114
6680, 4491, 4489, 4093
6681, 4114, 4113, 4111
6682, 4111, 4495, 4115
6683, 4114, 4112, 4119
6684, 4117, 4116, 183
6685, 4114, 4115, 4117
6686, 4104, 4117, 183
6687, 4115, 184, 4116
6688, 4117, 4112, 4114
6689, 4106, 4118, 4105
6690, 4117, 4118, 4112
6691, 4114, 4119, 4109
6692, 4118, 4119, 4112
6693, 3421, 4121, 3802
6694, 3797, 181, 4120
6695, 3797, 4120, 4121
6696, 1149, 1150, 4122
6697, 4512, 4511, 4509
6698, 4513, 4512, 1151
6699, 4148, 4134, 4135
6700, 4124, 4125, 4509
6701, 4122, 4126, 3807
6702, 4509, 4125, 1150
6703, 4126, 4125, 4124
6704, 4140, 4124, 4511
6705, 4139, 4149, 4136
6706, 3811, 4127, 3425
6707, 4127, 3809, 4128
6708, 3809, 4130, 4131
6709, 4129, 4137, 4131
6710, 4130, 3809, 3812
6711, 500, 4133, 4539
6712, 3812, 3804, 4130
6713, 4130, 3804, 4135
6714, 4129, 4133, 4137
6715, 3809, 4131, 4128
6716, 4133, 500, 4132
6717, 4128, 4131, 4137
6718, 4129, 4134, 4539
6719, 499, 4137, 4132
6720, 4135, 4129, 4130
6721, 4129, 4135, 4134
6722, 4138, 3807, 4136
6723, 3804, 4138, 4135
6724, 4126, 4124, 4140
6725, 4126, 4139, 4136
6726, 3814, 4128, 4137
6727, 3807, 4138, 3804
6728, 4136, 4135, 4138
6729, 4143, 4139, 4140
6730, 4147, 4134, 4148
6731, 4143, 4140, 4123
6732, 4126, 4140, 4139
6733, 4143, 4520, 4141
6734, 4147, 4145, 4146
6735, 4144, 4139, 4143
6736, 4141, 4145, 4144
6737, 4522, 4520, 4123
6738, 4144, 4143, 4141
6739, 4141, 4526, 4145
6740, 4144, 4142, 4149
6741, 4147, 4146, 501
6742, 4144, 4145, 4147
6743, 4134, 4147, 501
6744, 4145, 502, 4146
6745, 4147, 4142, 4144
6746, 4136, 4148, 4135
6747, 4147, 4148, 4142
6748, 4144, 4149, 4139
6749, 4148, 4149, 4142
6750, 3429, 4151, 3819
6751, 3814, 499, 4150
6752, 3814, 4150, 4151
6753, 660, 661, 4152
6754, 4543, 4542, 4540
6755, 4544, 4543, 662
6756, 4178, 4164, 4165
6757, 4154, 4155, 4540
6758, 4152, 4156, 3824
6759, 4540, 4155, 661
6760, 4156, 4155, 4154
6761, 4170, 4154, 4542
6762, 4169, 4179, 4166
6763, 3828, 4157, 3433
6764, 4157, 3826, 4158
6765, 3826, 4160, 4161
6766, 4159, 4167, 4161
6767, 4160, 3826, 3829
6768, 23, 4163, 4570
6769, 3829, 3821, 4160
6770, 4160, 3821, 4165
6771, 4159, 4163, 4167
6772, 3826, 4161, 4158
6773, 4163, 23, 4162
6774, 4158, 4161, 4167
6775, 4159, 4164, 4570
6776, 22, 4167, 4162
6777, 4165, 4159, 4160
6778, 4159, 4165, 4164
6779, 4168, 3824, 4166
6780, 3821, 4168, 4165
6781, 4156, 4154, 4170
6782, 4156, 4169, 4166
6783, 3831, 4158, 4167
6784, 3824, 4168, 3821
6785, 4166, 4165, 4168
6786, 4173, 4169, 4170
6787, 4177, 4164, 4178
6788, 4173, 4170, 4153
6789, 4156, 4170, 4169
6790, 4173, 4551, 4171
6791, 4177, 4175, 4176
6792, 4174, 4169, 4173
6793, 4171, 4175, 4174
6794, 4553, 4551, 4153
6795, 4174, 4173, 4171
6796, 4171, 4557, 4175
6797, 4174, 4172, 4179
6798, 4177, 4176, 24
6799, 4174, 4175, 4177
6800, 4164, 4177, 24
6801, 4175, 25, 4176
6802, 4177, 4172, 4174
6803, 4166, 4178, 4165
6804, 4177, 4178, 4172
6805, 4174, 4179, 4169
6806, 4178, 4179, 4172
6807, 3437, 4181, 3836
6808, 3831, 22, 4180
6809, 3831, 4180, 4181
6810, 4183, 4182, 461
6811, 4184, 4182, 3839
6812, 3453, 4184, 3452
6813, 4182, 4183, 3839
6814, 4182, 4184, 3451
6815, 3452, 4184, 4187
6816, 3840, 4918, 4193
6817, 3453, 4186, 3454
6818, 4187, 4186, 3452
6819, 4189, 3839, 460
6820, 4187, 4191, 4196
6821, 1104, 4195, 1103
6822, 3457, 4194, 4195
6823, 460, 4190, 4189
6824, 3840, 4196, 4191
6825, 460, 459, 4190
6826, 4192, 4191, 4190
6827, 4189, 4190, 4191
6828, 4192, 4190, 459
6829, 458, 4197, 459
6830, 459, 4197, 4192
6831, 4918, 3840, 4571
6832, 4194, 4193, 4188
6833, 4193, 4194, 4185
6834, 4195, 4194, 4188
6835, 1103, 4195, 4188
6836, 3457, 4195, 1104
6837, 4193, 4196, 3840
6838, 4187, 4196, 4185
6839, 4204, 4203, 4201
6840, 4206, 4192, 4207
6841, 4203, 4199, 4201
6842, 4577, 4926, 4198
6843, 4199, 4200, 4201
6844, 4198, 4208, 4199
6845, 4201, 4200, 458
6846, 4207, 4200, 4199
6847, 458, 457, 4201
6848, 4201, 457, 4204
6849, 4572, 4202, 4204
6850, 4575, 4576, 4572
6851, 4202, 4198, 4203
6852, 4198, 4199, 4203
6853, 4572, 4204, 457
6854, 4203, 4204, 4202
6855, 4205, 4208, 4593
6856, 4920, 4593, 4594
6857, 4192, 4206, 4191
6858, 4919, 4206, 4205
6859, 4207, 4197, 4200
6860, 4205, 4206, 4207
6861, 4198, 4926, 4593
6862, 4207, 4208, 4205
6863, 4210, 215, 4211
6864, 3846, 216, 4209
6865, 3843, 3846, 4210
6866, 4603, 4602, 3848
6867, 4210, 4211, 3851
6868, 213, 4604, 3857
6869, 3851, 4214, 3856
6870, 4600, 4213, 3852
6871, 4215, 4214, 214
6872, 4217, 4216, 302
6873, 4214, 4215, 3857
6874, 4218, 4216, 3860
6875, 3492, 4218, 3491
6876, 4216, 4217, 3860
6877, 4216, 4218, 3490
6878, 3491, 4218, 4221
6879, 3861, 4945, 4227
6880, 3492, 4220, 3493
6881, 4221, 4220, 3491
6882, 4223, 3860, 301
6883, 4221, 4225, 4230
6884, 941, 4229, 940
6885, 3496, 4228, 4229
6886, 301, 4224, 4223
6887, 3861, 4230, 4225
6888, 301, 300, 4224
6889, 4226, 4225, 4224
6890, 4223, 4224, 4225
6891, 4226, 4224, 300
6892, 299, 4231, 300
6893, 300, 4231, 4226
6894, 4945, 3861, 4706
6895, 4228, 4227, 4222
6896, 4227, 4228, 4219
6897, 4229, 4228, 4222
6898, 940, 4229, 4222
6899, 3496, 4229, 941
6900, 4227, 4230, 3861
6901, 4221, 4230, 4219
6902, 4238, 4237, 4235
6903, 4240, 4226, 4241
6904, 4237, 4233, 4235
6905, 4712, 4953, 4232
6906, 4233, 4234, 4235
6907, 4232, 4242, 4233
6908, 4235, 4234, 299
6909, 4241, 4234, 4233
6910, 299, 298, 4235
6911, 4235, 298, 4238
6912, 4707, 4236, 4238
6913, 4710, 4711, 4707
6914, 4236, 4232, 4237
6915, 4232, 4233, 4237
6916, 4707, 4238, 298
6917, 4237, 4238, 4236
6918, 4239, 4242, 4728
6919, 4947, 4728, 4729
6920, 4226, 4240, 4225
6921, 4946, 4240, 4239
6922, 4241, 4231, 4234
6923, 4239, 4240, 4241
6924, 4232, 4953, 4728
6925, 4241, 4242, 4239
6926, 4244, 4243, 620
6927, 4245, 4243, 3864
6928, 3514, 4245, 3513
6929, 4243, 4244, 3864
6930, 4243, 4245, 3512
6931, 3513, 4245, 4248
6932, 3865, 4954, 4254
6933, 3514, 4247, 3515
6934, 4248, 4247, 3513
6935, 4250, 3864, 619
6936, 4248, 4252, 4257
6937, 1267, 4256, 1266
6938, 3518, 4255, 4256
6939, 619, 4251, 4250
6940, 3865, 4257, 4252
6941, 619, 618, 4251
6942, 4253, 4252, 4251
6943, 4250, 4251, 4252
6944, 4253, 4251, 618
6945, 617, 4258, 618
6946, 618, 4258, 4253
6947, 4954, 3865, 4735
6948, 4255, 4254, 4249
6949, 4254, 4255, 4246
6950, 4256, 4255, 4249
6951, 1266, 4256, 4249
6952, 3518, 4256, 1267
6953, 4254, 4257, 3865
6954, 4248, 4257, 4246
6955, 4265, 4264, 4262
6956, 4267, 4253, 4268
6957, 4264, 4260, 4262
6958, 4741, 4962, 4259
6959, 4260, 4261, 4262
6960, 4259, 4269, 4260
6961, 4262, 4261, 617
6962, 4268, 4261, 4260
6963, 617, 616, 4262
6964, 4262, 616, 4265
6965, 4736, 4263, 4265
6966, 4739, 4740, 4736
6967, 4263, 4259, 4264
6968, 4259, 4260, 4264
6969, 4736, 4265, 616
6970, 4264, 4265, 4263
6971, 4266, 4269, 4757
6972, 4956, 4757, 4758
6973, 4253, 4267, 4252
6974, 4955, 4267, 4266
6975, 4268, 4258, 4261
6976, 4266, 4267, 4268
6977, 4259, 4962, 4757
6978, 4268, 4269, 4266
6979, 3887, 3889, 4270
6980, 587, 4270, 3889
6981, 3885, 4273, 4272
6982, 3890, 1236, 4271
6983, 4273, 3885, 3898
6984, 3900, 4272, 4273
6985, 4275, 4274, 1237
6986, 4274, 3897, 3898
6987, 1237, 1238, 4275
6988, 3902, 4275, 1238
6989, 6153, 6152, 1241
6990, 4967, 5133, 5134
6991, 4278, 4277, 143
6992, 4279, 4277, 3923
6993, 3619, 4279, 3618
6994, 4277, 4278, 3923
6995, 4277, 4279, 3617
6996, 3618, 4279, 4282
6997, 3924, 4968, 4288
6998, 3619, 4281, 3620
6999, 4282, 4281, 3618
7000, 4284, 3923, 142
7001, 4282, 4286, 4291
7002, 778, 4290, 777
7003, 3623, 4289, 4290
7004, 142, 4285, 4284
7005, 3924, 4291, 4286
7006, 142, 141, 4285
7007, 4287, 4286, 4285
7008, 4284, 4285, 4286
7009, 4287, 4285, 141
7010, 140, 4292, 141
7011, 141, 4292, 4287
7012, 4968, 3924, 4765
7013, 4289, 4288, 4283
7014, 4288, 4289, 4280
7015, 4290, 4289, 4283
7016, 777, 4290, 4283
7017, 3623, 4290, 778
7018, 4288, 4291, 3924
7019, 4282, 4291, 4280
7020, 4299, 4298, 4296
7021, 4301, 4287, 4302
7022, 4298, 4294, 4296
7023, 4771, 4976, 4293
7024, 4294, 4295, 4296
7025, 4293, 4303, 4294
7026, 4296, 4295, 140
7027, 4302, 4295, 4294
7028, 140, 139, 4296
7029, 4296, 139, 4299
7030, 4766, 4297, 4299
7031, 4769, 4770, 4766
7032, 4297, 4293, 4298
7033, 4293, 4294, 4298
7034, 4766, 4299, 139
7035, 4298, 4299, 4297
7036, 4300, 4303, 4787
7037, 4970, 4787, 4788
7038, 4287, 4301, 4286
7039, 4969, 4301, 4300
7040, 4302, 4292, 4295
7041, 4300, 4301, 4302
7042, 4293, 4976, 4787
7043, 4302, 4303, 4300
7044, 4305, 4307, 4310
7045, 6214, 6219, 6217
7046, 6210, 4800, 4799
7047, 3933, 2966, 4306
7048, 1530, 4306, 2966
7049, 3649, 3648, 4307
7050, 4310, 4307, 3648
7051, 4801, 3936, 4796
7052, 5431, 5433, 5430
7053, 4309, 4795, 4794
7054, 4306, 4309, 3933
7055, 3932, 3647, 4977
7056, 4799, 4802, 5152
7057, 4794, 4312, 4802
7058, 3936, 4309, 4794
7059, 4798, 4312, 4795
7060, 3934, 4801, 2129
7061, 4314, 4316, 4319
7062, 6258, 6263, 6261
7063, 6254, 4809, 4808
7064, 3946, 3048, 4315
7065, 1531, 4315, 3048
7066, 3667, 3666, 4316
7067, 4319, 4316, 3666
7068, 4810, 3949, 4805
7069, 5456, 5458, 5455
7070, 4318, 4804, 4803
7071, 4315, 4318, 3946
7072, 3945, 3665, 4982
7073, 4808, 4811, 5156
7074, 4803, 4321, 4811
7075, 3949, 4318, 4803
7076, 4807, 4321, 4804
7077, 3947, 4810, 2138
7078, 4323, 4325, 4328
7079, 6302, 6307, 6305
7080, 6298, 4818, 4817
7081, 3959, 3130, 4324
7082, 1532, 4324, 3130
7083, 3685, 3684, 4325
7084, 4328, 4325, 3684
7085, 4819, 3962, 4814
7086, 5481, 5483, 5480
7087, 4327, 4813, 4812
7088, 4324, 4327, 3959
7089, 3958, 3683, 4987
7090, 4817, 4820, 5160
7091, 4812, 4330, 4820
7092, 3962, 4327, 4812
7093, 4816, 4330, 4813
7094, 3960, 4819, 2147
7095, 4332, 4334, 4337
7096, 6346, 6351, 6349
7097, 6342, 4827, 4826
7098, 3972, 3212, 4333
7099, 1533, 4333, 3212
7100, 3703, 3702, 4334
7101, 4337, 4334, 3702
7102, 4828, 3975, 4823
7103, 5506, 5508, 5505
7104, 4336, 4822, 4821
7105, 4333, 4336, 3972
7106, 3971, 3701, 4992
7107, 4826, 4829, 5164
7108, 4821, 4339, 4829
7109, 3975, 4336, 4821
7110, 4825, 4339, 4822
7111, 3973, 4828, 2156
7112, 3714, 4340, 3712
7113, 1070, 4340, 1069
7114, 4007, 4341, 4004
7115, 4342, 1072, 1073
7116, 4344, 4342, 1073
7117, 4835, 4346, 4006
7118, 4830, 4343, 4344
7119, 4348, 4835, 4999
7120, 4830, 4344, 1073
7121, 4347, 4344, 4343
7122, 4345, 4008, 4346
7123, 4011, 4345, 4009
7124, 4347, 4008, 4341
7125, 4346, 4347, 4343
7126, 4347, 4342, 4344
7127, 4008, 4347, 4346
7128, 5000, 4833, 4832
7129, 4834, 5010, 429
7130, 4350, 4349, 906
7131, 4349, 4012, 4356
7132, 4848, 4359, 4850
7133, 4349, 4350, 4012
7134, 4367, 4368, 4366
7135, 4353, 4352, 3731
7136, 8171, 8175, 8172
7137, 4357, 4354, 4356
7138, 4363, 4362, 265
7139, 4840, 4366, 4354
7140, 4368, 4365, 4366
7141, 4364, 4355, 4363
7142, 4365, 4353, 4356
7143, 4349, 4356, 4353
7144, 4357, 4356, 4012
7145, 4012, 907, 4357
7146, 908, 4360, 4358
7147, 4357, 907, 4358
7148, 4850, 4360, 908
7149, 270, 269, 4858
7150, 4369, 4838, 267
7151, 4841, 4360, 4359
7152, 4839, 4370, 4361
7153, 266, 4368, 4367
7154, 265, 8176, 4363
7155, 4368, 4362, 4355
7156, 4363, 4013, 4364
7157, 4352, 4364, 4013
7158, 4365, 4364, 4353
7159, 4366, 4365, 4354
7160, 4364, 4365, 4355
7161, 4840, 4354, 4351
7162, 4366, 4361, 4367
7163, 4361, 4369, 4367
7164, 267, 266, 4367
7165, 4362, 4368, 266
7166, 4365, 4368, 4355
7167, 4361, 4370, 4838
7168, 267, 4367, 4369
7169, 4839, 4361, 4840
7170, 4843, 4370, 4839
7171, 369, 368, 4371
7172, 4371, 368, 4374
7173, 4384, 4408, 4377
7174, 1012, 4378, 4380
7175, 4371, 4373, 4016
7176, 4373, 4372, 4377
7177, 368, 4406, 4407
7178, 4373, 4374, 4372
7179, 4377, 4376, 4015
7180, 4404, 4402, 4403
7181, 4015, 4376, 4031
7182, 4378, 4376, 4375
7183, 4402, 4384, 4398
7184, 4375, 4376, 4377
7185, 4380, 4378, 4375
7186, 4025, 4378, 1012
7187, 4394, 4396, 5023
7188, 4382, 1011, 4380
7189, 4400, 4408, 4399
7190, 1012, 4380, 1011
7191, 4399, 4393, 4381
7192, 4382, 4383, 1011
7193, 4400, 4380, 4375
7194, 4383, 4382, 4381
7195, 4386, 4381, 4385
7196, 1011, 4383, 1010
7197, 4398, 4384, 4372
7198, 4399, 4384, 4379
7199, 4394, 4389, 4390
7200, 4386, 4387, 1010
7201, 4381, 4386, 4383
7202, 4387, 4386, 4385
7203, 4387, 4390, 4389
7204, 1010, 4387, 1009
7205, 4392, 4390, 4385
7206, 4405, 5020, 4395
7207, 4390, 4387, 4385
7208, 4394, 5018, 4389
7209, 4393, 4391, 4392
7210, 4390, 4392, 4394
7211, 4404, 4397, 4401
7212, 4405, 4395, 4397
7213, 4393, 4392, 4385
7214, 4394, 4392, 4391
7215, 4381, 4393, 4385
7216, 4393, 4379, 4401
7217, 4396, 4394, 4391
7218, 4394, 4388, 5018
7219, 4395, 4396, 4397
7220, 5021, 364, 4863
7221, 4397, 4396, 4391
7222, 4396, 4395, 5023
7223, 4401, 4397, 4391
7224, 4405, 4397, 366
7225, 4372, 4374, 4407
7226, 4402, 4401, 4379
7227, 4393, 4399, 4379
7228, 4400, 4399, 4381
7229, 4382, 4400, 4381
7230, 4408, 4375, 4377
7231, 4393, 4401, 4391
7232, 4384, 4402, 4379
7233, 4398, 367, 4402
7234, 4397, 4404, 366
7235, 4402, 367, 4403
7236, 4402, 4404, 4401
7237, 366, 4404, 4403
7238, 366, 365, 4405
7239, 4405, 365, 5020
7240, 4372, 4407, 4398
7241, 4407, 4406, 4398
7242, 368, 4407, 4374
7243, 4399, 4408, 4384
7244, 4375, 4408, 4400
7245, 528, 527, 4409
7246, 4409, 527, 4412
7247, 4422, 4446, 4415
7248, 1175, 4416, 4418
7249, 4409, 4411, 4040
7250, 4411, 4410, 4415
7251, 527, 4444, 4445
7252, 4411, 4412, 4410
7253, 4415, 4414, 4039
7254, 4442, 4440, 4441
7255, 4039, 4414, 4055
7256, 4416, 4414, 4413
7257, 4440, 4422, 4436
7258, 4413, 4414, 4415
7259, 4418, 4416, 4413
7260, 4049, 4416, 1175
7261, 4432, 4434, 5035
7262, 4420, 1174, 4418
7263, 4438, 4446, 4437
7264, 1175, 4418, 1174
7265, 4437, 4431, 4419
7266, 4420, 4421, 1174
7267, 4438, 4418, 4413
7268, 4421, 4420, 4419
7269, 4424, 4419, 4423
7270, 1174, 4421, 1173
7271, 4436, 4422, 4410
7272, 4437, 4422, 4417
7273, 4432, 4427, 4428
7274, 4424, 4425, 1173
7275, 4419, 4424, 4421
7276, 4425, 4424, 4423
7277, 4432, 4428, 4430
7278, 1173, 4425, 1172
7279, 4430, 4428, 4423
7280, 4443, 5032, 4433
7281, 4423, 4428, 4425
7282, 4432, 5030, 4427
7283, 4429, 4430, 4431
7284, 4427, 4425, 4428
7285, 4442, 4435, 4439
7286, 4443, 4433, 4435
7287, 4431, 4430, 4423
7288, 4432, 4430, 4429
7289, 4419, 4431, 4423
7290, 4431, 4417, 4439
7291, 4434, 4432, 4429
7292, 4432, 4426, 5030
7293, 4433, 4434, 4435
7294, 5033, 523, 4865
7295, 4435, 4434, 4429
7296, 4434, 4433, 5035
7297, 4439, 4435, 4429
7298, 4443, 4435, 525
7299, 4410, 4412, 4445
7300, 4440, 4439, 4417
7301, 4431, 4437, 4417
7302, 4438, 4437, 4419
7303, 4420, 4438, 4419
7304, 4446, 4413, 4415
7305, 4431, 4439, 4429
7306, 4422, 4440, 4417
7307, 4436, 526, 4440
7308, 4435, 4442, 525
7309, 4440, 526, 4441
7310, 4440, 4442, 4439
7311, 525, 4442, 4441
7312, 525, 524, 4443
7313, 4443, 524, 5032
7314, 4410, 4445, 4436
7315, 4445, 4444, 4436
7316, 527, 4445, 4412
7317, 4437, 4446, 4422
7318, 4413, 4446, 4438
7319, 987, 988, 4447
7320, 4447, 988, 4450
7321, 989, 4454, 4451
7322, 4460, 4063, 4449
7323, 4460, 4449, 4448
7324, 4080, 4449, 4063
7325, 4451, 988, 989
7326, 4449, 4450, 4448
7327, 4868, 4866, 4867
7328, 4448, 4450, 4451
7329, 5203, 4867, 5041
7330, 4461, 4466, 344
7331, 4453, 4454, 4866
7332, 4451, 4455, 4448
7333, 4866, 4454, 989
7334, 4455, 4454, 4453
7335, 4452, 4459, 4453
7336, 4466, 345, 344
7337, 4459, 4470, 4457
7338, 4465, 4458, 4461
7339, 4459, 4457, 4455
7340, 4456, 4458, 4460
7341, 4063, 4458, 4083
7342, 4461, 4458, 4456
7343, 4453, 4459, 4455
7344, 4459, 4452, 4463
7345, 4448, 4457, 4460
7346, 4460, 4457, 4456
7347, 4461, 4456, 4467
7348, 4461, 344, 4464
7349, 4470, 4463, 4462
7350, 4473, 4469, 4474
7351, 4463, 4452, 4471
7352, 4462, 4467, 4470
7353, 344, 343, 4464
7354, 4464, 343, 4085
7355, 4458, 4465, 4081
7356, 4461, 4464, 4465
7357, 4467, 4466, 4461
7358, 4466, 4462, 4473
7359, 4467, 4456, 4470
7360, 4466, 4467, 4462
7361, 4468, 4471, 4472
7362, 4475, 4871, 346
7363, 4471, 4469, 4463
7364, 4475, 346, 4474
7365, 4457, 4470, 4456
7366, 4459, 4463, 4470
7367, 4472, 4471, 4452
7368, 4469, 4471, 4468
7369, 4866, 4868, 4453
7370, 5189, 5185, 5187
7371, 4466, 4473, 345
7372, 4462, 4469, 4473
7373, 4469, 4468, 4475
7374, 4473, 4474, 345
7375, 4468, 4872, 4871
7376, 4074, 4476, 4477
7377, 4074, 342, 4476
7378, 341, 4477, 4476
7379, 824, 825, 4478
7380, 4478, 825, 4481
7381, 826, 4485, 4482
7382, 4491, 4093, 4480
7383, 4491, 4480, 4479
7384, 4110, 4480, 4093
7385, 4482, 825, 826
7386, 4480, 4481, 4479
7387, 4881, 4879, 4880
7388, 4479, 4481, 4482
7389, 5230, 4880, 5045
7390, 4492, 4497, 185
7391, 4484, 4485, 4879
7392, 4482, 4486, 4479
7393, 4879, 4485, 826
7394, 4486, 4485, 4484
7395, 4483, 4490, 4484
7396, 4497, 186, 185
7397, 4490, 4501, 4488
7398, 4496, 4489, 4492
7399, 4490, 4488, 4486
7400, 4487, 4489, 4491
7401, 4093, 4489, 4113
7402, 4492, 4489, 4487
7403, 4484, 4490, 4486
7404, 4490, 4483, 4494
7405, 4479, 4488, 4491
7406, 4491, 4488, 4487
7407, 4492, 4487, 4498
7408, 4492, 185, 4495
7409, 4501, 4494, 4493
7410, 4504, 4500, 4505
7411, 4494, 4483, 4502
7412, 4493, 4498, 4501
7413, 185, 184, 4495
7414, 4495, 184, 4115
7415, 4489, 4496, 4111
7416, 4492, 4495, 4496
7417, 4498, 4497, 4492
7418, 4497, 4493, 4504
7419, 4498, 4487, 4501
7420, 4497, 4498, 4493
7421, 4499, 4502, 4503
7422, 4506, 4884, 187
7423, 4502, 4500, 4494
7424, 4506, 187, 4505
7425, 4488, 4501, 4487
7426, 4490, 4494, 4501
7427, 4503, 4502, 4483
7428, 4500, 4502, 4499
7429, 4879, 4881, 4484
7430, 5216, 5212, 5214
7431, 4497, 4504, 186
7432, 4493, 4500, 4504
7433, 4500, 4499, 4506
7434, 4504, 4505, 186
7435, 4499, 4885, 4884
7436, 4104, 4507, 4508
7437, 4104, 183, 4507
7438, 182, 4508, 4507
7439, 1150, 1151, 4509
7440, 4509, 1151, 4512
7441, 1152, 4516, 4513
7442, 4522, 4123, 4511
7443, 4522, 4511, 4510
7444, 4140, 4511, 4123
7445, 4513, 1151, 1152
7446, 4511, 4512, 4510
7447, 4894, 4892, 4893
7448, 4510, 4512, 4513
7449, 5257, 4893, 5049
7450, 4523, 4528, 503
7451, 4515, 4516, 4892
7452, 4513, 4517, 4510
7453, 4892, 4516, 1152
7454, 4517, 4516, 4515
7455, 4514, 4521, 4515
7456, 4528, 504, 503
7457, 4521, 4532, 4519
7458, 4527, 4520, 4523
7459, 4521, 4519, 4517
7460, 4518, 4520, 4522
7461, 4123, 4520, 4143
7462, 4523, 4520, 4518
7463, 4515, 4521, 4517
7464, 4521, 4514, 4525
7465, 4510, 4519, 4522
7466, 4522, 4519, 4518
7467, 4523, 4518, 4529
7468, 4523, 503, 4526
7469, 4532, 4525, 4524
7470, 4535, 4531, 4536
7471, 4525, 4514, 4533
7472, 4524, 4529, 4532
7473, 503, 502, 4526
7474, 4526, 502, 4145
7475, 4520, 4527, 4141
7476, 4523, 4526, 4527
7477, 4529, 4528, 4523
7478, 4528, 4524, 4535
7479, 4529, 4518, 4532
7480, 4528, 4529, 4524
7481, 4530, 4533, 4534
7482, 4537, 4897, 505
7483, 4533, 4531, 4525
7484, 4537, 505, 4536
7485, 4519, 4532, 4518
7486, 4521, 4525, 4532
7487, 4534, 4533, 4514
7488, 4531, 4533, 4530
7489, 4892, 4894, 4515
7490, 5243, 5239, 5241
7491, 4528, 4535, 504
7492, 4524, 4531, 4535
7493, 4531, 4530, 4537
7494, 4535, 4536, 504
7495, 4530, 4898, 4897
7496, 4134, 4538, 4539
7497, 4134, 501, 4538
7498, 500, 4539, 4538
7499, 661, 662, 4540
7500, 4540, 662, 4543
7501, 663, 4547, 4544
7502, 4553, 4153, 4542
7503, 4553, 4542, 4541
7504, 4170, 4542, 4153
7505, 4544, 662, 663
7506, 4542, 4543, 4541
7507, 4907, 4905, 4906
7508, 4541, 4543, 4544
7509, 5284, 4906, 5053
7510, 4554, 4559, 26
7511, 4546, 4547, 4905
7512, 4544, 4548, 4541
7513, 4905, 4547, 663
7514, 4548, 4547, 4546
7515, 4545, 4552, 4546
7516, 4559, 27, 26
7517, 4552, 4563, 4550
7518, 4558, 4551, 4554
7519, 4552, 4550, 4548
7520, 4549, 4551, 4553
7521, 4153, 4551, 4173
7522, 4554, 4551, 4549
7523, 4546, 4552, 4548
7524, 4552, 4545, 4556
7525, 4541, 4550, 4553
7526, 4553, 4550, 4549
7527, 4554, 4549, 4560
7528, 4554, 26, 4557
7529, 4563, 4556, 4555
7530, 4566, 4562, 4567
7531, 4556, 4545, 4564
7532, 4555, 4560, 4563
7533, 26, 25, 4557
7534, 4557, 25, 4175
7535, 4551, 4558, 4171
7536, 4554, 4557, 4558
7537, 4560, 4559, 4554
7538, 4559, 4555, 4566
7539, 4560, 4549, 4563
7540, 4559, 4560, 4555
7541, 4561, 4564, 4565
7542, 4568, 4910, 28
7543, 4564, 4562, 4556
7544, 4568, 28, 4567
7545, 4550, 4563, 4549
7546, 4552, 4556, 4563
7547, 4565, 4564, 4545
7548, 4562, 4564, 4561
7549, 4905, 4907, 4546
7550, 5270, 5266, 5268
7551, 4559, 4566, 27
7552, 4555, 4562, 4566
7553, 4562, 4561, 4568
7554, 4566, 4567, 27
7555, 4561, 4911, 4910
7556, 4164, 4569, 4570
7557, 4164, 24, 4569
7558, 23, 4570, 4569
7559, 4919, 4571, 3840
7560, 4599, 4598, 4571
7561, 457, 456, 4572
7562, 4924, 4923, 4921
7563, 5057, 4922, 4924
7564, 4579, 4580, 4582
7565, 4574, 4575, 4921
7566, 4572, 4576, 4202
7567, 4921, 4575, 456
7568, 4576, 4575, 4574
7569, 4579, 4576, 4580
7570, 4582, 4584, 4579
7571, 4578, 4576, 4579
7572, 4587, 4595, 4584
7573, 4574, 4580, 4576
7574, 4198, 4578, 4577
7575, 4582, 4583, 4581
7576, 4577, 4578, 4579
7577, 4923, 4580, 4574
7578, 4582, 4580, 4573
7579, 4585, 4586, 1100
7580, 4584, 4577, 4579
7581, 4582, 4573, 5069
7582, 4582, 4581, 4584
7583, 4574, 4921, 4923
7584, 5303, 5065, 5302
7585, 4581, 4585, 4584
7586, 4585, 1100, 4587
7587, 4586, 4585, 4581
7588, 4587, 1100, 1101
7589, 4588, 4581, 4583
7590, 1100, 4586, 1099
7591, 1101, 4596, 4587
7592, 4584, 4585, 4587
7593, 4588, 4583, 4591
7594, 1099, 4586, 4588
7595, 5067, 5059, 5066
7596, 4590, 5071, 1098
7597, 5071, 4590, 4589
7598, 1098, 1099, 4590
7599, 5069, 5068, 4583
7600, 4590, 4591, 4589
7601, 4592, 4597, 4594
7602, 4594, 4593, 4592
7603, 4198, 4593, 4208
7604, 4592, 4596, 4597
7605, 4598, 4599, 1102
7606, 4571, 4919, 4920
7607, 4596, 4595, 4587
7608, 4926, 4595, 4592
7609, 4596, 1101, 4597
7610, 4595, 4596, 4592
7611, 1101, 1102, 4597
7612, 1102, 4594, 4597
7613, 4918, 4598, 1103
7614, 4594, 1102, 4599
7615, 4920, 4599, 4571
7616, 3852, 3854, 4601
7617, 4615, 4212, 4614
7618, 4602, 4601, 3848
7619, 4212, 4600, 4601
7620, 4602, 4603, 4604
7621, 4610, 4604, 4605
7622, 3856, 4603, 3848
7623, 4604, 4603, 3857
7624, 213, 4605, 4604
7625, 212, 4610, 4605
7626, 213, 212, 4605
7627, 4607, 4610, 212
7628, 4607, 4609, 4617
7629, 4619, 4618, 211
7630, 4609, 4607, 212
7631, 4604, 4608, 4602
7632, 4611, 4607, 4617
7633, 4611, 4608, 4610
7634, 212, 211, 4609
7635, 4609, 211, 4618
7636, 4611, 4610, 4607
7637, 4604, 4610, 4608
7638, 4641, 4611, 4606
7639, 4212, 4602, 4613
7640, 4606, 4634, 4635
7641, 853, 4615, 852
7642, 4927, 4608, 4611
7643, 4614, 4612, 852
7644, 4212, 4613, 4614
7645, 4614, 4613, 4927
7646, 4212, 4615, 4600
7647, 852, 4615, 4614
7648, 4622, 4621, 210
7649, 4616, 4623, 4625
7650, 4618, 4617, 4609
7651, 4634, 4617, 4616
7652, 4619, 211, 210
7653, 4617, 4618, 4616
7654, 4621, 4619, 210
7655, 4616, 4618, 4619
7656, 4626, 4653, 4628
7657, 4624, 4633, 4625
7658, 4622, 210, 209
7659, 4621, 4620, 4623
7660, 4622, 209, 4643
7661, 4620, 4621, 4622
7662, 4626, 4623, 4620
7663, 4626, 4625, 4623
7664, 4624, 4626, 4628
7665, 4631, 4624, 4629
7666, 4624, 4631, 4633
7667, 4617, 4634, 4606
7668, 4646, 4653, 4645
7669, 4625, 4626, 4624
7670, 4643, 4645, 4622
7671, 4630, 4651, 4649
7672, 4653, 4626, 4620
7673, 4629, 4628, 4627
7674, 4629, 4627, 4630
7675, 4629, 849, 4631
7676, 4651, 4646, 4636
7677, 848, 4630, 4648
7678, 849, 850, 4631
7679, 4633, 4631, 850
7680, 4630, 848, 4632
7681, 848, 849, 4632
7682, 4635, 4639, 851
7683, 4652, 851, 4642
7684, 4616, 4625, 4634
7685, 4640, 4625, 4633
7686, 4635, 4640, 4639
7687, 4644, 209, 208
7688, 4644, 4643, 209
7689, 4654, 4656, 4647
7690, 4648, 4649, 4637
7691, 4663, 4656, 4658
7692, 4633, 4638, 4639
7693, 4633, 850, 4638
7694, 851, 4639, 4638
7695, 4625, 4640, 4634
7696, 4633, 4639, 4640
7697, 4641, 4612, 4927
7698, 4606, 4635, 4641
7699, 852, 4612, 4642
7700, 4652, 4641, 4635
7701, 4645, 4643, 4636
7702, 4654, 4657, 4656
7703, 4636, 4643, 4644
7704, 4646, 4645, 4636
7705, 4622, 4645, 4620
7706, 4647, 4651, 4636
7707, 4653, 4627, 4628
7708, 4644, 4654, 4636
7709, 4647, 4636, 4654
7710, 4649, 4648, 4630
7711, 4637, 4665, 4650
7712, 4651, 4630, 4627
7713, 4649, 4647, 4663
7714, 4646, 4651, 4627
7715, 4637, 4650, 4648
7716, 4647, 4649, 4651
7717, 851, 4652, 4635
7718, 4642, 4612, 4652
7719, 4645, 4653, 4620
7720, 4627, 4653, 4646
7721, 208, 4657, 4644
7722, 4660, 4656, 4657
7723, 4655, 4660, 4661
7724, 4650, 4665, 847
7725, 4654, 4644, 4657
7726, 4656, 4655, 4658
7727, 207, 4662, 4659
7728, 4656, 4660, 4655
7729, 4684, 4655, 4683
7730, 4637, 4658, 4665
7731, 4662, 4657, 4659
7732, 4657, 208, 4659
7733, 4660, 4662, 4661
7734, 4678, 4661, 4685
7735, 4676, 4675, 4673
7736, 4661, 4662, 207
7737, 4657, 4662, 4660
7738, 4649, 4663, 4637
7739, 4656, 4663, 4647
7740, 4683, 4655, 4661
7741, 846, 4667, 4668
7742, 4658, 4666, 4665
7743, 4664, 4668, 4667
7744, 4655, 4666, 4658
7745, 4667, 4666, 4664
7746, 847, 4665, 4667
7747, 4667, 4665, 4666
7748, 4671, 4668, 4664
7749, 846, 4668, 4670
7750, 4664, 4684, 4673
7751, 4673, 4675, 4669
7752, 4671, 4670, 4668
7753, 4681, 4670, 4669
7754, 4684, 4664, 4666
7755, 4670, 4671, 4669
7756, 4687, 4928, 204
7757, 4688, 4678, 206
7758, 4664, 4673, 4671
7759, 4676, 4674, 4675
7760, 205, 4687, 4689
7761, 4682, 845, 4681
7762, 4676, 4673, 4672
7763, 4677, 4700, 4690
7764, 4678, 4676, 4672
7765, 4688, 4676, 4678
7766, 4679, 4689, 4674
7767, 4932, 4929, 4697
7768, 4683, 4678, 4672
7769, 4685, 4661, 207
7770, 206, 4686, 4688
7771, 205, 4679, 4686
7772, 4700, 4675, 4674
7773, 4691, 4693, 4682
7774, 4680, 4691, 4669
7775, 845, 4682, 844
7776, 4681, 4691, 4682
7777, 4693, 4692, 4682
7778, 4678, 4683, 4661
7779, 4672, 4673, 4684
7780, 4655, 4684, 4666
7781, 4672, 4684, 4683
7782, 207, 206, 4685
7783, 206, 4678, 4685
7784, 4930, 4934, 4929
7785, 4676, 4679, 4674
7786, 4689, 4690, 4674
7787, 4686, 4679, 4688
7788, 4676, 4688, 4679
7789, 205, 4689, 4679
7790, 4690, 4689, 4687
7791, 4694, 4696, 4698
7792, 4677, 4680, 4700
7793, 4669, 4691, 4681
7794, 4693, 4680, 4677
7795, 4696, 4692, 4677
7796, 844, 4692, 4695
7797, 4680, 4693, 4691
7798, 4677, 4692, 4693
7799, 4698, 4677, 4705
7800, 4699, 4694, 4698
7801, 4696, 4695, 4692
7802, 4695, 4696, 4701
7803, 4705, 4677, 4690
7804, 4696, 4694, 4701
7805, 4687, 204, 4929
7806, 4934, 4930, 4931
7807, 4677, 4698, 4696
7808, 4698, 4697, 4934
7809, 4933, 4931, 203
7810, 4939, 4936, 4937
7811, 4675, 4700, 4680
7812, 4674, 4690, 4700
7813, 4699, 5093, 4704
7814, 4704, 4703, 4701
7815, 4943, 4941, 4944
7816, 5327, 5328, 5330
7817, 5328, 4703, 4702
7818, 842, 843, 4703
7819, 4699, 4704, 4694
7820, 4703, 4704, 4702
7821, 4932, 4690, 4687
7822, 4698, 4705, 4697
7823, 4946, 4706, 3861
7824, 4734, 4733, 4706
7825, 298, 297, 4707
7826, 4951, 4950, 4948
7827, 5094, 4949, 4951
7828, 4714, 4715, 4717
7829, 4709, 4710, 4948
7830, 4707, 4711, 4236
7831, 4948, 4710, 297
7832, 4711, 4710, 4709
7833, 4714, 4711, 4715
7834, 4717, 4719, 4714
7835, 4713, 4711, 4714
7836, 4722, 4730, 4719
7837, 4709, 4715, 4711
7838, 4232, 4713, 4712
7839, 4717, 4718, 4716
7840, 4712, 4713, 4714
7841, 4950, 4715, 4709
7842, 4717, 4715, 4708
7843, 4720, 4721, 937
7844, 4719, 4712, 4714
7845, 4717, 4708, 5106
7846, 4717, 4716, 4719
7847, 4709, 4948, 4950
7848, 5342, 5102, 5341
7849, 4716, 4720, 4719
7850, 4720, 937, 4722
7851, 4721, 4720, 4716
7852, 4722, 937, 938
7853, 4723, 4716, 4718
7854, 937, 4721, 936
7855, 938, 4731, 4722
7856, 4719, 4720, 4722
7857, 4723, 4718, 4726
7858, 936, 4721, 4723
7859, 5104, 5096, 5103
7860, 4725, 5108, 935
7861, 5108, 4725, 4724
7862, 935, 936, 4725
7863, 5106, 5105, 4718
7864, 4725, 4726, 4724
7865, 4727, 4732, 4729
7866, 4729, 4728, 4727
7867, 4232, 4728, 4242
7868, 4727, 4731, 4732
7869, 4733, 4734, 939
7870, 4706, 4946, 4947
7871, 4731, 4730, 4722
7872, 4953, 4730, 4727
7873, 4731, 938, 4732
7874, 4730, 4731, 4727
7875, 938, 939, 4732
7876, 939, 4729, 4732
7877, 4945, 4733, 940
7878, 4729, 939, 4734
7879, 4947, 4734, 4706
7880, 4955, 4735, 3865
7881, 4763, 4762, 4735
7882, 616, 615, 4736
7883, 4960, 4959, 4957
7884, 5110, 4958, 4960
7885, 4743, 4744, 4746
7886, 4738, 4739, 4957
7887, 4736, 4740, 4263
7888, 4957, 4739, 615
7889, 4740, 4739, 4738
7890, 4743, 4740, 4744
7891, 4746, 4748, 4743
7892, 4742, 4740, 4743
7893, 4751, 4759, 4748
7894, 4738, 4744, 4740
7895, 4259, 4742, 4741
7896, 4746, 4747, 4745
7897, 4741, 4742, 4743
7898, 4959, 4744, 4738
7899, 4746, 4744, 4737
7900, 4749, 4750, 1263
7901, 4748, 4741, 4743
7902, 4746, 4737, 5122
7903, 4746, 4745, 4748
7904, 4738, 4957, 4959
7905, 5372, 5118, 5371
7906, 4745, 4749, 4748
7907, 4749, 1263, 4751
7908, 4750, 4749, 4745
7909, 4751, 1263, 1264
7910, 4752, 4745, 4747
7911, 1263, 4750, 1262
7912, 1264, 4760, 4751
7913, 4748, 4749, 4751
7914, 4752, 4747, 4755
7915, 1262, 4750, 4752
7916, 5120, 5112, 5119
7917, 4754, 5124, 1261
7918, 5124, 4754, 4753
7919, 1261, 1262, 4754
7920, 5122, 5121, 4747
7921, 4754, 4755, 4753
7922, 4756, 4761, 4758
7923, 4758, 4757, 4756
7924, 4259, 4757, 4269
7925, 4756, 4760, 4761
7926, 4762, 4763, 1265
7927, 4735, 4955, 4956
7928, 4760, 4759, 4751
7929, 4962, 4759, 4756
7930, 4760, 1264, 4761
7931, 4759, 4760, 4756
7932, 1264, 1265, 4761
7933, 1265, 4758, 4761
7934, 4954, 4762, 1266
7935, 4758, 1265, 4763
7936, 4956, 4763, 4735
7937, 4764, 4963, 4964
7938, 4764, 5127, 5128
7939, 4969, 4765, 3924
7940, 4793, 4792, 4765
7941, 139, 138, 4766
7942, 4974, 4973, 4971
7943, 5136, 4972, 4974
7944, 4773, 4774, 4776
7945, 4768, 4769, 4971
7946, 4766, 4770, 4297
7947, 4971, 4769, 138
7948, 4770, 4769, 4768
7949, 4773, 4770, 4774
7950, 4776, 4778, 4773
7951, 4772, 4770, 4773
7952, 4781, 4789, 4778
7953, 4768, 4774, 4770
7954, 4293, 4772, 4771
7955, 4776, 4777, 4775
7956, 4771, 4772, 4773
7957, 4973, 4774, 4768
7958, 4776, 4774, 4767
7959, 4779, 4780, 774
7960, 4778, 4771, 4773
7961, 4776, 4767, 5148
7962, 4776, 4775, 4778
7963, 4768, 4971, 4973
7964, 5405, 5144, 5404
7965, 4775, 4779, 4778
7966, 4779, 774, 4781
7967, 4780, 4779, 4775
7968, 4781, 774, 775
7969, 4782, 4775, 4777
7970, 774, 4780, 773
7971, 775, 4790, 4781
7972, 4778, 4779, 4781
7973, 4782, 4777, 4785
7974, 773, 4780, 4782
7975, 5146, 5138, 5145
7976, 4784, 5150, 772
7977, 5150, 4784, 4783
7978, 772, 773, 4784
7979, 5148, 5147, 4777
7980, 4784, 4785, 4783
7981, 4786, 4791, 4788
7982, 4788, 4787, 4786
7983, 4293, 4787, 4303
7984, 4786, 4790, 4791
7985, 4792, 4793, 776
7986, 4765, 4969, 4970
7987, 4790, 4789, 4781
7988, 4976, 4789, 4786
7989, 4790, 775, 4791
7990, 4789, 4790, 4786
7991, 775, 776, 4791
7992, 776, 4788, 4791
7993, 4968, 4792, 777
7994, 4788, 776, 4793
7995, 4970, 4793, 4765
7996, 4796, 4308, 4801
7997, 4798, 4797, 4312
7998, 4797, 4977, 4979
7999, 5155, 5429, 6210
8000, 4310, 3932, 4798
8001, 4977, 4798, 3932
8002, 4980, 5152, 4797
8003, 5440, 4797, 4979
8004, 4308, 4796, 4800
8005, 4800, 4796, 4802
8006, 2129, 4801, 4308
8007, 3936, 4801, 3934
8008, 5152, 4802, 4312
8009, 4800, 4802, 4799
8010, 4805, 4317, 4810
8011, 4807, 4806, 4321
8012, 4806, 4982, 4984
8013, 5159, 5454, 6254
8014, 4319, 3945, 4807
8015, 4982, 4807, 3945
8016, 4985, 5156, 4806
8017, 5465, 4806, 4984
8018, 4317, 4805, 4809
8019, 4809, 4805, 4811
8020, 2138, 4810, 4317
8021, 3949, 4810, 3947
8022, 5156, 4811, 4321
8023, 4809, 4811, 4808
8024, 4814, 4326, 4819
8025, 4816, 4815, 4330
8026, 4815, 4987, 4989
8027, 5163, 5479, 6298
8028, 4328, 3958, 4816
8029, 4987, 4816, 3958
8030, 4990, 5160, 4815
8031, 5490, 4815, 4989
8032, 4326, 4814, 4818
8033, 4818, 4814, 4820
8034, 2147, 4819, 4326
8035, 3962, 4819, 3960
8036, 5160, 4820, 4330
8037, 4818, 4820, 4817
8038, 4823, 4335, 4828
8039, 4825, 4824, 4339
8040, 4824, 4992, 4994
8041, 5167, 5504, 6342
8042, 4337, 3971, 4825
8043, 4992, 4825, 3971
8044, 4995, 5164, 4824
8045, 5515, 4824, 4994
8046, 4335, 4823, 4827
8047, 4827, 4823, 4829
8048, 2156, 4828, 4335
8049, 3975, 4828, 3973
8050, 5164, 4829, 4339
8051, 4827, 4829, 4826
8052, 1073, 1074, 4830
8053, 4833, 4998, 4832
8054, 5525, 5168, 4997
8055, 5525, 5527, 4831
8056, 4830, 4998, 4833
8057, 4999, 4832, 5001
8058, 4998, 1074, 4997
8059, 4832, 4999, 5000
8060, 429, 428, 4834
8061, 4834, 428, 4011
8062, 4999, 4835, 4006
8063, 4834, 4835, 4348
8064, 4348, 4999, 5003
8065, 4836, 5003, 5002
8066, 4370, 4837, 4838
8067, 4370, 268, 4837
8068, 267, 4838, 4837
8069, 4841, 4839, 4840
8070, 4843, 4842, 4844
8071, 4366, 4840, 4361
8072, 4841, 4840, 4351
8073, 4360, 4841, 4351
8074, 4841, 4359, 4847
8075, 4842, 4843, 4845
8076, 4845, 4855, 4842
8077, 4847, 4839, 4841
8078, 4845, 4843, 4847
8079, 4846, 4844, 4842
8080, 4370, 4844, 268
8081, 4359, 4848, 4845
8082, 911, 6394, 5172
8083, 4842, 4855, 4853
8084, 268, 4846, 269
8085, 4847, 4843, 4839
8086, 4359, 4845, 4847
8087, 4359, 4360, 4850
8088, 910, 5171, 4851
8089, 909, 4851, 4861
8090, 4851, 5171, 4854
8091, 908, 909, 4850
8092, 909, 4848, 4850
8093, 5012, 4849, 4856
8094, 4860, 4861, 4854
8095, 4845, 4848, 4860
8096, 4846, 4853, 269
8097, 4856, 4852, 5012
8098, 4853, 4852, 4856
8099, 4855, 4860, 4852
8100, 4860, 4855, 4845
8101, 4853, 4855, 4852
8102, 4857, 4856, 4849
8103, 4857, 4859, 4856
8104, 5543, 5014, 5549
8105, 271, 270, 5013
8106, 269, 4853, 4858
8107, 4858, 4853, 4856
8108, 270, 4858, 4859
8109, 4856, 4859, 4858
8110, 4861, 4860, 4848
8111, 4860, 4854, 5012
8112, 909, 4861, 4848
8113, 4854, 4861, 4851
8114, 5023, 4863, 5024
8115, 5017, 5176, 1008
8116, 5585, 5581, 5598
8117, 5023, 4388, 4394
8118, 5035, 4865, 5036
8119, 5029, 5181, 1171
8120, 5634, 5630, 5647
8121, 5035, 4426, 4432
8122, 989, 990, 4866
8123, 4866, 990, 4867
8124, 5041, 4867, 990
8125, 4869, 4472, 4452
8126, 4869, 4867, 4472
8127, 4452, 4453, 4868
8128, 4452, 4868, 4869
8129, 4867, 4869, 4868
8130, 5203, 5041, 5043
8131, 4873, 4875, 347
8132, 4468, 4871, 4475
8133, 4873, 4871, 4870
8134, 4468, 4472, 4872
8135, 5202, 4872, 4472
8136, 4873, 4870, 4876
8137, 4878, 4873, 347
8138, 4876, 5201, 5206
8139, 5187, 5185, 992
8140, 5211, 4875, 4874
8141, 348, 347, 4875
8142, 4876, 4870, 5201
8143, 4875, 4876, 4874
8144, 5199, 5042, 5200
8145, 5191, 5188, 5190
8146, 826, 827, 4879
8147, 4873, 4878, 4871
8148, 4879, 827, 4880
8149, 5045, 4880, 827
8150, 4882, 4503, 4483
8151, 4882, 4880, 4503
8152, 4483, 4484, 4881
8153, 4483, 4881, 4882
8154, 4880, 4882, 4881
8155, 5230, 5045, 5047
8156, 4886, 4888, 188
8157, 4499, 4884, 4506
8158, 4886, 4884, 4883
8159, 4499, 4503, 4885
8160, 5229, 4885, 4503
8161, 4886, 4883, 4889
8162, 4891, 4886, 188
8163, 4889, 5228, 5233
8164, 5214, 5212, 829
8165, 5238, 4888, 4887
8166, 189, 188, 4888
8167, 4889, 4883, 5228
8168, 4888, 4889, 4887
8169, 5226, 5046, 5227
8170, 5218, 5215, 5217
8171, 1152, 1153, 4892
8172, 4886, 4891, 4884
8173, 4892, 1153, 4893
8174, 5049, 4893, 1153
8175, 4895, 4534, 4514
8176, 4895, 4893, 4534
8177, 4514, 4515, 4894
8178, 4514, 4894, 4895
8179, 4893, 4895, 4894
8180, 5257, 5049, 5051
8181, 4899, 4901, 506
8182, 4530, 4897, 4537
8183, 4899, 4897, 4896
8184, 4530, 4534, 4898
8185, 5256, 4898, 4534
8186, 4899, 4896, 4902
8187, 4904, 4899, 506
8188, 4902, 5255, 5260
8189, 5241, 5239, 1155
8190, 5265, 4901, 4900
8191, 507, 506, 4901
8192, 4902, 4896, 5255
8193, 4901, 4902, 4900
8194, 5253, 5050, 5254
8195, 5245, 5242, 5244
8196, 663, 664, 4905
8197, 4899, 4904, 4897
8198, 4905, 664, 4906
8199, 5053, 4906, 664
8200, 4908, 4565, 4545
8201, 4908, 4906, 4565
8202, 4545, 4546, 4907
8203, 4545, 4907, 4908
8204, 4906, 4908, 4907
8205, 5284, 5053, 5055
8206, 4912, 4914, 29
8207, 4561, 4910, 4568
8208, 4912, 4910, 4909
8209, 4561, 4565, 4911
8210, 5283, 4911, 4565
8211, 4912, 4909, 4915
8212, 4917, 4912, 29
8213, 4915, 5282, 5287
8214, 5268, 5266, 666
8215, 5292, 4914, 4913
8216, 30, 29, 4914
8217, 4915, 4909, 5282
8218, 4914, 4915, 4913
8219, 5280, 5054, 5281
8220, 5272, 5269, 5271
8221, 4193, 4918, 4188
8222, 4912, 4917, 4910
8223, 4598, 4918, 4571
8224, 4206, 4919, 3840
8225, 4920, 4919, 4205
8226, 4593, 4920, 4205
8227, 4920, 4594, 4599
8228, 456, 455, 4921
8229, 4921, 455, 4924
8230, 5059, 4922, 5057
8231, 4922, 5067, 5069
8232, 5069, 4923, 4922
8233, 4580, 4923, 4573
8234, 5057, 4924, 455
8235, 4923, 4924, 4922
8236, 4922, 5059, 5067
8237, 5306, 5063, 5064
8238, 4595, 4926, 4577
8239, 4593, 4926, 4592
8240, 4641, 4927, 4611
8241, 4614, 4927, 4612
8242, 4930, 4929, 204
8243, 4687, 205, 4928
8244, 4932, 4697, 4705
8245, 204, 203, 4930
8246, 4931, 4930, 203
8247, 4933, 203, 202
8248, 4931, 4699, 4934
8249, 4690, 4932, 4705
8250, 4687, 4929, 4932
8251, 4933, 202, 4936
8252, 4941, 5093, 4942
8253, 4698, 4934, 4699
8254, 4929, 4934, 4697
8255, 5073, 4938, 4940
8256, 5078, 5331, 5081
8257, 4937, 4936, 202
8258, 4939, 4943, 4936
8259, 202, 201, 4937
8260, 4937, 201, 4940
8261, 5073, 5076, 5077
8262, 4938, 5077, 5079
8263, 4940, 4939, 4937
8264, 5083, 4939, 4938
8265, 5073, 4940, 201
8266, 4939, 4940, 4938
8267, 5081, 5331, 4935
8268, 5093, 4941, 5329
8269, 4931, 4933, 4942
8270, 4944, 4942, 4933
8271, 5329, 4943, 4935
8272, 4944, 4941, 4942
8273, 4933, 4936, 4944
8274, 4943, 4944, 4936
8275, 4227, 4945, 4222
8276, 4733, 4945, 4706
8277, 4240, 4946, 3861
8278, 4947, 4946, 4239
8279, 4728, 4947, 4239
8280, 4947, 4729, 4734
8281, 297, 296, 4948
8282, 4948, 296, 4951
8283, 5096, 4949, 5094
8284, 4949, 5104, 5106
8285, 5106, 4950, 4949
8286, 4715, 4950, 4708
8287, 5094, 4951, 296
8288, 4950, 4951, 4949
8289, 4949, 5096, 5104
8290, 5345, 5100, 5101
8291, 4730, 4953, 4712
8292, 4728, 4953, 4727
8293, 4254, 4954, 4249
8294, 4762, 4954, 4735
8295, 4267, 4955, 3865
8296, 4956, 4955, 4266
8297, 4757, 4956, 4266
8298, 4956, 4758, 4763
8299, 615, 614, 4957
8300, 4957, 614, 4960
8301, 5112, 4958, 5110
8302, 4958, 5120, 5122
8303, 5122, 4959, 4958
8304, 4744, 4959, 4737
8305, 5110, 4960, 614
8306, 4959, 4960, 4958
8307, 4958, 5112, 5120
8308, 5375, 5116, 5117
8309, 4759, 4962, 4741
8310, 4757, 4962, 4756
8311, 3909, 4963, 3910
8312, 4964, 4963, 3908
8313, 3908, 3914, 4965
8314, 4966, 5392, 4964
8315, 3914, 1239, 4965
8316, 4966, 1240, 5392
8317, 5128, 5130, 4967
8318, 4965, 1239, 4966
8319, 4967, 5131, 5133
8320, 4288, 4968, 4283
8321, 4792, 4968, 4765
8322, 4301, 4969, 3924
8323, 4970, 4969, 4300
8324, 4787, 4970, 4300
8325, 4970, 4788, 4793
8326, 138, 137, 4971
8327, 4971, 137, 4974
8328, 5138, 4972, 5136
8329, 4972, 5146, 5148
8330, 5148, 4973, 4972
8331, 4774, 4973, 4767
8332, 5136, 4974, 137
8333, 4973, 4974, 4972
8334, 4972, 5138, 5146
8335, 5408, 5142, 5143
8336, 4789, 4976, 4771
8337, 4787, 4976, 4786
8338, 5442, 5153, 5425
8339, 4798, 4977, 4797
8340, 5441, 6250, 6532
8341, 5426, 5429, 5155
8342, 5443, 5442, 5449
8343, 3647, 5447, 4979
8344, 4797, 5440, 4980
8345, 5153, 5434, 5427
8346, 5427, 4981, 5426
8347, 5426, 5155, 4980
8348, 5467, 5157, 5450
8349, 4807, 4982, 4806
8350, 5466, 6294, 6542
8351, 5451, 5454, 5159
8352, 5468, 5467, 5474
8353, 3665, 5472, 4984
8354, 4806, 5465, 4985
8355, 5157, 5459, 5452
8356, 5452, 4986, 5451
8357, 5451, 5159, 4985
8358, 5492, 5161, 5475
8359, 4816, 4987, 4815
8360, 5491, 6338, 6552
8361, 5476, 5479, 5163
8362, 5493, 5492, 5499
8363, 3683, 5497, 4989
8364, 4815, 5490, 4990
8365, 5161, 5484, 5477
8366, 5477, 4991, 5476
8367, 5476, 5163, 4990
8368, 5517, 5165, 5500
8369, 4825, 4992, 4824
8370, 5516, 6382, 6562
8371, 5501, 5504, 5167
8372, 5518, 5517, 5524
8373, 3701, 5522, 4994
8374, 4824, 5515, 4995
8375, 5165, 5509, 5502
8376, 5502, 4996, 5501
8377, 5501, 5167, 4995
8378, 1075, 5526, 5169
8379, 5526, 5525, 4997
8380, 1074, 4998, 4830
8381, 4998, 4997, 5168
8382, 4999, 4006, 5000
8383, 5168, 5001, 4832
8384, 4006, 4343, 5000
8385, 4833, 5000, 4343
8386, 5002, 5001, 4831
8387, 5003, 5001, 5002
8388, 5527, 5006, 4831
8389, 4836, 5002, 5005
8390, 5003, 4836, 5010
8391, 4999, 5001, 5003
8392, 5168, 5525, 4831
8393, 5542, 5535, 5529
8394, 5002, 5006, 5005
8395, 5008, 5005, 5006
8396, 4831, 5006, 5002
8397, 5007, 5005, 5008
8398, 5533, 6390, 5004
8399, 5005, 5007, 430
8400, 431, 5007, 5008
8401, 5003, 5010, 4348
8402, 5005, 5009, 4836
8403, 5009, 5010, 4836
8404, 5547, 6395, 6397
8405, 4849, 6393, 5546
8406, 4860, 5012, 4852
8407, 4854, 5171, 6393
8408, 4859, 5013, 270
8409, 5545, 4857, 4849
8410, 913, 6405, 6407
8411, 5548, 5015, 5549
8412, 5013, 5544, 5016
8413, 5543, 5549, 5015
8414, 5544, 5013, 4857
8415, 5548, 5016, 5015
8416, 1008, 1009, 5017
8417, 4389, 5017, 1009
8418, 5177, 5018, 4388
8419, 5017, 5018, 4862
8420, 5177, 4862, 5018
8421, 5552, 5176, 4862
8422, 5021, 5020, 365
8423, 5023, 5020, 4863
8424, 5597, 362, 5579
8425, 5020, 5021, 4863
8426, 5027, 5019, 5552
8427, 5020, 5023, 4395
8428, 4863, 5025, 5024
8429, 5028, 5024, 5025
8430, 5023, 5024, 5177
8431, 4863, 364, 5025
8432, 5026, 364, 363
8433, 5022, 5025, 5026
8434, 364, 5026, 5025
8435, 5027, 5028, 5553
8436, 5555, 5554, 5179
8437, 5553, 5028, 5022
8438, 5028, 5027, 5552
8439, 1171, 1172, 5029
8440, 4427, 5029, 1172
8441, 5182, 5030, 4426
8442, 5029, 5030, 4864
8443, 5182, 4864, 5030
8444, 5601, 5181, 4864
8445, 5033, 5032, 524
8446, 5035, 5032, 4865
8447, 5646, 521, 5628
8448, 5032, 5033, 4865
8449, 5039, 5031, 5601
8450, 5032, 5035, 4433
8451, 4865, 5037, 5036
8452, 5040, 5036, 5037
8453, 5035, 5036, 5182
8454, 4865, 523, 5037
8455, 5038, 523, 522
8456, 5034, 5037, 5038
8457, 523, 5038, 5037
8458, 5039, 5040, 5602
8459, 5604, 5603, 5184
8460, 5602, 5040, 5034
8461, 5040, 5039, 5601
8462, 990, 991, 5041
8463, 5043, 5041, 991
8464, 5042, 5043, 5185
8465, 5201, 5199, 5200
8466, 5185, 5043, 991
8467, 5043, 5042, 5203
8468, 5190, 5198, 5191
8469, 5209, 5204, 5208
8470, 827, 828, 5045
8471, 5047, 5045, 828
8472, 5046, 5047, 5212
8473, 5228, 5226, 5227
8474, 5212, 5047, 828
8475, 5047, 5046, 5230
8476, 5217, 5225, 5218
8477, 5236, 5231, 5235
8478, 1153, 1154, 5049
8479, 5051, 5049, 1154
8480, 5050, 5051, 5239
8481, 5255, 5253, 5254
8482, 5239, 5051, 1154
8483, 5051, 5050, 5257
8484, 5244, 5252, 5245
8485, 5263, 5258, 5262
8486, 664, 665, 5053
8487, 5055, 5053, 665
8488, 5054, 5055, 5266
8489, 5282, 5280, 5281
8490, 5266, 5055, 665
8491, 5055, 5054, 5284
8492, 5271, 5279, 5272
8493, 5290, 5285, 5289
8494, 455, 454, 5057
8495, 5060, 5059, 5057
8496, 5061, 5060, 454
8497, 5064, 5293, 5062
8498, 5060, 5057, 454
8499, 5063, 5066, 5059
8500, 5061, 454, 453
8501, 5059, 5060, 5063
8502, 5064, 5061, 453
8503, 5063, 5058, 5066
8504, 5297, 452, 5298
8505, 5312, 5314, 5318
8506, 5060, 5061, 5063
8507, 5063, 5061, 5064
8508, 5293, 5064, 453
8509, 5064, 5062, 5306
8510, 5066, 5302, 5065
8511, 4589, 4591, 5068
8512, 5302, 5066, 5058
8513, 5067, 5066, 5065
8514, 5068, 5067, 5065
8515, 5067, 5068, 5069
8516, 5068, 5065, 5303
8517, 4583, 5068, 4591
8518, 4582, 5069, 4583
8519, 5069, 4573, 4923
8520, 5303, 5071, 4589
8521, 4925, 1097, 5070
8522, 5070, 5071, 4925
8523, 4925, 5303, 5302
8524, 5296, 5062, 5293
8525, 201, 200, 5073
8526, 5326, 5325, 5323
8527, 5816, 5799, 198
8528, 5080, 5087, 5078
8529, 5075, 5076, 5323
8530, 5073, 5077, 4938
8531, 5323, 5076, 200
8532, 5077, 5076, 5075
8533, 5080, 5077, 5084
8534, 5080, 5086, 5087
8535, 5079, 5077, 5080
8536, 5091, 5088, 5090
8537, 5075, 5084, 5077
8538, 5081, 5079, 5078
8539, 5084, 5086, 5080
8540, 5078, 5079, 5080
8541, 5087, 5091, 5078
8542, 4935, 4939, 5083
8543, 5082, 5092, 5327
8544, 4943, 5329, 4941
8545, 5079, 5083, 4938
8546, 4935, 5083, 5081
8547, 5325, 5084, 5075
8548, 5086, 5084, 5074
8549, 838, 5794, 5815
8550, 5088, 5085, 5089
8551, 5808, 5807, 5814
8552, 5086, 5085, 5087
8553, 5085, 5088, 5087
8554, 840, 5090, 5088
8555, 5811, 5814, 5807
8556, 5090, 840, 841
8557, 839, 840, 5089
8558, 840, 5088, 5089
8559, 841, 5092, 5090
8560, 5082, 5078, 5091
8561, 5088, 5091, 5087
8562, 5091, 5090, 5092
8563, 5327, 5092, 841
8564, 5091, 5092, 5082
8565, 4704, 5093, 4702
8566, 4942, 5093, 4699
8567, 296, 295, 5094
8568, 5097, 5096, 5094
8569, 5098, 5097, 295
8570, 5101, 5332, 5099
8571, 5097, 5094, 295
8572, 5100, 5103, 5096
8573, 5098, 295, 294
8574, 5096, 5097, 5100
8575, 5101, 5098, 294
8576, 5100, 5095, 5103
8577, 5336, 293, 5337
8578, 5351, 5353, 5357
8579, 5097, 5098, 5100
8580, 5100, 5098, 5101
8581, 5332, 5101, 294
8582, 5101, 5099, 5345
8583, 5103, 5341, 5102
8584, 4724, 4726, 5105
8585, 5341, 5103, 5095
8586, 5104, 5103, 5102
8587, 5105, 5104, 5102
8588, 5104, 5105, 5106
8589, 5105, 5102, 5342
8590, 4718, 5105, 4726
8591, 4717, 5106, 4718
8592, 5106, 4708, 4950
8593, 5342, 5108, 4724
8594, 4952, 934, 5107
8595, 5107, 5108, 4952
8596, 4952, 5342, 5341
8597, 5335, 5099, 5332
8598, 614, 613, 5110
8599, 5113, 5112, 5110
8600, 5114, 5113, 613
8601, 5117, 5362, 5115
8602, 5113, 5110, 613
8603, 5116, 5119, 5112
8604, 5114, 613, 612
8605, 5112, 5113, 5116
8606, 5117, 5114, 612
8607, 5116, 5111, 5119
8608, 5366, 611, 5367
8609, 5381, 5383, 5387
8610, 5113, 5114, 5116
8611, 5116, 5114, 5117
8612, 5362, 5117, 612
8613, 5117, 5115, 5375
8614, 5119, 5371, 5118
8615, 4753, 4755, 5121
8616, 5371, 5119, 5111
8617, 5120, 5119, 5118
8618, 5121, 5120, 5118
8619, 5120, 5121, 5122
8620, 5121, 5118, 5372
8621, 4747, 5121, 4755
8622, 4746, 5122, 4747
8623, 5122, 4737, 4959
8624, 5372, 5124, 4753
8625, 4961, 1260, 5123
8626, 5123, 5124, 4961
8627, 4961, 5372, 5371
8628, 5365, 5115, 5362
8629, 1241, 6152, 5393
8630, 6155, 6151, 6152
8631, 5392, 5127, 4964
8632, 5126, 4276, 5127
8633, 4276, 6154, 5130
8634, 5135, 4967, 5134
8635, 4276, 5126, 6151
8636, 5129, 6154, 6157
8637, 4276, 5130, 5128
8638, 5131, 5130, 5129
8639, 5132, 5131, 5129
8640, 5131, 592, 5133
8641, 6158, 5129, 6157
8642, 592, 5132, 593
8643, 592, 591, 5133
8644, 3912, 5134, 591
8645, 4963, 5135, 3910
8646, 591, 5134, 5133
8647, 4967, 5135, 5128
8648, 3910, 5135, 5134
8649, 137, 136, 5136
8650, 5139, 5138, 5136
8651, 5140, 5139, 136
8652, 5143, 5395, 5141
8653, 5139, 5136, 136
8654, 5142, 5145, 5138
8655, 5140, 136, 135
8656, 5138, 5139, 5142
8657, 5143, 5140, 135
8658, 5142, 5137, 5145
8659, 5399, 134, 5400
8660, 5414, 5416, 5420
8661, 5139, 5140, 5142
8662, 5142, 5140, 5143
8663, 5395, 5143, 135
8664, 5143, 5141, 5408
8665, 5145, 5404, 5144
8666, 4783, 4785, 5147
8667, 5404, 5145, 5137
8668, 5146, 5145, 5144
8669, 5147, 5146, 5144
8670, 5146, 5147, 5148
8671, 5147, 5144, 5405
8672, 4777, 5147, 4785
8673, 4776, 5148, 4777
8674, 5148, 4767, 4973
8675, 5405, 5150, 4783
8676, 4975, 771, 5149
8677, 5149, 5150, 4975
8678, 4975, 5405, 5404
8679, 5398, 5141, 5395
8680, 4797, 5152, 4312
8681, 5155, 5152, 4980
8682, 5153, 5437, 6211
8683, 5431, 4311, 5427
8684, 4981, 5429, 5426
8685, 5429, 4981, 5154
8686, 5152, 5155, 4799
8687, 4980, 5425, 5426
8688, 4806, 5156, 4321
8689, 5159, 5156, 4985
8690, 5157, 5462, 6255
8691, 5456, 4320, 5452
8692, 4986, 5454, 5451
8693, 5454, 4986, 5158
8694, 5156, 5159, 4808
8695, 4985, 5450, 5451
8696, 4815, 5160, 4330
8697, 5163, 5160, 4990
8698, 5161, 5487, 6299
8699, 5481, 4329, 5477
8700, 4991, 5479, 5476
8701, 5479, 4991, 5162
8702, 5160, 5163, 4817
8703, 4990, 5475, 5476
8704, 4824, 5164, 4339
8705, 5167, 5164, 4995
8706, 5165, 5512, 6343
8707, 5506, 4338, 5502
8708, 4996, 5504, 5501
8709, 5504, 4996, 5166
8710, 5164, 5167, 4826
8711, 4995, 5500, 5501
8712, 5001, 5168, 4831
8713, 4998, 5168, 4832
8714, 1077, 5531, 6386
8715, 4997, 1074, 5169
8716, 5534, 5530, 5529
8717, 5172, 5171, 910
8718, 5011, 5546, 6393
8719, 5546, 5545, 4849
8720, 5171, 5172, 5011
8721, 5547, 5011, 6394
8722, 6397, 6400, 6398
8723, 6402, 6453, 5174
8724, 5552, 4862, 5177
8725, 5554, 5175, 5019
8726, 5175, 5176, 5019
8727, 5023, 5177, 4388
8728, 5024, 5028, 5552
8729, 5597, 5571, 5581
8730, 5572, 5573, 5567
8731, 5557, 5027, 5553
8732, 5179, 5556, 5555
8733, 5601, 4864, 5182
8734, 5603, 5180, 5031
8735, 5180, 5181, 5031
8736, 5035, 5182, 4426
8737, 5036, 5040, 5601
8738, 5646, 5620, 5630
8739, 5621, 5622, 5616
8740, 5606, 5039, 5602
8741, 5184, 5605, 5604
8742, 991, 992, 5185
8743, 5187, 992, 5188
8744, 5186, 5191, 5204
8745, 5189, 5042, 5185
8746, 5188, 992, 993
8747, 5187, 5186, 5189
8748, 5188, 993, 5190
8749, 5186, 5187, 5188
8750, 5205, 5204, 5206
8751, 5200, 5189, 4877
8752, 993, 5192, 5190
8753, 5190, 5192, 5197
8754, 5204, 5191, 5044
8755, 5188, 5191, 5186
8756, 993, 994, 5192
8757, 5653, 5650, 995
8758, 5654, 5653, 995
8759, 8177, 8178, 5736
8760, 5194, 5195, 5650
8761, 5044, 5191, 5198
8762, 5650, 5195, 994
8763, 5194, 5196, 5197
8764, 5194, 5735, 5196
8765, 5738, 5740, 5736
8766, 5195, 5197, 5192
8767, 5198, 5197, 5196
8768, 5197, 5198, 5190
8769, 5739, 5198, 5196
8770, 5202, 4870, 4872
8771, 5203, 4472, 4867
8772, 5189, 5200, 5042
8773, 5201, 5200, 4877
8774, 5201, 4877, 5206
8775, 4870, 5199, 5201
8776, 5203, 5202, 4472
8777, 4870, 5202, 5199
8778, 5042, 5199, 5203
8779, 5203, 5199, 5202
8780, 4877, 5189, 5205
8781, 5208, 5204, 5044
8782, 5189, 5186, 5205
8783, 5186, 5204, 5205
8784, 4876, 5206, 4874
8785, 5205, 5206, 4877
8786, 5196, 5737, 5739
8787, 348, 5211, 5210
8788, 5739, 5208, 5044
8789, 5209, 5208, 5207
8790, 5209, 5207, 5210
8791, 5209, 4874, 5206
8792, 8178, 5210, 5207
8793, 349, 348, 5210
8794, 4875, 5211, 348
8795, 5209, 5211, 4874
8796, 828, 829, 5212
8797, 5214, 829, 5215
8798, 5213, 5218, 5231
8799, 5216, 5046, 5212
8800, 5215, 829, 830
8801, 5214, 5213, 5216
8802, 5215, 830, 5217
8803, 5213, 5214, 5215
8804, 5232, 5231, 5233
8805, 5227, 5216, 4890
8806, 830, 5219, 5217
8807, 5217, 5219, 5224
8808, 5231, 5218, 5048
8809, 5215, 5218, 5213
8810, 830, 831, 5219
8811, 5746, 5743, 832
8812, 5747, 5746, 832
8813, 8179, 8180, 5825
8814, 5221, 5222, 5743
8815, 5048, 5218, 5225
8816, 5743, 5222, 831
8817, 5221, 5223, 5224
8818, 5221, 5824, 5223
8819, 5827, 5829, 5825
8820, 5222, 5224, 5219
8821, 5225, 5224, 5223
8822, 5224, 5225, 5217
8823, 5828, 5225, 5223
8824, 5229, 4883, 4885
8825, 5230, 4503, 4880
8826, 5216, 5227, 5046
8827, 5228, 5227, 4890
8828, 5228, 4890, 5233
8829, 4883, 5226, 5228
8830, 5230, 5229, 4503
8831, 4883, 5229, 5226
8832, 5046, 5226, 5230
8833, 5230, 5226, 5229
8834, 4890, 5216, 5232
8835, 5235, 5231, 5048
8836, 5216, 5213, 5232
8837, 5213, 5231, 5232
8838, 4889, 5233, 4887
8839, 5232, 5233, 4890
8840, 5223, 5826, 5828
8841, 189, 5238, 5237
8842, 5828, 5235, 5048
8843, 5236, 5235, 5234
8844, 5236, 5234, 5237
8845, 5236, 4887, 5233
8846, 8180, 5237, 5234
8847, 190, 189, 5237
8848, 4888, 5238, 189
8849, 5236, 5238, 4887
8850, 1154, 1155, 5239
8851, 5241, 1155, 5242
8852, 5240, 5245, 5258
8853, 5243, 5050, 5239
8854, 5242, 1155, 1156
8855, 5241, 5240, 5243
8856, 5242, 1156, 5244
8857, 5240, 5241, 5242
8858, 5259, 5258, 5260
8859, 5254, 5243, 4903
8860, 1156, 5246, 5244
8861, 5244, 5246, 5251
8862, 5258, 5245, 5052
8863, 5242, 5245, 5240
8864, 1156, 1157, 5246
8865, 5835, 5832, 1158
8866, 5836, 5835, 1158
8867, 8181, 8182, 5918
8868, 5248, 5249, 5832
8869, 5052, 5245, 5252
8870, 5832, 5249, 1157
8871, 5248, 5250, 5251
8872, 5248, 5917, 5250
8873, 5920, 5922, 5918
8874, 5249, 5251, 5246
8875, 5252, 5251, 5250
8876, 5251, 5252, 5244
8877, 5921, 5252, 5250
8878, 5256, 4896, 4898
8879, 5257, 4534, 4893
8880, 5243, 5254, 5050
8881, 5255, 5254, 4903
8882, 5255, 4903, 5260
8883, 4896, 5253, 5255
8884, 5257, 5256, 4534
8885, 4896, 5256, 5253
8886, 5050, 5253, 5257
8887, 5257, 5253, 5256
8888, 4903, 5243, 5259
8889, 5262, 5258, 5052
8890, 5243, 5240, 5259
8891, 5240, 5258, 5259
8892, 4902, 5260, 4900
8893, 5259, 5260, 4903
8894, 5250, 5919, 5921
8895, 507, 5265, 5264
8896, 5921, 5262, 5052
8897, 5263, 5262, 5261
8898, 5263, 5261, 5264
8899, 5263, 4900, 5260
8900, 8182, 5264, 5261
8901, 508, 507, 5264
8902, 4901, 5265, 507
8903, 5263, 5265, 4900
8904, 665, 666, 5266
8905, 5268, 666, 5269
8906, 5267, 5272, 5285
8907, 5270, 5054, 5266
8908, 5269, 666, 667
8909, 5268, 5267, 5270
8910, 5269, 667, 5271
8911, 5267, 5268, 5269
8912, 5286, 5285, 5287
8913, 5281, 5270, 4916
8914, 667, 5273, 5271
8915, 5271, 5273, 5278
8916, 5285, 5272, 5056
8917, 5269, 5272, 5267
8918, 667, 668, 5273
8919, 5928, 5925, 669
8920, 5929, 5928, 669
8921, 8183, 8184, 6018
8922, 5275, 5276, 5925
8923, 5056, 5272, 5279
8924, 5925, 5276, 668
8925, 5275, 5277, 5278
8926, 5275, 6017, 5277
8927, 6020, 6022, 6018
8928, 5276, 5278, 5273
8929, 5279, 5278, 5277
8930, 5278, 5279, 5271
8931, 6021, 5279, 5277
8932, 5283, 4909, 4911
8933, 5284, 4565, 4906
8934, 5270, 5281, 5054
8935, 5282, 5281, 4916
8936, 5282, 4916, 5287
8937, 4909, 5280, 5282
8938, 5284, 5283, 4565
8939, 4909, 5283, 5280
8940, 5054, 5280, 5284
8941, 5284, 5280, 5283
8942, 4916, 5270, 5286
8943, 5289, 5285, 5056
8944, 5270, 5267, 5286
8945, 5267, 5285, 5286
8946, 4915, 5287, 4913
8947, 5286, 5287, 4916
8948, 5277, 6019, 6021
8949, 30, 5292, 5291
8950, 6021, 5289, 5056
8951, 5290, 5289, 5288
8952, 5290, 5288, 5291
8953, 5290, 4913, 5287
8954, 8184, 5291, 5288
8955, 31, 30, 5291
8956, 4914, 5292, 30
8957, 5290, 5292, 4913
8958, 453, 452, 5293
8959, 5295, 5296, 5297
8960, 6025, 5299, 5301
8961, 5294, 5310, 5308
8962, 5297, 5293, 452
8963, 5304, 5307, 5072
8964, 5297, 5296, 5293
8965, 5296, 5295, 5307
8966, 5298, 452, 451
8967, 5295, 5297, 5300
8968, 5301, 5298, 451
8969, 5300, 5294, 5308
8970, 6031, 5311, 6032
8971, 5313, 5309, 5310
8972, 5297, 5298, 5300
8973, 5300, 5298, 5301
8974, 6025, 5301, 451
8975, 5300, 5301, 5299
8976, 5304, 5058, 5306
8977, 5302, 5304, 5305
8978, 5071, 5303, 4925
8979, 5068, 5303, 4589
8980, 5062, 5296, 5307
8981, 5305, 5304, 5072
8982, 5318, 5314, 1096
8983, 1097, 4925, 5305
8984, 5063, 5306, 5058
8985, 5062, 5304, 5306
8986, 5295, 5308, 5307
8987, 5312, 5307, 5308
8988, 5300, 5308, 5295
8989, 6033, 5294, 5300
8990, 5314, 5316, 1096
8991, 5317, 5318, 1096
8992, 6033, 5313, 5294
8993, 5310, 5309, 5312
8994, 6027, 5299, 6025
8995, 1095, 5316, 5315
8996, 5314, 5312, 5309
8997, 5307, 5312, 5072
8998, 5294, 5313, 5310
8999, 5313, 5311, 5315
9000, 5316, 5314, 5309
9001, 5318, 5072, 5312
9002, 5321, 5315, 5311
9003, 5320, 1095, 5315
9004, 5315, 5316, 5309
9005, 1096, 5316, 1095
9006, 5305, 5318, 1097
9007, 5318, 5305, 5072
9008, 1097, 5318, 5317
9009, 6031, 6032, 6027
9010, 6026, 6030, 6037
9011, 6031, 5321, 5311
9012, 5322, 5320, 5315
9013, 5319, 6061, 5322
9014, 5315, 5321, 5322
9015, 5319, 5322, 5321
9016, 200, 199, 5323
9017, 5323, 199, 5326
9018, 5780, 5783, 5781
9019, 5816, 5796, 5798
9020, 5813, 5324, 5810
9021, 5084, 5325, 5074
9022, 5799, 5326, 199
9023, 5325, 5326, 5324
9024, 841, 842, 5327
9025, 5328, 5327, 842
9026, 4703, 5328, 842
9027, 5093, 5329, 4702
9028, 5330, 5082, 5327
9029, 4702, 5329, 5328
9030, 5328, 5329, 5330
9031, 5330, 5329, 5331
9032, 5330, 5331, 5082
9033, 4935, 5331, 5329
9034, 294, 293, 5332
9035, 5334, 5335, 5336
9036, 6067, 5338, 5340
9037, 5333, 5349, 5347
9038, 5336, 5332, 293
9039, 5343, 5346, 5109
9040, 5336, 5335, 5332
9041, 5335, 5334, 5346
9042, 5337, 293, 292
9043, 5334, 5336, 5339
9044, 5340, 5337, 292
9045, 5339, 5333, 5347
9046, 6073, 5350, 6074
9047, 5352, 5348, 5349
9048, 5336, 5337, 5339
9049, 5339, 5337, 5340
9050, 6067, 5340, 292
9051, 5339, 5340, 5338
9052, 5343, 5095, 5345
9053, 5341, 5343, 5344
9054, 5108, 5342, 4952
9055, 5105, 5342, 4724
9056, 5099, 5335, 5346
9057, 5344, 5343, 5109
9058, 5357, 5353, 933
9059, 934, 4952, 5344
9060, 5100, 5345, 5095
9061, 5099, 5343, 5345
9062, 5334, 5347, 5346
9063, 5351, 5346, 5347
9064, 5339, 5347, 5334
9065, 6075, 5333, 5339
9066, 5353, 5355, 933
9067, 5356, 5357, 933
9068, 6075, 5352, 5333
9069, 5349, 5348, 5351
9070, 6069, 5338, 6067
9071, 932, 5355, 5354
9072, 5353, 5351, 5348
9073, 5346, 5351, 5109
9074, 5333, 5352, 5349
9075, 5352, 5350, 5354
9076, 5355, 5353, 5348
9077, 5357, 5109, 5351
9078, 5360, 5354, 5350
9079, 5359, 932, 5354
9080, 5354, 5355, 5348
9081, 933, 5355, 932
9082, 5344, 5357, 934
9083, 5357, 5344, 5109
9084, 934, 5357, 5356
9085, 6073, 6074, 6069
9086, 6068, 6072, 6079
9087, 6073, 5360, 5350
9088, 5361, 5359, 5354
9089, 5358, 6103, 5361
9090, 5354, 5360, 5361
9091, 5358, 5361, 5360
9092, 612, 611, 5362
9093, 5364, 5365, 5366
9094, 6109, 5368, 5370
9095, 5363, 5379, 5377
9096, 5366, 5362, 611
9097, 5373, 5376, 5125
9098, 5366, 5365, 5362
9099, 5365, 5364, 5376
9100, 5367, 611, 610
9101, 5364, 5366, 5369
9102, 5370, 5367, 610
9103, 5369, 5363, 5377
9104, 6115, 5380, 6116
9105, 5382, 5378, 5379
9106, 5366, 5367, 5369
9107, 5369, 5367, 5370
9108, 6109, 5370, 610
9109, 5369, 5370, 5368
9110, 5373, 5111, 5375
9111, 5371, 5373, 5374
9112, 5124, 5372, 4961
9113, 5121, 5372, 4753
9114, 5115, 5365, 5376
9115, 5374, 5373, 5125
9116, 5387, 5383, 1259
9117, 1260, 4961, 5374
9118, 5116, 5375, 5111
9119, 5115, 5373, 5375
9120, 5364, 5377, 5376
9121, 5381, 5376, 5377
9122, 5369, 5377, 5364
9123, 6117, 5363, 5369
9124, 5383, 5385, 1259
9125, 5386, 5387, 1259
9126, 6117, 5382, 5363
9127, 5379, 5378, 5381
9128, 6111, 5368, 6109
9129, 1258, 5385, 5384
9130, 5383, 5381, 5378
9131, 5376, 5381, 5125
9132, 5363, 5382, 5379
9133, 5382, 5380, 5384
9134, 5385, 5383, 5378
9135, 5387, 5125, 5381
9136, 5390, 5384, 5380
9137, 5389, 1258, 5384
9138, 5384, 5385, 5378
9139, 1259, 5385, 1258
9140, 5374, 5387, 1260
9141, 5387, 5374, 5125
9142, 1260, 5387, 5386
9143, 6115, 6116, 6111
9144, 6110, 6114, 6121
9145, 6115, 5390, 5380
9146, 5391, 5389, 5384
9147, 5388, 6145, 5391
9148, 5384, 5390, 5391
9149, 5388, 5391, 5390
9150, 5393, 5392, 1240
9151, 5127, 5392, 5126
9152, 6156, 6161, 6163
9153, 5392, 5393, 5126
9154, 6151, 6154, 4276
9155, 135, 134, 5395
9156, 5397, 5398, 5399
9157, 6168, 5401, 5403
9158, 5396, 5412, 5410
9159, 5399, 5395, 134
9160, 5406, 5409, 5151
9161, 5399, 5398, 5395
9162, 5398, 5397, 5409
9163, 5400, 134, 133
9164, 5397, 5399, 5402
9165, 5403, 5400, 133
9166, 5402, 5396, 5410
9167, 6174, 5413, 6175
9168, 5415, 5411, 5412
9169, 5399, 5400, 5402
9170, 5402, 5400, 5403
9171, 6168, 5403, 133
9172, 5402, 5403, 5401
9173, 5406, 5137, 5408
9174, 5404, 5406, 5407
9175, 5150, 5405, 4975
9176, 5147, 5405, 4783
9177, 5141, 5398, 5409
9178, 5407, 5406, 5151
9179, 5420, 5416, 770
9180, 771, 4975, 5407
9181, 5142, 5408, 5137
9182, 5141, 5406, 5408
9183, 5397, 5410, 5409
9184, 5414, 5409, 5410
9185, 5402, 5410, 5397
9186, 6176, 5396, 5402
9187, 5416, 5418, 770
9188, 5419, 5420, 770
9189, 6176, 5415, 5396
9190, 5412, 5411, 5414
9191, 6170, 5401, 6168
9192, 769, 5418, 5417
9193, 5416, 5414, 5411
9194, 5409, 5414, 5151
9195, 5396, 5415, 5412
9196, 5415, 5413, 5417
9197, 5418, 5416, 5411
9198, 5420, 5151, 5414
9199, 5423, 5417, 5413
9200, 5422, 769, 5417
9201, 5417, 5418, 5411
9202, 770, 5418, 769
9203, 5407, 5420, 771
9204, 5420, 5407, 5151
9205, 771, 5420, 5419
9206, 6174, 6175, 6170
9207, 6169, 6173, 6180
9208, 6174, 5423, 5413
9209, 5424, 5422, 5417
9210, 5421, 6204, 5424
9211, 5417, 5423, 5424
9212, 5421, 5424, 5423
9213, 6214, 6215, 6233
9214, 5426, 5425, 5153
9215, 5427, 5426, 5153
9216, 6210, 5154, 3930
9217, 5433, 5436, 5438
9218, 5430, 4311, 5431
9219, 5436, 5428, 5438
9220, 4311, 4981, 5427
9221, 4800, 6210, 3930
9222, 4981, 4311, 5154
9223, 5433, 5434, 6211
9224, 5440, 4979, 5447
9225, 6531, 5436, 5432
9226, 5434, 5433, 5431
9227, 5433, 5432, 5436
9228, 5427, 5434, 5431
9229, 5153, 5442, 5437
9230, 3647, 4979, 4977
9231, 5437, 6532, 6211
9232, 6253, 6524, 6526
9233, 6214, 6213, 6212
9234, 5437, 5443, 5441
9235, 6531, 6532, 6250
9236, 5428, 5430, 5438
9237, 5433, 5438, 5430
9238, 6234, 6230, 6220
9239, 5436, 5435, 6212
9240, 5425, 4980, 5440
9241, 5448, 4978, 5443
9242, 5443, 4978, 6251
9243, 5445, 5425, 5440
9244, 5449, 5445, 5447
9245, 5437, 5442, 5443
9246, 5442, 5445, 5449
9247, 6224, 6244, 6223
9248, 5443, 6251, 5441
9249, 5440, 5447, 5445
9250, 5425, 5445, 5442
9251, 3647, 5444, 5447
9252, 6253, 2965, 6524
9253, 5444, 4978, 5448
9254, 5449, 5444, 5448
9255, 5444, 5449, 5447
9256, 5443, 5449, 5448
9257, 6258, 6259, 6277
9258, 5451, 5450, 5157
9259, 5452, 5451, 5157
9260, 6254, 5158, 3943
9261, 5458, 5461, 5463
9262, 5455, 4320, 5456
9263, 5461, 5453, 5463
9264, 4320, 4986, 5452
9265, 4809, 6254, 3943
9266, 4986, 4320, 5158
9267, 5458, 5459, 6255
9268, 5465, 4984, 5472
9269, 6541, 5461, 5457
9270, 5459, 5458, 5456
9271, 5458, 5457, 5461
9272, 5452, 5459, 5456
9273, 5157, 5467, 5462
9274, 3665, 4984, 4982
9275, 5462, 6542, 6255
9276, 6297, 6534, 6536
9277, 6258, 6257, 6256
9278, 5462, 5468, 5466
9279, 6541, 6542, 6294
9280, 5453, 5455, 5463
9281, 5458, 5463, 5455
9282, 6278, 6274, 6264
9283, 5461, 5460, 6256
9284, 5450, 4985, 5465
9285, 5473, 4983, 5468
9286, 5468, 4983, 6295
9287, 5470, 5450, 5465
9288, 5474, 5470, 5472
9289, 5462, 5467, 5468
9290, 5467, 5470, 5474
9291, 6268, 6288, 6267
9292, 5468, 6295, 5466
9293, 5465, 5472, 5470
9294, 5450, 5470, 5467
9295, 3665, 5469, 5472
9296, 6297, 3047, 6534
9297, 5469, 4983, 5473
9298, 5474, 5469, 5473
9299, 5469, 5474, 5472
9300, 5468, 5474, 5473
9301, 6302, 6303, 6321
9302, 5476, 5475, 5161
9303, 5477, 5476, 5161
9304, 6298, 5162, 3956
9305, 5483, 5486, 5488
9306, 5480, 4329, 5481
9307, 5486, 5478, 5488
9308, 4329, 4991, 5477
9309, 4818, 6298, 3956
9310, 4991, 4329, 5162
9311, 5483, 5484, 6299
9312, 5490, 4989, 5497
9313, 6551, 5486, 5482
9314, 5484, 5483, 5481
9315, 5483, 5482, 5486
9316, 5477, 5484, 5481
9317, 5161, 5492, 5487
9318, 3683, 4989, 4987
9319, 5487, 6552, 6299
9320, 6341, 6544, 6546
9321, 6302, 6301, 6300
9322, 5487, 5493, 5491
9323, 6551, 6552, 6338
9324, 5478, 5480, 5488
9325, 5483, 5488, 5480
9326, 6322, 6318, 6308
9327, 5486, 5485, 6300
9328, 5475, 4990, 5490
9329, 5498, 4988, 5493
9330, 5493, 4988, 6339
9331, 5495, 5475, 5490
9332, 5499, 5495, 5497
9333, 5487, 5492, 5493
9334, 5492, 5495, 5499
9335, 6312, 6332, 6311
9336, 5493, 6339, 5491
9337, 5490, 5497, 5495
9338, 5475, 5495, 5492
9339, 3683, 5494, 5497
9340, 6341, 3129, 6544
9341, 5494, 4988, 5498
9342, 5499, 5494, 5498
9343, 5494, 5499, 5497
9344, 5493, 5499, 5498
9345, 6346, 6347, 6365
9346, 5501, 5500, 5165
9347, 5502, 5501, 5165
9348, 6342, 5166, 3969
9349, 5508, 5511, 5513
9350, 5505, 4338, 5506
9351, 5511, 5503, 5513
9352, 4338, 4996, 5502
9353, 4827, 6342, 3969
9354, 4996, 4338, 5166
9355, 5508, 5509, 6343
9356, 5515, 4994, 5522
9357, 6561, 5511, 5507
9358, 5509, 5508, 5506
9359, 5508, 5507, 5511
9360, 5502, 5509, 5506
9361, 5165, 5517, 5512
9362, 3701, 4994, 4992
9363, 5512, 6562, 6343
9364, 6385, 6554, 6556
9365, 6346, 6345, 6344
9366, 5512, 5518, 5516
9367, 6561, 6562, 6382
9368, 5503, 5505, 5513
9369, 5508, 5513, 5505
9370, 6366, 6362, 6352
9371, 5511, 5510, 6344
9372, 5500, 4995, 5515
9373, 5523, 4993, 5518
9374, 5518, 4993, 6383
9375, 5520, 5500, 5515
9376, 5524, 5520, 5522
9377, 5512, 5517, 5518
9378, 5517, 5520, 5524
9379, 6356, 6376, 6355
9380, 5518, 6383, 5516
9381, 5515, 5522, 5520
9382, 5500, 5520, 5517
9383, 3701, 5519, 5522
9384, 6385, 3211, 6554
9385, 5519, 4993, 5523
9386, 5524, 5519, 5523
9387, 5519, 5524, 5522
9388, 5518, 5524, 5523
9389, 4997, 5169, 5526
9390, 5527, 5525, 5170
9391, 1076, 5529, 5528
9392, 5170, 5525, 5526
9393, 5534, 5170, 5530
9394, 5527, 5004, 5006
9395, 5170, 5526, 5530
9396, 1075, 5528, 5530
9397, 1076, 5542, 5529
9398, 1075, 5530, 5526
9399, 5528, 5529, 5530
9400, 6559, 5539, 5540
9401, 6567, 5535, 5537
9402, 5535, 5531, 5538
9403, 5008, 5004, 6389
9404, 5170, 5533, 5527
9405, 5532, 6567, 6390
9406, 5532, 5533, 5534
9407, 5170, 5534, 5533
9408, 5538, 5537, 5535
9409, 5532, 5534, 5535
9410, 5531, 5541, 5538
9411, 6671, 6568, 6559
9412, 5537, 5539, 6387
9413, 6567, 6565, 6388
9414, 1077, 6675, 5541
9415, 6387, 5539, 5536
9416, 5537, 5538, 5539
9417, 5539, 5538, 5541
9418, 1078, 6671, 6672
9419, 6680, 6674, 6392
9420, 1077, 5541, 5531
9421, 5539, 5541, 5540
9422, 6386, 5542, 1076
9423, 5535, 5542, 5531
9424, 5544, 5543, 5015
9425, 6398, 5543, 5173
9426, 5016, 5544, 5015
9427, 5544, 4857, 5545
9428, 5012, 6393, 4849
9429, 5544, 5545, 5173
9430, 5547, 5546, 5011
9431, 5173, 5545, 5546
9432, 5547, 6394, 6395
9433, 5543, 6398, 5014
9434, 272, 271, 5548
9435, 5548, 271, 5016
9436, 6399, 5549, 5014
9437, 5548, 5549, 5174
9438, 6425, 6412, 6405
9439, 272, 6453, 5551
9440, 6402, 6399, 6401
9441, 6401, 6414, 6402
9442, 5176, 5552, 5019
9443, 5552, 5177, 5024
9444, 5580, 5585, 363
9445, 5178, 5556, 5557
9446, 5175, 5554, 1007
9447, 5027, 5554, 5019
9448, 5554, 5555, 1007
9449, 5179, 5557, 5556
9450, 5556, 5178, 5559
9451, 5555, 5556, 5561
9452, 5027, 5557, 5179
9453, 5178, 5557, 5553
9454, 5565, 5567, 5573
9455, 5564, 5563, 5558
9456, 5567, 5565, 5566
9457, 5563, 5560, 5561
9458, 5558, 5561, 5559
9459, 5561, 5556, 5559
9460, 1005, 5563, 5564
9461, 1006, 5555, 5561
9462, 5562, 5564, 5566
9463, 5586, 360, 5584
9464, 1005, 5560, 5563
9465, 5558, 5567, 5566
9466, 5564, 5562, 6455
9467, 5558, 5559, 5567
9468, 5565, 5573, 5576
9469, 5558, 5566, 5564
9470, 5565, 5577, 5569
9471, 5559, 5178, 5567
9472, 5572, 5567, 5178
9473, 5592, 5588, 5591
9474, 6454, 5570, 6457
9475, 5565, 5569, 5566
9476, 5568, 5594, 5569
9477, 5578, 5586, 5588
9478, 6454, 6457, 1004
9479, 5580, 5597, 5585
9480, 5575, 5582, 361
9481, 5572, 5178, 5581
9482, 5572, 5571, 5573
9483, 5582, 5571, 5579
9484, 5573, 5582, 5576
9485, 5579, 362, 5574
9486, 5582, 5575, 5576
9487, 5586, 5583, 360
9488, 5575, 5578, 5577
9489, 5574, 5582, 5579
9490, 5577, 5576, 5575
9491, 5575, 5583, 5578
9492, 5577, 5568, 5569
9493, 5588, 5586, 5589
9494, 5577, 5578, 5592
9495, 5585, 5597, 5581
9496, 5582, 5573, 5571
9497, 5571, 5572, 5581
9498, 5022, 5026, 5599
9499, 5178, 5553, 5581
9500, 5022, 5599, 5598
9501, 5574, 361, 5582
9502, 5575, 361, 5583
9503, 361, 360, 5583
9504, 5587, 5588, 5600
9505, 359, 5589, 5584
9506, 363, 5585, 5599
9507, 5583, 5586, 5578
9508, 6458, 358, 5729
9509, 5570, 5594, 5596
9510, 5589, 5586, 5584
9511, 5588, 5587, 5591
9512, 5600, 359, 5590
9513, 5588, 5589, 5600
9514, 5703, 5722, 5700
9515, 5711, 5712, 5713
9516, 5595, 5591, 5728
9517, 5569, 5594, 5570
9518, 5577, 5592, 5568
9519, 5588, 5592, 5578
9520, 5715, 5719, 5699
9521, 5720, 5596, 5593
9522, 5568, 5591, 5594
9523, 5595, 5594, 5591
9524, 5728, 5591, 5587
9525, 5595, 5593, 5596
9526, 5720, 5593, 5713
9527, 6457, 1003, 6456
9528, 362, 5597, 5580
9529, 5571, 5597, 5579
9530, 5581, 5553, 5598
9531, 5022, 5598, 5553
9532, 363, 5599, 5026
9533, 5598, 5599, 5585
9534, 359, 5600, 5589
9535, 5718, 5600, 5590
9536, 5181, 5601, 5031
9537, 5601, 5182, 5036
9538, 5629, 5634, 522
9539, 5183, 5605, 5606
9540, 5180, 5603, 1170
9541, 5039, 5603, 5031
9542, 5603, 5604, 1170
9543, 5184, 5606, 5605
9544, 5605, 5183, 5608
9545, 5604, 5605, 5610
9546, 5039, 5606, 5184
9547, 5183, 5606, 5602
9548, 5614, 5616, 5622
9549, 5613, 5612, 5607
9550, 5616, 5614, 5615
9551, 5612, 5609, 5610
9552, 5607, 5610, 5608
9553, 5610, 5605, 5608
9554, 1168, 5612, 5613
9555, 1169, 5604, 5610
9556, 5611, 5613, 5615
9557, 5635, 519, 5633
9558, 1168, 5609, 5612
9559, 5607, 5616, 5615
9560, 5613, 5611, 6460
9561, 5607, 5608, 5616
9562, 5614, 5622, 5625
9563, 5607, 5615, 5613
9564, 5614, 5626, 5618
9565, 5608, 5183, 5616
9566, 5621, 5616, 5183
9567, 5641, 5637, 5640
9568, 6459, 5619, 6462
9569, 5614, 5618, 5615
9570, 5617, 5643, 5618
9571, 5627, 5635, 5637
9572, 6459, 6462, 1167
9573, 5629, 5646, 5634
9574, 5624, 5631, 520
9575, 5621, 5183, 5630
9576, 5621, 5620, 5622
9577, 5631, 5620, 5628
9578, 5622, 5631, 5625
9579, 5628, 521, 5623
9580, 5631, 5624, 5625
9581, 5635, 5632, 519
9582, 5624, 5627, 5626
9583, 5623, 5631, 5628
9584, 5626, 5625, 5624
9585, 5624, 5632, 5627
9586, 5626, 5617, 5618
9587, 5637, 5635, 5638
9588, 5626, 5627, 5641
9589, 5634, 5646, 5630
9590, 5631, 5622, 5620
9591, 5620, 5621, 5630
9592, 5034, 5038, 5648
9593, 5183, 5602, 5630
9594, 5034, 5648, 5647
9595, 5623, 520, 5631
9596, 5624, 520, 5632
9597, 520, 519, 5632
9598, 5636, 5637, 5649
9599, 518, 5638, 5633
9600, 522, 5634, 5648
9601, 5632, 5635, 5627
9602, 6463, 517, 5911
9603, 5619, 5643, 5645
9604, 5638, 5635, 5633
9605, 5637, 5636, 5640
9606, 5649, 518, 5639
9607, 5637, 5638, 5649
9608, 5885, 5904, 5882
9609, 5893, 5894, 5895
9610, 5644, 5640, 5910
9611, 5618, 5643, 5619
9612, 5626, 5641, 5617
9613, 5637, 5641, 5627
9614, 5897, 5901, 5881
9615, 5902, 5645, 5642
9616, 5617, 5640, 5643
9617, 5644, 5643, 5640
9618, 5910, 5640, 5636
9619, 5644, 5642, 5645
9620, 5902, 5642, 5895
9621, 6462, 1166, 6461
9622, 521, 5646, 5629
9623, 5620, 5646, 5628
9624, 5630, 5602, 5647
9625, 5034, 5647, 5602
9626, 522, 5648, 5038
9627, 5647, 5648, 5634
9628, 518, 5649, 5638
9629, 5900, 5649, 5639
9630, 994, 995, 5650
9631, 5654, 995, 996
9632, 5657, 5656, 996
9633, 5670, 5651, 5658
9634, 5671, 5652, 5651
9635, 5735, 5652, 5193
9636, 5651, 5652, 5653
9637, 5650, 5653, 5652
9638, 5656, 5654, 996
9639, 5651, 5653, 5654
9640, 5663, 5661, 997
9641, 5705, 5704, 5660
9642, 5657, 996, 997
9643, 5656, 5655, 5658
9644, 5661, 5657, 997
9645, 5655, 5656, 5657
9646, 5655, 5662, 5658
9647, 5665, 5669, 5727
9648, 5675, 5672, 998
9649, 353, 6464, 5723
9650, 5674, 5655, 5664
9651, 5706, 5669, 5704
9652, 5663, 997, 998
9653, 5664, 5661, 5659
9654, 5664, 5673, 5674
9655, 5662, 5660, 5668
9656, 5672, 5663, 998
9657, 5659, 5661, 5663
9658, 5659, 5673, 5664
9659, 5657, 5664, 5655
9660, 5665, 5668, 5669
9661, 5193, 5652, 5671
9662, 5682, 5679, 999
9663, 5725, 5726, 6466
9664, 5681, 5659, 5676
9665, 352, 5704, 5705
9666, 5669, 5668, 5660
9667, 5668, 5665, 5670
9668, 5704, 5669, 5660
9669, 5707, 5742, 5741
9670, 5670, 5658, 5662
9671, 5671, 5665, 5193
9672, 5651, 5670, 5671
9673, 5665, 5671, 5670
9674, 5675, 998, 999
9675, 5676, 5672, 5666
9676, 5676, 5680, 5681
9677, 5673, 5667, 5674
9678, 5674, 5662, 5655
9679, 5674, 5667, 5705
9680, 5679, 5675, 999
9681, 5666, 5672, 5675
9682, 5666, 5680, 5676
9683, 5663, 5676, 5659
9684, 5689, 5691, 5693
9685, 6466, 5733, 355
9686, 5686, 5666, 5683
9687, 5723, 5667, 5724
9688, 5682, 999, 1000
9689, 5683, 5679, 5677
9690, 5683, 5685, 5686
9691, 5680, 5678, 5681
9692, 5681, 5673, 5659
9693, 5681, 5678, 5724
9694, 5693, 5694, 5698
9695, 5679, 5682, 5691
9696, 5677, 5685, 5683
9697, 5675, 5683, 5666
9698, 5685, 5688, 5684
9699, 5725, 5678, 5726
9700, 5677, 5689, 5688
9701, 5685, 5684, 5686
9702, 5686, 5680, 5666
9703, 5686, 5684, 5726
9704, 5688, 5689, 5687
9705, 5693, 5696, 5689
9706, 5677, 5688, 5685
9707, 5687, 5703, 5709
9708, 5691, 5677, 5679
9709, 5689, 5677, 5691
9710, 5734, 355, 5733
9711, 5684, 5688, 5690
9712, 1000, 5694, 5682
9713, 5692, 5693, 5698
9714, 5697, 5692, 5698
9715, 358, 5730, 5729
9716, 5694, 5693, 5691
9717, 5693, 5692, 5696
9718, 5682, 5694, 5691
9719, 5694, 1000, 5695
9720, 1000, 1001, 5695
9721, 5695, 1001, 5697
9722, 5702, 5696, 5692
9723, 356, 5709, 5710
9724, 5701, 1002, 5712
9725, 5714, 5701, 5712
9726, 5694, 5695, 5698
9727, 5697, 5698, 5695
9728, 1001, 5701, 5714
9729, 5590, 5729, 5721
9730, 5687, 5696, 5703
9731, 5722, 5703, 5696
9732, 5702, 5715, 5699
9733, 5715, 5692, 5697
9734, 5715, 5697, 5714
9735, 5702, 5699, 5722
9736, 5722, 5696, 5702
9737, 5703, 5700, 5709
9738, 5660, 5674, 5705
9739, 5706, 351, 5742
9740, 5723, 5705, 5667
9741, 352, 5705, 6464
9742, 5740, 5741, 350
9743, 5704, 352, 5706
9744, 5736, 5739, 5737
9745, 5709, 5690, 5687
9746, 356, 5708, 5734
9747, 5710, 5709, 5700
9748, 5731, 5710, 5700
9749, 356, 5710, 357
9750, 5717, 5711, 5713
9751, 5713, 5712, 1002
9752, 5714, 5712, 5711
9753, 5720, 1003, 5596
9754, 5713, 5593, 5717
9755, 5715, 5714, 5711
9756, 5714, 5697, 1001
9757, 5715, 5711, 5719
9758, 5692, 5715, 5702
9759, 5595, 5728, 5593
9760, 5713, 1002, 5716
9761, 5711, 5717, 5719
9762, 5600, 5718, 5587
9763, 5729, 5590, 6458
9764, 5717, 5718, 5719
9765, 5721, 5718, 5590
9766, 5713, 5716, 5720
9767, 1003, 5720, 5716
9768, 5699, 5719, 5721
9769, 5718, 5721, 5719
9770, 5721, 5729, 5732
9771, 5722, 5732, 5731
9772, 5667, 5681, 5724
9773, 5723, 5724, 6465
9774, 5678, 5725, 5724
9775, 5723, 6465, 353
9776, 5686, 5726, 5678
9777, 6465, 5725, 354
9778, 5733, 5726, 5684
9779, 5725, 6466, 354
9780, 5669, 5706, 5742
9781, 5193, 5727, 5707
9782, 5587, 5718, 5728
9783, 5593, 5728, 5718
9784, 5730, 358, 357
9785, 5729, 5730, 5732
9786, 5731, 5730, 357
9787, 5730, 5731, 5732
9788, 5710, 5731, 357
9789, 5700, 5722, 5731
9790, 5722, 5699, 5732
9791, 5721, 5732, 5699
9792, 5690, 5734, 5684
9793, 5734, 5690, 356
9794, 355, 5734, 5708
9795, 5684, 5734, 5733
9796, 5652, 5735, 5194
9797, 5707, 5740, 5738
9798, 5707, 5738, 5193
9799, 5736, 5740, 8177
9800, 5738, 5735, 5193
9801, 8178, 5739, 5736
9802, 5736, 5737, 5738
9803, 5738, 5737, 5735
9804, 5208, 5739, 5207
9805, 5739, 5044, 5198
9806, 5741, 5740, 5707
9807, 5740, 350, 8177
9808, 5742, 5707, 5727
9809, 350, 5741, 351
9810, 5669, 5742, 5727
9811, 351, 5741, 5742
9812, 831, 832, 5743
9813, 5747, 832, 833
9814, 5750, 5749, 833
9815, 5763, 5744, 5751
9816, 5764, 5745, 5744
9817, 5824, 5745, 5220
9818, 5744, 5745, 5746
9819, 5743, 5746, 5745
9820, 5749, 5747, 833
9821, 5744, 5746, 5747
9822, 5756, 5754, 834
9823, 5801, 5800, 5753
9824, 5750, 833, 834
9825, 5749, 5748, 5751
9826, 5754, 5750, 834
9827, 5748, 5749, 5750
9828, 5748, 5755, 5751
9829, 5758, 5762, 5821
9830, 5768, 5765, 835
9831, 194, 6467, 5817
9832, 5767, 5748, 5757
9833, 5802, 5762, 5800
9834, 5756, 834, 835
9835, 5757, 5754, 5752
9836, 5757, 5766, 5767
9837, 5755, 5753, 5761
9838, 5765, 5756, 835
9839, 5752, 5754, 5756
9840, 5752, 5766, 5757
9841, 5750, 5757, 5748
9842, 5758, 5761, 5762
9843, 5220, 5745, 5764
9844, 5775, 5772, 836
9845, 5819, 5820, 6469
9846, 5774, 5752, 5769
9847, 193, 5800, 5801
9848, 5762, 5761, 5753
9849, 5761, 5758, 5763
9850, 5800, 5762, 5753
9851, 5803, 5831, 5830
9852, 5763, 5751, 5755
9853, 5764, 5758, 5220
9854, 5744, 5763, 5764
9855, 5758, 5764, 5763
9856, 5768, 835, 836
9857, 5769, 5765, 5759
9858, 5769, 5773, 5774
9859, 5766, 5760, 5767
9860, 5767, 5755, 5748
9861, 5767, 5760, 5801
9862, 5772, 5768, 836
9863, 5759, 5765, 5768
9864, 5759, 5773, 5769
9865, 5756, 5769, 5752
9866, 5782, 5784, 5786
9867, 6469, 5822, 196
9868, 5779, 5759, 5776
9869, 5817, 5760, 5818
9870, 5775, 836, 837
9871, 5776, 5772, 5770
9872, 5776, 5778, 5779
9873, 5773, 5771, 5774
9874, 5774, 5766, 5752
9875, 5774, 5771, 5818
9876, 5786, 5787, 5791
9877, 5772, 5775, 5784
9878, 5770, 5778, 5776
9879, 5768, 5776, 5759
9880, 5778, 5781, 5777
9881, 5819, 5771, 5820
9882, 5770, 5782, 5781
9883, 5778, 5777, 5779
9884, 5779, 5773, 5759
9885, 5779, 5777, 5820
9886, 5782, 5780, 5781
9887, 197, 5805, 5806
9888, 5770, 5781, 5778
9889, 5780, 5797, 5805
9890, 5784, 5770, 5772
9891, 5782, 5770, 5784
9892, 5823, 196, 5822
9893, 5777, 5781, 5783
9894, 837, 5787, 5775
9895, 5785, 5786, 5791
9896, 5785, 5791, 5790
9897, 5782, 5789, 5780
9898, 5787, 5786, 5784
9899, 5786, 5785, 5789
9900, 5775, 5787, 5784
9901, 5787, 837, 5788
9902, 837, 838, 5788
9903, 5788, 838, 5790
9904, 5795, 5789, 5785
9905, 5792, 5798, 5796
9906, 5085, 5814, 5089
9907, 5085, 5086, 5808
9908, 5787, 5788, 5791
9909, 5790, 5791, 5788
9910, 5785, 5812, 5795
9911, 5798, 5810, 5324
9912, 5780, 5789, 5797
9913, 5789, 5795, 5796
9914, 839, 5811, 5794
9915, 5807, 5808, 5809
9916, 5812, 5785, 5790
9917, 5796, 5795, 5792
9918, 5809, 5810, 5792
9919, 5796, 5793, 5797
9920, 5796, 5797, 5789
9921, 5797, 5793, 5805
9922, 5799, 5798, 5324
9923, 5799, 5816, 5798
9924, 5326, 5799, 5324
9925, 199, 198, 5799
9926, 5753, 5767, 5801
9927, 5802, 192, 5831
9928, 5817, 5801, 5760
9929, 193, 5801, 6467
9930, 5829, 5830, 191
9931, 5800, 193, 5802
9932, 5825, 5828, 5826
9933, 5805, 5783, 5780
9934, 197, 5804, 5823
9935, 5806, 5805, 5793
9936, 5816, 5806, 5793
9937, 197, 5806, 198
9938, 5809, 5812, 5807
9939, 5086, 5074, 5808
9940, 5809, 5792, 5812
9941, 5808, 5074, 5809
9942, 5074, 5325, 5813
9943, 5792, 5810, 5798
9944, 5813, 5809, 5074
9945, 5814, 839, 5089
9946, 5807, 5812, 5815
9947, 5795, 5812, 5792
9948, 5812, 5790, 5815
9949, 5324, 5813, 5325
9950, 5809, 5813, 5810
9951, 5814, 5085, 5808
9952, 839, 5814, 5811
9953, 5815, 5790, 838
9954, 5807, 5815, 5811
9955, 5806, 5816, 198
9956, 5816, 5793, 5796
9957, 5760, 5774, 5818
9958, 5817, 5818, 6468
9959, 5771, 5819, 5818
9960, 5817, 6468, 194
9961, 5779, 5820, 5771
9962, 6468, 5819, 195
9963, 5822, 5820, 5777
9964, 5819, 6469, 195
9965, 5762, 5802, 5831
9966, 5220, 5821, 5803
9967, 5783, 5823, 5777
9968, 5823, 5783, 197
9969, 196, 5823, 5804
9970, 5777, 5823, 5822
9971, 5745, 5824, 5221
9972, 5803, 5829, 5827
9973, 5803, 5827, 5220
9974, 5825, 5829, 8179
9975, 5827, 5824, 5220
9976, 8180, 5828, 5825
9977, 5825, 5826, 5827
9978, 5827, 5826, 5824
9979, 5235, 5828, 5234
9980, 5828, 5048, 5225
9981, 5830, 5829, 5803
9982, 5829, 191, 8179
9983, 5831, 5803, 5821
9984, 191, 5830, 192
9985, 5762, 5831, 5821
9986, 192, 5830, 5831
9987, 1157, 1158, 5832
9988, 5836, 1158, 1159
9989, 5839, 5838, 1159
9990, 5852, 5833, 5840
9991, 5853, 5834, 5833
9992, 5917, 5834, 5247
9993, 5833, 5834, 5835
9994, 5832, 5835, 5834
9995, 5838, 5836, 1159
9996, 5833, 5835, 5836
9997, 5845, 5843, 1160
9998, 5887, 5886, 5842
9999, 5839, 1159, 1160
10000, 5838, 5837, 5840
10001, 5843, 5839, 1160
10002, 5837, 5838, 5839
10003, 5837, 5844, 5840
10004, 5847, 5851, 5909
10005, 5857, 5854, 1161
10006, 512, 6470, 5905
10007, 5856, 5837, 5846
10008, 5888, 5851, 5886
10009, 5845, 1160, 1161
10010, 5846, 5843, 5841
10011, 5846, 5855, 5856
10012, 5844, 5842, 5850
10013, 5854, 5845, 1161
10014, 5841, 5843, 5845
10015, 5841, 5855, 5846
10016, 5839, 5846, 5837
10017, 5847, 5850, 5851
10018, 5247, 5834, 5853
10019, 5864, 5861, 1162
10020, 5907, 5908, 6472
10021, 5863, 5841, 5858
10022, 511, 5886, 5887
10023, 5851, 5850, 5842
10024, 5850, 5847, 5852
10025, 5886, 5851, 5842
10026, 5889, 5924, 5923
10027, 5852, 5840, 5844
10028, 5853, 5847, 5247
10029, 5833, 5852, 5853
10030, 5847, 5853, 5852
10031, 5857, 1161, 1162
10032, 5858, 5854, 5848
10033, 5858, 5862, 5863
10034, 5855, 5849, 5856
10035, 5856, 5844, 5837
10036, 5856, 5849, 5887
10037, 5861, 5857, 1162
10038, 5848, 5854, 5857
10039, 5848, 5862, 5858
10040, 5845, 5858, 5841
10041, 5871, 5873, 5875
10042, 6472, 5915, 514
10043, 5868, 5848, 5865
10044, 5905, 5849, 5906
10045, 5864, 1162, 1163
10046, 5865, 5861, 5859
10047, 5865, 5867, 5868
10048, 5862, 5860, 5863
10049, 5863, 5855, 5841
10050, 5863, 5860, 5906
10051, 5875, 5876, 5880
10052, 5861, 5864, 5873
10053, 5859, 5867, 5865
10054, 5857, 5865, 5848
10055, 5867, 5870, 5866
10056, 5907, 5860, 5908
10057, 5859, 5871, 5870
10058, 5867, 5866, 5868
10059, 5868, 5862, 5848
10060, 5868, 5866, 5908
10061, 5870, 5871, 5869
10062, 5875, 5878, 5871
10063, 5859, 5870, 5867
10064, 5869, 5885, 5891
10065, 5873, 5859, 5861
10066, 5871, 5859, 5873
10067, 5916, 514, 5915
10068, 5866, 5870, 5872
10069, 1163, 5876, 5864
10070, 5874, 5875, 5880
10071, 5879, 5874, 5880
10072, 517, 5912, 5911
10073, 5876, 5875, 5873
10074, 5875, 5874, 5878
10075, 5864, 5876, 5873
10076, 5876, 1163, 5877
10077, 1163, 1164, 5877
10078, 5877, 1164, 5879
10079, 5884, 5878, 5874
10080, 515, 5891, 5892
10081, 5883, 1165, 5894
10082, 5896, 5883, 5894
10083, 5876, 5877, 5880
10084, 5879, 5880, 5877
10085, 1164, 5883, 5896
10086, 5639, 5911, 5903
10087, 5869, 5878, 5885
10088, 5904, 5885, 5878
10089, 5884, 5897, 5881
10090, 5897, 5874, 5879
10091, 5897, 5879, 5896
10092, 5884, 5881, 5904
10093, 5904, 5878, 5884
10094, 5885, 5882, 5891
10095, 5842, 5856, 5887
10096, 5888, 510, 5924
10097, 5905, 5887, 5849
10098, 511, 5887, 6470
10099, 5922, 5923, 509
10100, 5886, 511, 5888
10101, 5918, 5921, 5919
10102, 5891, 5872, 5869
10103, 515, 5890, 5916
10104, 5892, 5891, 5882
10105, 5913, 5892, 5882
10106, 515, 5892, 516
10107, 5899, 5893, 5895
10108, 5895, 5894, 1165
10109, 5896, 5894, 5893
10110, 5902, 1166, 5645
10111, 5895, 5642, 5899
10112, 5897, 5896, 5893
10113, 5896, 5879, 1164
10114, 5897, 5893, 5901
10115, 5874, 5897, 5884
10116, 5644, 5910, 5642
10117, 5895, 1165, 5898
10118, 5893, 5899, 5901
10119, 5649, 5900, 5636
10120, 5911, 5639, 6463
10121, 5899, 5900, 5901
10122, 5903, 5900, 5639
10123, 5895, 5898, 5902
10124, 1166, 5902, 5898
10125, 5881, 5901, 5903
10126, 5900, 5903, 5901
10127, 5903, 5911, 5914
10128, 5904, 5914, 5913
10129, 5849, 5863, 5906
10130, 5905, 5906, 6471
10131, 5860, 5907, 5906
10132, 5905, 6471, 512
10133, 5868, 5908, 5860
10134, 6471, 5907, 513
10135, 5915, 5908, 5866
10136, 5907, 6472, 513
10137, 5851, 5888, 5924
10138, 5247, 5909, 5889
10139, 5636, 5900, 5910
10140, 5642, 5910, 5900
10141, 5912, 517, 516
10142, 5911, 5912, 5914
10143, 5913, 5912, 516
10144, 5912, 5913, 5914
10145, 5892, 5913, 516
10146, 5882, 5904, 5913
10147, 5904, 5881, 5914
10148, 5903, 5914, 5881
10149, 5872, 5916, 5866
10150, 5916, 5872, 515
10151, 514, 5916, 5890
10152, 5866, 5916, 5915
10153, 5834, 5917, 5248
10154, 5889, 5922, 5920
10155, 5889, 5920, 5247
10156, 5918, 5922, 8181
10157, 5920, 5917, 5247
10158, 8182, 5921, 5918
10159, 5918, 5919, 5920
10160, 5920, 5919, 5917
10161, 5262, 5921, 5261
10162, 5921, 5052, 5252
10163, 5923, 5922, 5889
10164, 5922, 509, 8181
10165, 5924, 5889, 5909
10166, 509, 5923, 510
10167, 5851, 5924, 5909
10168, 510, 5923, 5924
10169, 668, 669, 5925
10170, 5929, 669, 670
10171, 5932, 5931, 670
10172, 5945, 5926, 5933
10173, 5946, 5927, 5926
10174, 6017, 5927, 5274
10175, 5926, 5927, 5928
10176, 5925, 5928, 5927
10177, 5931, 5929, 670
10178, 5926, 5928, 5929
10179, 5938, 5936, 671
10180, 5980, 5979, 5935
10181, 5932, 670, 671
10182, 5931, 5930, 5933
10183, 5936, 5932, 671
10184, 5930, 5931, 5932
10185, 5930, 5937, 5933
10186, 5940, 5944, 5998
10187, 5950, 5947, 672
10188, 35, 6473, 5994
10189, 5949, 5930, 5939
10190, 5981, 5944, 5979
10191, 5938, 671, 672
10192, 5939, 5936, 5934
10193, 5939, 5948, 5949
10194, 5937, 5935, 5943
10195, 5947, 5938, 672
10196, 5934, 5936, 5938
10197, 5934, 5948, 5939
10198, 5932, 5939, 5930
10199, 5940, 5943, 5944
10200, 5274, 5927, 5946
10201, 5957, 5954, 673
10202, 5996, 5997, 6477
10203, 5956, 5934, 5951
10204, 34, 5979, 5980
10205, 5944, 5943, 5935
10206, 5943, 5940, 5945
10207, 5979, 5944, 5935
10208, 5982, 6024, 6023
10209, 5945, 5933, 5937
10210, 5946, 5940, 5274
10211, 5926, 5945, 5946
10212, 5940, 5946, 5945
10213, 5950, 672, 673
10214, 5951, 5947, 5941
10215, 5951, 5955, 5956
10216, 5948, 5942, 5949
10217, 5949, 5937, 5930
10218, 5949, 5942, 5980
10219, 5954, 5950, 673
10220, 5941, 5947, 5950
10221, 5941, 5955, 5951
10222, 5938, 5951, 5934
10223, 5964, 5966, 5968
10224, 6477, 6001, 37
10225, 5961, 5941, 5958
10226, 5994, 5942, 5995
10227, 5957, 673, 674
10228, 5958, 5954, 5952
10229, 5958, 5960, 5961
10230, 5955, 5953, 5956
10231, 5956, 5948, 5934
10232, 5956, 5953, 5995
10233, 5968, 5969, 5973
10234, 5954, 5957, 5966
10235, 5952, 5960, 5958
10236, 5950, 5958, 5941
10237, 5960, 5963, 5959
10238, 5996, 5953, 5997
10239, 5952, 5964, 5963
10240, 5960, 5959, 5961
10241, 5961, 5955, 5941
10242, 5961, 5959, 5997
10243, 5963, 5964, 5962
10244, 5968, 5971, 5964
10245, 5952, 5963, 5960
10246, 5962, 5978, 5984
10247, 5966, 5952, 5954
10248, 5964, 5952, 5966
10249, 6008, 37, 6001
10250, 5959, 5963, 5965
10251, 674, 5969, 5957
10252, 5967, 5968, 5973
10253, 5973, 5972, 5967
10254, 5999, 5975, 5978
10255, 5969, 5968, 5966
10256, 5968, 5967, 5971
10257, 5957, 5969, 5966
10258, 5969, 674, 5970
10259, 674, 675, 5970
10260, 5970, 675, 5972
10261, 5971, 5967, 5977
10262, 38, 5984, 5985
10263, 5987, 5976, 676
10264, 6009, 5991, 6002
10265, 5969, 5970, 5973
10266, 5972, 5973, 5970
10267, 6474, 677, 6613
10268, 5987, 5988, 6606
10269, 5962, 5971, 5978
10270, 5991, 5975, 5999
10271, 5989, 5976, 5987
10272, 5990, 5967, 5972
10273, 5990, 5972, 5989
10274, 5977, 5974, 5991
10275, 5999, 5971, 5977
10276, 5978, 5975, 5984
10277, 5935, 5949, 5980
10278, 5981, 33, 6024
10279, 5994, 5980, 5942
10280, 34, 5980, 6473
10281, 6022, 6023, 32
10282, 5979, 34, 5981
10283, 6018, 6021, 6019
10284, 5984, 5965, 5962
10285, 38, 5983, 6008
10286, 5985, 5984, 5975
10287, 5992, 5975, 5991
10288, 38, 5985, 39
10289, 5974, 5977, 5990
10290, 5988, 5987, 676
10291, 5989, 5987, 5986
10292, 6609, 6610, 6013
10293, 40, 6003, 6004
10294, 5990, 5989, 5986
10295, 5989, 5972, 675
10296, 5990, 5986, 6605
10297, 5967, 5990, 5977
10298, 5993, 6009, 6003
10299, 5985, 5992, 39
10300, 5975, 5992, 5985
10301, 6002, 5991, 5974
10302, 5974, 6647, 6002
10303, 5992, 6009, 39
10304, 5942, 5956, 5995
10305, 5994, 5995, 6476
10306, 5953, 5996, 5995
10307, 5994, 6476, 35
10308, 5961, 5997, 5953
10309, 6476, 5996, 36
10310, 6001, 5997, 5959
10311, 5996, 6477, 36
10312, 5944, 5981, 6024
10313, 5274, 5998, 5982
10314, 5971, 5999, 5978
10315, 5977, 5991, 5999
10316, 6475, 6647, 6605
10317, 6005, 6015, 6012
10318, 6008, 5965, 38
10319, 6003, 6002, 6000
10320, 6009, 5993, 39
10321, 6004, 6003, 6000
10322, 5993, 6003, 40
10323, 6000, 6648, 6006
10324, 40, 6004, 41
10325, 6000, 6647, 6648
10326, 6013, 6015, 6607
10327, 6000, 6006, 6004
10328, 6007, 6012, 6011
10329, 6478, 6013, 6010
10330, 6006, 6012, 41
10331, 37, 6008, 5983
10332, 5959, 6008, 6001
10333, 5991, 6009, 5992
10334, 6003, 6009, 6002
10335, 6611, 678, 6615
10336, 6016, 42, 6011
10337, 6016, 6480, 42
10338, 41, 6012, 6007
10339, 6005, 6012, 6006
10340, 6005, 6648, 6607
10341, 677, 6612, 6613
10342, 6478, 6011, 6015
10343, 6010, 6619, 6620
10344, 6607, 6015, 6005
10345, 6478, 6015, 6013
10346, 6478, 6016, 6011
10347, 6480, 6016, 6014
10348, 5927, 6017, 5275
10349, 5982, 6022, 6020
10350, 5982, 6020, 5274
10351, 6018, 6022, 8183
10352, 6020, 6017, 5274
10353, 8184, 6021, 6018
10354, 6018, 6019, 6020
10355, 6020, 6019, 6017
10356, 5289, 6021, 5288
10357, 6021, 5056, 5279
10358, 6023, 6022, 5982
10359, 6022, 32, 8183
10360, 6024, 5982, 5998
10361, 32, 6023, 33
10362, 5944, 6024, 5998
10363, 33, 6023, 6024
10364, 451, 450, 6025
10365, 6027, 6025, 6028
10366, 6028, 6029, 6030
10367, 6028, 6030, 6026
10368, 6028, 6025, 450
10369, 6027, 6026, 6031
10370, 6030, 6029, 449
10371, 6026, 6027, 6028
10372, 6482, 448, 6043
10373, 6028, 450, 6029
10374, 6030, 449, 6035
10375, 6041, 6026, 6037
10376, 5321, 6031, 5319
10377, 5311, 5313, 6033
10378, 5299, 6027, 6032
10379, 5299, 6032, 6033
10380, 6033, 6032, 5311
10381, 6482, 6039, 6042
10382, 1093, 6061, 6066
10383, 6034, 6482, 6035
10384, 6035, 449, 6034
10385, 6039, 6052, 6042
10386, 6050, 6491, 6052
10387, 6038, 6037, 6030
10388, 6064, 6041, 6037
10389, 6035, 6038, 6030
10390, 6042, 6038, 6482
10391, 6482, 6034, 448
10392, 6044, 447, 6048
10393, 6063, 6064, 6491
10394, 6031, 6049, 5319
10395, 6064, 6037, 6036
10396, 6041, 6040, 6049
10397, 6037, 6042, 6036
10398, 6035, 6482, 6038
10399, 448, 6044, 6043
10400, 6039, 6043, 6047
10401, 448, 447, 6044
10402, 6047, 6054, 6046
10403, 6048, 447, 6055
10404, 6775, 6487, 6484
10405, 6043, 6054, 6047
10406, 6050, 6051, 6483
10407, 6054, 6043, 6044
10408, 6046, 6483, 6051
10409, 6055, 447, 446
10410, 6483, 6056, 6045
10411, 6041, 6049, 6031
10412, 6062, 6049, 6040
10413, 6056, 6483, 6046
10414, 6053, 6491, 6050
10415, 6046, 6051, 6047
10416, 6052, 6051, 6050
10417, 6489, 6050, 6490
10418, 6052, 6036, 6042
10419, 1093, 6065, 1092
10420, 6063, 6066, 6062
10421, 6044, 6048, 6054
10422, 6046, 6054, 6048
10423, 6055, 6059, 6058
10424, 6057, 6842, 6650
10425, 6046, 6048, 6056
10426, 6058, 6048, 6055
10427, 6879, 6849, 6843
10428, 1089, 1090, 6777
10429, 6048, 6058, 6056
10430, 6059, 6055, 446
10431, 6060, 6059, 446
10432, 6057, 6058, 6059
10433, 446, 445, 6060
10434, 6060, 445, 6844
10435, 5322, 6061, 1094
10436, 6062, 6061, 5319
10437, 6049, 6062, 5319
10438, 6063, 6062, 6040
10439, 6064, 6063, 6040
10440, 6065, 6063, 6053
10441, 6041, 6064, 6040
10442, 6036, 6052, 6491
10443, 1092, 6065, 6053
10444, 6066, 6065, 1093
10445, 6062, 6066, 6061
10446, 6065, 6066, 6063
10447, 292, 291, 6067
10448, 6069, 6067, 6070
10449, 6070, 6071, 6072
10450, 6070, 6072, 6068
10451, 6070, 6067, 291
10452, 6069, 6068, 6073
10453, 6072, 6071, 290
10454, 6068, 6069, 6070
10455, 6492, 289, 6085
10456, 6070, 291, 6071
10457, 6072, 290, 6077
10458, 6083, 6068, 6079
10459, 5360, 6073, 5358
10460, 5350, 5352, 6075
10461, 5338, 6069, 6074
10462, 5338, 6074, 6075
10463, 6075, 6074, 5350
10464, 6492, 6081, 6084
10465, 930, 6103, 6108
10466, 6076, 6492, 6077
10467, 6077, 290, 6076
10468, 6081, 6094, 6084
10469, 6092, 6501, 6094
10470, 6080, 6079, 6072
10471, 6106, 6083, 6079
10472, 6077, 6080, 6072
10473, 6084, 6080, 6492
10474, 6492, 6076, 289
10475, 6086, 288, 6090
10476, 6105, 6106, 6501
10477, 6073, 6091, 5358
10478, 6106, 6079, 6078
10479, 6083, 6082, 6091
10480, 6079, 6084, 6078
10481, 6077, 6492, 6080
10482, 289, 6086, 6085
10483, 6081, 6085, 6089
10484, 289, 288, 6086
10485, 6089, 6096, 6088
10486, 6090, 288, 6097
10487, 6494, 6656, 6497
10488, 6085, 6096, 6089
10489, 6092, 6093, 6493
10490, 6096, 6085, 6086
10491, 6088, 6493, 6093
10492, 6097, 288, 287
10493, 6493, 6098, 6087
10494, 6083, 6091, 6073
10495, 6104, 6091, 6082
10496, 6098, 6493, 6088
10497, 6095, 6501, 6092
10498, 6088, 6093, 6089
10499, 6094, 6093, 6092
10500, 6499, 6092, 6500
10501, 6094, 6078, 6084
10502, 930, 6107, 929
10503, 6105, 6108, 6104
10504, 6086, 6090, 6096
10505, 6088, 6096, 6090
10506, 6097, 6101, 6100
10507, 6099, 6809, 6654
10508, 6088, 6090, 6098
10509, 6100, 6090, 6097
10510, 6725, 6739, 6731
10511, 6752, 6750, 6751
10512, 6090, 6100, 6098
10513, 6101, 6097, 287
10514, 6102, 6101, 287
10515, 6099, 6100, 6101
10516, 287, 286, 6102
10517, 6741, 6742, 6739
10518, 5361, 6103, 931
10519, 6104, 6103, 5358
10520, 6091, 6104, 5358
10521, 6105, 6104, 6082
10522, 6106, 6105, 6082
10523, 6107, 6105, 6095
10524, 6083, 6106, 6082
10525, 6078, 6094, 6501
10526, 929, 6107, 6095
10527, 6108, 6107, 930
10528, 6104, 6108, 6103
10529, 6107, 6108, 6105
10530, 610, 609, 6109
10531, 6111, 6109, 6112
10532, 6112, 6113, 6114
10533, 6112, 6114, 6110
10534, 6112, 6109, 609
10535, 6111, 6110, 6115
10536, 6114, 6113, 608
10537, 6110, 6111, 6112
10538, 6502, 607, 6127
10539, 6112, 609, 6113
10540, 6114, 608, 6119
10541, 6125, 6110, 6121
10542, 5390, 6115, 5388
10543, 5380, 5382, 6117
10544, 5368, 6111, 6116
10545, 5368, 6116, 6117
10546, 6117, 6116, 5380
10547, 6502, 6123, 6126
10548, 1256, 6145, 6150
10549, 6118, 6502, 6119
10550, 6119, 608, 6118
10551, 6123, 6136, 6126
10552, 6134, 6511, 6136
10553, 6122, 6121, 6114
10554, 6148, 6125, 6121
10555, 6119, 6122, 6114
10556, 6126, 6122, 6502
10557, 6502, 6118, 607
10558, 6128, 606, 6132
10559, 6147, 6148, 6511
10560, 6115, 6133, 5388
10561, 6148, 6121, 6120
10562, 6125, 6124, 6133
10563, 6121, 6126, 6120
10564, 6119, 6502, 6122
10565, 607, 6128, 6127
10566, 6123, 6127, 6131
10567, 607, 606, 6128
10568, 6131, 6138, 6130
10569, 6132, 606, 6139
10570, 6781, 6507, 6504
10571, 6127, 6138, 6131
10572, 6134, 6135, 6503
10573, 6138, 6127, 6128
10574, 6130, 6503, 6135
10575, 6139, 606, 605
10576, 6503, 6140, 6129
10577, 6125, 6133, 6115
10578, 6146, 6133, 6124
10579, 6140, 6503, 6130
10580, 6137, 6511, 6134
10581, 6130, 6135, 6131
10582, 6136, 6135, 6134
10583, 6509, 6134, 6510
10584, 6136, 6120, 6126
10585, 1256, 6149, 1255
10586, 6147, 6150, 6146
10587, 6128, 6132, 6138
10588, 6130, 6138, 6132
10589, 6139, 6143, 6142
10590, 6141, 6914, 6658
10591, 6130, 6132, 6140
10592, 6142, 6132, 6139
10593, 6951, 6921, 6915
10594, 1252, 1253, 6783
10595, 6132, 6142, 6140
10596, 6143, 6139, 605
10597, 6144, 6143, 605
10598, 6141, 6142, 6143
10599, 605, 604, 6144
10600, 6144, 604, 6916
10601, 5391, 6145, 1257
10602, 6146, 6145, 5388
10603, 6133, 6146, 5388
10604, 6147, 6146, 6124
10605, 6148, 6147, 6124
10606, 6149, 6147, 6137
10607, 6125, 6148, 6124
10608, 6120, 6136, 6511
10609, 1255, 6149, 6137
10610, 6150, 6149, 1256
10611, 6146, 6150, 6145
10612, 6149, 6150, 6147
10613, 6152, 6151, 5126
10614, 6154, 6151, 5394
10615, 5393, 6152, 5126
10616, 1241, 1242, 6153
10617, 6163, 6164, 6162
10618, 6155, 6153, 6164
10619, 6161, 6157, 6154
10620, 6154, 5129, 5130
10621, 6151, 6155, 5394
10622, 6152, 6153, 6155
10623, 6163, 6161, 5394
10624, 6160, 6166, 594
10625, 6158, 6159, 593
10626, 5132, 6158, 593
10627, 5129, 6158, 5132
10628, 6158, 6160, 6159
10629, 594, 6159, 6160
10630, 6157, 6156, 6160
10631, 6661, 6166, 6156
10632, 6163, 5394, 6164
10633, 6156, 6157, 6161
10634, 8185, 6162, 6164
10635, 6662, 8187, 6512
10636, 5394, 6155, 6164
10637, 6163, 6162, 6662
10638, 6153, 1242, 6164
10639, 8185, 6164, 1242
10640, 6661, 6662, 6512
10641, 6166, 6661, 6165
10642, 6156, 6166, 6160
10643, 6167, 6165, 595
10644, 133, 132, 6168
10645, 6165, 6167, 6166
10646, 6170, 6168, 6171
10647, 6171, 6172, 6173
10648, 6171, 6173, 6169
10649, 6171, 6168, 132
10650, 6170, 6169, 6174
10651, 6173, 6172, 131
10652, 6169, 6170, 6171
10653, 6513, 130, 6186
10654, 6171, 132, 6172
10655, 6173, 131, 6178
10656, 6184, 6169, 6180
10657, 5423, 6174, 5421
10658, 5413, 5415, 6176
10659, 5401, 6170, 6175
10660, 5401, 6175, 6176
10661, 6176, 6175, 5413
10662, 6513, 6182, 6185
10663, 767, 6204, 6209
10664, 6177, 6513, 6178
10665, 6178, 131, 6177
10666, 6182, 6195, 6185
10667, 6193, 6522, 6195
10668, 6181, 6180, 6173
10669, 6207, 6184, 6180
10670, 6178, 6181, 6173
10671, 6185, 6181, 6513
10672, 6513, 6177, 130
10673, 6187, 129, 6191
10674, 6206, 6207, 6522
10675, 6174, 6192, 5421
10676, 6207, 6180, 6179
10677, 6184, 6183, 6192
10678, 6180, 6185, 6179
10679, 6178, 6513, 6181
10680, 130, 6187, 6186
10681, 6182, 6186, 6190
10682, 130, 129, 6187
10683, 6190, 6197, 6189
10684, 6191, 129, 6198
10685, 6790, 6518, 6515
10686, 6186, 6197, 6190
10687, 6193, 6194, 6514
10688, 6197, 6186, 6187
10689, 6189, 6514, 6194
10690, 6198, 129, 128
10691, 6514, 6199, 6188
10692, 6184, 6192, 6174
10693, 6205, 6192, 6183
10694, 6199, 6514, 6189
10695, 6196, 6522, 6193
10696, 6189, 6194, 6190
10697, 6195, 6194, 6193
10698, 6520, 6193, 6521
10699, 6195, 6179, 6185
10700, 767, 6208, 766
10701, 6206, 6209, 6205
10702, 6187, 6191, 6197
10703, 6189, 6197, 6191
10704, 6198, 6202, 6201
10705, 6200, 6986, 6665
10706, 6189, 6191, 6199
10707, 6201, 6191, 6198
10708, 7023, 6993, 6987
10709, 763, 764, 6792
10710, 6191, 6201, 6199
10711, 6202, 6198, 128
10712, 6203, 6202, 128
10713, 6200, 6201, 6202
10714, 128, 127, 6203
10715, 6203, 127, 6988
10716, 5424, 6204, 768
10717, 6205, 6204, 5421
10718, 6192, 6205, 5421
10719, 6206, 6205, 6183
10720, 6207, 6206, 6183
10721, 6208, 6206, 6196
10722, 6184, 6207, 6183
10723, 6179, 6195, 6522
10724, 766, 6208, 6196
10725, 6209, 6208, 767
10726, 6205, 6209, 6204
10727, 6208, 6209, 6206
10728, 5155, 6210, 4799
10729, 5154, 6210, 5429
10730, 5433, 6211, 5432
10731, 5153, 6211, 5434
10732, 5436, 6212, 5428
10733, 5428, 6212, 6213
10734, 5435, 6215, 6212
10735, 5439, 6233, 6215
10736, 4304, 6213, 6217
10737, 5439, 6215, 5435
10738, 6214, 6212, 6215
10739, 6241, 7128, 6243
10740, 6219, 6225, 6222
10741, 6213, 6214, 6217
10742, 6214, 6233, 6219
10743, 6250, 6526, 6527
10744, 6217, 6219, 4304
10745, 6238, 5439, 6525
10746, 6223, 6232, 6224
10747, 6220, 6221, 6235
10748, 6225, 6224, 6232
10749, 7057, 7128, 6227
10750, 6221, 4304, 6222
10751, 6220, 6232, 6234
10752, 6525, 5439, 6524
10753, 6219, 6228, 6242
10754, 6223, 6234, 6232
10755, 6240, 6248, 6249
10756, 6535, 6670, 6281
10757, 1077, 1078, 6672
10758, 6222, 6225, 6221
10759, 6224, 6225, 6242
10760, 6238, 6525, 6237
10761, 6243, 6239, 6223
10762, 6239, 6234, 6223
10763, 6228, 6219, 6218
10764, 6239, 6243, 6229
10765, 6238, 6233, 5439
10766, 6231, 6234, 6239
10767, 6249, 6248, 6246
10768, 6235, 6225, 6232
10769, 6248, 6247, 6246
10770, 6238, 6228, 6218
10771, 6230, 6231, 6216
10772, 6220, 6235, 6232
10773, 6230, 6234, 6231
10774, 7058, 6794, 7062
10775, 6216, 6231, 6236
10776, 6225, 6235, 6221
10777, 6238, 6237, 6228
10778, 6219, 6233, 6218
10779, 6669, 6226, 6240
10780, 7058, 6239, 6229
10781, 6231, 6239, 6236
10782, 6527, 6531, 6250
10783, 6243, 6244, 6241
10784, 6238, 6218, 6233
10785, 6219, 6242, 6225
10786, 6246, 6242, 6228
10787, 6244, 6243, 6223
10788, 7131, 7063, 6794
10789, 6245, 6530, 6248
10790, 6246, 6244, 6224
10791, 6530, 6245, 6227
10792, 6241, 6244, 6247
10793, 6242, 6246, 6224
10794, 6249, 6228, 6237
10795, 6246, 6247, 6244
10796, 6240, 6245, 6248
10797, 6228, 6249, 6246
10798, 6530, 6241, 6247
10799, 6249, 6237, 6669
10800, 5441, 6251, 6252
10801, 6526, 6250, 6252
10802, 4978, 5446, 6251
10803, 6252, 6251, 5446
10804, 6253, 6252, 5446
10805, 5441, 6252, 6250
10806, 5446, 2965, 6253
10807, 6528, 2965, 6226
10808, 5159, 6254, 4808
10809, 5158, 6254, 5454
10810, 5458, 6255, 5457
10811, 5157, 6255, 5459
10812, 5461, 6256, 5453
10813, 5453, 6256, 6257
10814, 5460, 6259, 6256
10815, 5464, 6277, 6259
10816, 4313, 6257, 6261
10817, 5464, 6259, 5460
10818, 6258, 6256, 6259
10819, 6285, 7138, 6287
10820, 6263, 6269, 6266
10821, 6257, 6258, 6261
10822, 6258, 6277, 6263
10823, 6294, 6536, 6537
10824, 6261, 6263, 4313
10825, 6282, 5464, 6535
10826, 6267, 6276, 6268
10827, 6264, 6265, 6279
10828, 6269, 6268, 6276
10829, 7064, 7138, 6271
10830, 6265, 4313, 6266
10831, 6264, 6276, 6278
10832, 6535, 5464, 6534
10833, 6263, 6272, 6286
10834, 6267, 6278, 6276
10835, 6284, 6292, 6293
10836, 6545, 6529, 6325
10837, 6675, 5540, 5541
10838, 6266, 6269, 6265
10839, 6268, 6269, 6286
10840, 6282, 6535, 6281
10841, 6287, 6283, 6267
10842, 6283, 6278, 6267
10843, 6272, 6263, 6262
10844, 6283, 6287, 6273
10845, 6282, 6277, 5464
10846, 6275, 6278, 6283
10847, 6293, 6292, 6290
10848, 6279, 6269, 6276
10849, 6292, 6291, 6290
10850, 6282, 6272, 6262
10851, 6274, 6275, 6260
10852, 6264, 6279, 6276
10853, 6274, 6278, 6275
10854, 7065, 6796, 7069
10855, 6260, 6275, 6280
10856, 6269, 6279, 6265
10857, 6282, 6281, 6272
10858, 6263, 6277, 6262
10859, 6670, 6270, 6284
10860, 7065, 6283, 6273
10861, 6275, 6283, 6280
10862, 6537, 6541, 6294
10863, 6287, 6288, 6285
10864, 6282, 6262, 6277
10865, 6263, 6286, 6269
10866, 6290, 6286, 6272
10867, 6288, 6287, 6267
10868, 7141, 7070, 6796
10869, 6289, 6540, 6292
10870, 6290, 6288, 6268
10871, 6540, 6289, 6271
10872, 6285, 6288, 6291
10873, 6286, 6290, 6268
10874, 6293, 6272, 6281
10875, 6290, 6291, 6288
10876, 6284, 6289, 6292
10877, 6272, 6293, 6290
10878, 6540, 6285, 6291
10879, 6293, 6281, 6670
10880, 5466, 6295, 6296
10881, 6536, 6294, 6296
10882, 4983, 5471, 6295
10883, 6296, 6295, 5471
10884, 6297, 6296, 5471
10885, 5466, 6296, 6294
10886, 5471, 3047, 6297
10887, 6538, 3047, 6270
10888, 5163, 6298, 4817
10889, 5162, 6298, 5479
10890, 5483, 6299, 5482
10891, 5161, 6299, 5484
10892, 5486, 6300, 5478
10893, 5478, 6300, 6301
10894, 5485, 6303, 6300
10895, 5489, 6321, 6303
10896, 4322, 6301, 6305
10897, 5489, 6303, 5485
10898, 6302, 6300, 6303
10899, 6329, 7148, 6331
10900, 6307, 6313, 6310
10901, 6301, 6302, 6305
10902, 6302, 6321, 6307
10903, 6338, 6546, 6547
10904, 6305, 6307, 4322
10905, 6326, 5489, 6545
10906, 6311, 6320, 6312
10907, 6308, 6309, 6323
10908, 6313, 6312, 6320
10909, 7071, 7148, 6315
10910, 6309, 4322, 6310
10911, 6308, 6320, 6322
10912, 6545, 5489, 6544
10913, 6307, 6316, 6330
10914, 6311, 6322, 6320
10915, 6328, 6336, 6337
10916, 6555, 6539, 6369
10917, 6568, 6671, 6674
10918, 6310, 6313, 6309
10919, 6312, 6313, 6330
10920, 6326, 6545, 6325
10921, 6331, 6327, 6311
10922, 6327, 6322, 6311
10923, 6316, 6307, 6306
10924, 6327, 6331, 6317
10925, 6326, 6321, 5489
10926, 6319, 6322, 6327
10927, 6337, 6336, 6334
10928, 6323, 6313, 6320
10929, 6336, 6335, 6334
10930, 6326, 6316, 6306
10931, 6318, 6319, 6304
10932, 6308, 6323, 6320
10933, 6318, 6322, 6319
10934, 7072, 6798, 7076
10935, 6304, 6319, 6324
10936, 6313, 6323, 6309
10937, 6326, 6325, 6316
10938, 6307, 6321, 6306
10939, 6529, 6314, 6328
10940, 7072, 6327, 6317
10941, 6319, 6327, 6324
10942, 6547, 6551, 6338
10943, 6331, 6332, 6329
10944, 6326, 6306, 6321
10945, 6307, 6330, 6313
10946, 6334, 6330, 6316
10947, 6332, 6331, 6311
10948, 7151, 7077, 6798
10949, 6333, 6550, 6336
10950, 6334, 6332, 6312
10951, 6550, 6333, 6315
10952, 6329, 6332, 6335
10953, 6330, 6334, 6312
10954, 6337, 6316, 6325
10955, 6334, 6335, 6332
10956, 6328, 6333, 6336
10957, 6316, 6337, 6334
10958, 6550, 6329, 6335
10959, 6337, 6325, 6529
10960, 5491, 6339, 6340
10961, 6546, 6338, 6340
10962, 4988, 5496, 6339
10963, 6340, 6339, 5496
10964, 6341, 6340, 5496
10965, 5491, 6340, 6338
10966, 5496, 3129, 6341
10967, 6548, 3129, 6314
10968, 5167, 6342, 4826
10969, 5166, 6342, 5504
10970, 5508, 6343, 5507
10971, 5165, 6343, 5509
10972, 5511, 6344, 5503
10973, 5503, 6344, 6345
10974, 5510, 6347, 6344
10975, 5514, 6365, 6347
10976, 4331, 6345, 6349
10977, 5514, 6347, 5510
10978, 6346, 6344, 6347
10979, 6373, 7158, 6375
10980, 6351, 6357, 6354
10981, 6345, 6346, 6349
10982, 6346, 6365, 6351
10983, 6382, 6556, 6557
10984, 6349, 6351, 4331
10985, 6370, 5514, 6555
10986, 6355, 6364, 6356
10987, 6352, 6353, 6367
10988, 6357, 6356, 6364
10989, 7078, 7158, 6359
10990, 6353, 4331, 6354
10991, 6352, 6364, 6366
10992, 6555, 5514, 6554
10993, 6351, 6360, 6374
10994, 6355, 6366, 6364
10995, 6372, 6380, 6381
10996, 6682, 6549, 6563
10997, 6673, 6671, 1078
10998, 6354, 6357, 6353
10999, 6356, 6357, 6374
11000, 6370, 6555, 6369
11001, 6375, 6371, 6355
11002, 6371, 6366, 6355
11003, 6360, 6351, 6350
11004, 6371, 6375, 6361
11005, 6370, 6365, 5514
11006, 6363, 6366, 6371
11007, 6381, 6380, 6378
11008, 6367, 6357, 6364
11009, 6380, 6379, 6378
11010, 6370, 6360, 6350
11011, 6362, 6363, 6348
11012, 6352, 6367, 6364
11013, 6362, 6366, 6363
11014, 7079, 6800, 7083
11015, 6348, 6363, 6368
11016, 6357, 6367, 6353
11017, 6370, 6369, 6360
11018, 6351, 6365, 6350
11019, 6539, 6358, 6372
11020, 7079, 6371, 6361
11021, 6363, 6371, 6368
11022, 6557, 6561, 6382
11023, 6375, 6376, 6373
11024, 6370, 6350, 6365
11025, 6351, 6374, 6357
11026, 6378, 6374, 6360
11027, 6376, 6375, 6355
11028, 7161, 7084, 6800
11029, 6377, 6560, 6380
11030, 6378, 6376, 6356
11031, 6560, 6377, 6359
11032, 6373, 6376, 6379
11033, 6374, 6378, 6356
11034, 6381, 6360, 6369
11035, 6378, 6379, 6376
11036, 6372, 6377, 6380
11037, 6360, 6381, 6378
11038, 6560, 6373, 6379
11039, 6381, 6369, 6539
11040, 5516, 6383, 6384
11041, 6556, 6382, 6384
11042, 4993, 5521, 6383
11043, 6384, 6383, 5521
11044, 6385, 6384, 5521
11045, 5516, 6384, 6382
11046, 5521, 3211, 6385
11047, 6558, 3211, 6358
11048, 6553, 5536, 6563
11049, 5542, 6386, 5531
11050, 6566, 6564, 432
11051, 6388, 6391, 6389
11052, 6567, 6388, 6390
11053, 6388, 6566, 6391
11054, 431, 5008, 6389
11055, 6388, 6389, 6390
11056, 6390, 6389, 5004
11057, 432, 431, 6391
11058, 431, 6389, 6391
11059, 6677, 6392, 6674
11060, 6682, 6683, 6806
11061, 4854, 6393, 5012
11062, 5011, 6393, 5171
11063, 5172, 6394, 5011
11064, 6395, 6394, 911
11065, 911, 912, 6395
11066, 912, 6396, 6397
11067, 6407, 6409, 913
11068, 6408, 6399, 6400
11069, 912, 6397, 6395
11070, 6397, 6396, 6400
11071, 5173, 5547, 6398
11072, 6397, 6398, 5547
11073, 6400, 6399, 5014
11074, 6399, 5550, 6401
11075, 6400, 5014, 6398
11076, 6400, 6396, 6408
11077, 6405, 6404, 5550
11078, 6416, 5551, 6453
11079, 6453, 6414, 6416
11080, 6399, 6402, 5174
11081, 6403, 6412, 6413
11082, 6416, 273, 5551
11083, 5550, 6407, 6405
11084, 6431, 6415, 6403
11085, 914, 6413, 6425
11086, 6403, 6404, 6412
11087, 6420, 6418, 6419
11088, 6416, 6417, 273
11089, 5550, 6408, 6407
11090, 6410, 912, 6409
11091, 6408, 5550, 6399
11092, 6410, 6408, 6396
11093, 6408, 6410, 6407
11094, 6410, 6409, 6407
11095, 912, 6410, 6396
11096, 6404, 6405, 6412
11097, 6405, 913, 6411
11098, 6405, 6411, 6425
11099, 914, 6426, 6413
11100, 6428, 6426, 6429
11101, 6415, 6401, 6404
11102, 6416, 6414, 6406
11103, 6403, 6415, 6404
11104, 6406, 6414, 6415
11105, 6417, 6416, 6406
11106, 6453, 272, 5548
11107, 6420, 6419, 6406
11108, 273, 6417, 274
11109, 6438, 6428, 6435
11110, 6436, 6569, 6437
11111, 6406, 6419, 6417
11112, 6421, 6419, 6418
11113, 6431, 6406, 6415
11114, 6428, 6413, 6426
11115, 6424, 6421, 6432
11116, 6419, 6423, 274
11117, 6413, 6438, 6403
11118, 6443, 6445, 6446
11119, 6433, 6424, 6422
11120, 6421, 275, 6423
11121, 6434, 275, 6424
11122, 914, 6425, 6411
11123, 6412, 6425, 6413
11124, 914, 915, 6426
11125, 6426, 915, 6429
11126, 6429, 915, 6430
11127, 6424, 6432, 6422
11128, 6428, 6427, 6435
11129, 6413, 6428, 6438
11130, 6430, 915, 916
11131, 6428, 6429, 6427
11132, 6422, 6432, 6441
11133, 6429, 6430, 6569
11134, 6438, 6431, 6403
11135, 6406, 6431, 6420
11136, 6436, 6418, 6435
11137, 6436, 6437, 6441
11138, 6442, 6446, 6437
11139, 276, 6433, 6440
11140, 6436, 6435, 6427
11141, 6433, 6434, 6424
11142, 6420, 6435, 6418
11143, 6427, 6569, 6436
11144, 6418, 6436, 6432
11145, 916, 6442, 6430
11146, 6569, 6442, 6437
11147, 6435, 6420, 6438
11148, 6431, 6438, 6420
11149, 6444, 6570, 6572
11150, 6573, 6574, 6578
11151, 6440, 6433, 6451
11152, 6452, 6440, 6594
11153, 6436, 6441, 6432
11154, 6450, 6441, 6437
11155, 917, 6443, 916
11156, 6442, 916, 6443
11157, 917, 6445, 6443
11158, 6442, 6443, 6446
11159, 6444, 6445, 6570
11160, 6446, 6449, 6447
11161, 6570, 6445, 917
11162, 6446, 6445, 6444
11163, 6449, 6446, 6444
11164, 6441, 6450, 6422
11165, 6451, 6450, 6447
11166, 6449, 6594, 6447
11167, 6596, 6604, 6597
11168, 278, 277, 6595
11169, 6444, 6439, 6449
11170, 6449, 6439, 6594
11171, 6437, 6446, 6450
11172, 6447, 6450, 6446
11173, 6450, 6451, 6422
11174, 6440, 6451, 6447
11175, 6594, 6440, 6447
11176, 6595, 6452, 6448
11177, 6414, 6453, 6402
11178, 6455, 1005, 5564
11179, 5569, 6454, 5562
11180, 1003, 6457, 5596
11181, 6454, 1004, 6455
11182, 5596, 6457, 5570
11183, 6457, 6456, 1004
11184, 6460, 1168, 5613
11185, 5590, 359, 6458
11186, 5618, 6459, 5611
11187, 1166, 6462, 5645
11188, 6459, 1167, 6460
11189, 5645, 6462, 5619
11190, 6462, 6461, 1167
11191, 6608, 6479, 6609
11192, 5639, 518, 6463
11193, 5723, 6464, 5705
11194, 5725, 6465, 5724
11195, 5733, 6466, 5726
11196, 5817, 6467, 5801
11197, 5819, 6468, 5818
11198, 5822, 6469, 5820
11199, 5905, 6470, 5887
11200, 5907, 6471, 5906
11201, 5915, 6472, 5908
11202, 5994, 6473, 5980
11203, 5988, 676, 6474
11204, 6002, 6647, 6000
11205, 6620, 6478, 6010
11206, 5996, 6476, 5995
11207, 6001, 6477, 5997
11208, 6016, 6478, 6014
11209, 6611, 6612, 678
11210, 6610, 6010, 6013
11211, 6617, 6619, 6010
11212, 6014, 43, 6480
11213, 6763, 6628, 6481
11214, 6039, 6482, 6043
11215, 6486, 6483, 6045
11216, 6486, 6487, 6483
11217, 6045, 6058, 6650
11218, 1091, 6487, 6652
11219, 6489, 6488, 1092
11220, 6050, 6483, 6490
11221, 6045, 6650, 6651
11222, 6486, 6484, 6487
11223, 1091, 6485, 6487
11224, 6485, 6490, 6487
11225, 6488, 6489, 6485
11226, 6485, 1091, 6488
11227, 1092, 6053, 6489
11228, 6487, 6490, 6483
11229, 6489, 6490, 6485
11230, 6063, 6491, 6053
11231, 6036, 6491, 6064
11232, 6081, 6492, 6085
11233, 6496, 6493, 6087
11234, 6496, 6497, 6493
11235, 6087, 6100, 6654
11236, 928, 6497, 6656
11237, 6499, 6498, 929
11238, 6092, 6493, 6500
11239, 6087, 6654, 6655
11240, 6496, 6494, 6497
11241, 928, 6495, 6497
11242, 6495, 6500, 6497
11243, 6498, 6499, 6495
11244, 6495, 928, 6498
11245, 929, 6095, 6499
11246, 6497, 6500, 6493
11247, 6499, 6500, 6495
11248, 6105, 6501, 6095
11249, 6078, 6501, 6106
11250, 6123, 6502, 6127
11251, 6506, 6503, 6129
11252, 6506, 6507, 6503
11253, 6129, 6142, 6658
11254, 1254, 6507, 6660
11255, 6509, 6508, 1255
11256, 6134, 6503, 6510
11257, 6129, 6658, 6659
11258, 6506, 6504, 6507
11259, 1254, 6505, 6507
11260, 6505, 6510, 6507
11261, 6508, 6509, 6505
11262, 6505, 1254, 6508
11263, 1255, 6137, 6509
11264, 6507, 6510, 6503
11265, 6509, 6510, 6505
11266, 6147, 6511, 6137
11267, 6120, 6511, 6148
11268, 8188, 8187, 8185
11269, 6787, 595, 6785
11270, 6182, 6513, 6186
11271, 6517, 6514, 6188
11272, 6517, 6518, 6514
11273, 6188, 6201, 6665
11274, 765, 6518, 6667
11275, 6520, 6519, 766
11276, 6193, 6514, 6521
11277, 6188, 6665, 6666
11278, 6517, 6515, 6518
11279, 765, 6516, 6518
11280, 6516, 6521, 6518
11281, 6519, 6520, 6516
11282, 6516, 765, 6519
11283, 766, 6196, 6520
11284, 6518, 6521, 6514
11285, 6520, 6521, 6516
11286, 6206, 6522, 6196
11287, 6179, 6522, 6207
11288, 7193, 7062, 7063
11289, 7128, 6241, 6227
11290, 5439, 5435, 6527
11291, 6528, 6524, 2965
11292, 6669, 6525, 6226
11293, 6253, 6526, 6252
11294, 6527, 6526, 6524
11295, 5439, 6527, 6524
11296, 6527, 5435, 6531
11297, 6226, 6525, 6528
11298, 6524, 6528, 6525
11299, 7058, 7062, 6236
11300, 6293, 6670, 6284
11301, 6273, 6287, 7138
11302, 6248, 6530, 6247
11303, 5436, 6531, 5435
11304, 6532, 6531, 5432
11305, 6211, 6532, 5432
11306, 5441, 6532, 5437
11307, 7214, 7069, 7070
11308, 7138, 6285, 6271
11309, 5464, 5460, 6537
11310, 6538, 6534, 3047
11311, 6670, 6535, 6270
11312, 6297, 6536, 6296
11313, 6537, 6536, 6534
11314, 5464, 6537, 6534
11315, 6537, 5460, 6541
11316, 6270, 6535, 6538
11317, 6534, 6538, 6535
11318, 7065, 7069, 6280
11319, 6337, 6529, 6328
11320, 6317, 6331, 7148
11321, 6292, 6540, 6291
11322, 5461, 6541, 5460
11323, 6542, 6541, 5457
11324, 6255, 6542, 5457
11325, 5466, 6542, 5462
11326, 7235, 7076, 7077
11327, 7148, 6329, 6315
11328, 5489, 5485, 6547
11329, 6548, 6544, 3129
11330, 6529, 6545, 6314
11331, 6341, 6546, 6340
11332, 6547, 6546, 6544
11333, 5489, 6547, 6544
11334, 6547, 5485, 6551
11335, 6314, 6545, 6548
11336, 6544, 6548, 6545
11337, 7072, 7076, 6324
11338, 6381, 6539, 6372
11339, 6361, 6375, 7158
11340, 6336, 6550, 6335
11341, 5486, 6551, 5485
11342, 6552, 6551, 5482
11343, 6299, 6552, 5482
11344, 5491, 6552, 5487
11345, 7256, 7083, 7084
11346, 7158, 6373, 6359
11347, 5514, 5510, 6557
11348, 6558, 6554, 3211
11349, 6539, 6555, 6358
11350, 6385, 6556, 6384
11351, 6557, 6556, 6554
11352, 5514, 6557, 6554
11353, 6557, 5510, 6561
11354, 6358, 6555, 6558
11355, 6554, 6558, 6555
11356, 7079, 7083, 6368
11357, 5539, 6559, 5536
11358, 6671, 6559, 5540
11359, 6380, 6560, 6379
11360, 5511, 6561, 5510
11361, 6562, 6561, 5507
11362, 6343, 6562, 5507
11363, 5516, 6562, 5512
11364, 6680, 6679, 6568
11365, 433, 6553, 6549
11366, 5537, 6387, 6565
11367, 6553, 6564, 6387
11368, 6387, 6564, 6566
11369, 6566, 432, 6391
11370, 6387, 6566, 6565
11371, 5535, 6567, 5532
11372, 6565, 6567, 5537
11373, 5540, 6672, 6671
11374, 6680, 6678, 6679
11375, 6429, 6569, 6427
11376, 6442, 6569, 6430
11377, 917, 918, 6570
11378, 6573, 6572, 6570
11379, 919, 6577, 6576
11380, 6598, 6595, 6600
11381, 6573, 6570, 918
11382, 6604, 6572, 6571
11383, 6574, 6573, 918
11384, 6571, 6572, 6573
11385, 918, 919, 6574
11386, 6574, 919, 6576
11387, 6582, 6589, 6579
11388, 6578, 6575, 6580
11389, 6577, 919, 920
11390, 6578, 6576, 6575
11391, 6593, 6753, 6588
11392, 6576, 6577, 6586
11393, 6579, 6580, 6582
11394, 6578, 6571, 6573
11395, 6599, 278, 6598
11396, 6578, 6580, 6571
11397, 6575, 6586, 6585
11398, 6602, 6597, 6579
11399, 6585, 6581, 6590
11400, 6753, 6583, 6587
11401, 6575, 6582, 6580
11402, 6585, 6590, 6582
11403, 920, 6587, 6577
11404, 6586, 6587, 6583
11405, 6584, 6590, 6684
11406, 6696, 6685, 6584
11407, 6575, 6585, 6582
11408, 6754, 6585, 6583
11409, 6587, 6586, 6577
11410, 6585, 6586, 6583
11411, 921, 6588, 920
11412, 6588, 6587, 920
11413, 6588, 921, 6593
11414, 6587, 6588, 6753
11415, 279, 6603, 6584
11416, 6603, 6599, 6602
11417, 6684, 6590, 6581
11418, 6589, 6590, 6584
11419, 6698, 6713, 6592
11420, 6705, 6707, 6714
11421, 6592, 6593, 6698
11422, 6686, 6755, 6591
11423, 6698, 6593, 921
11424, 6753, 6593, 6592
11425, 6601, 6594, 6439
11426, 6452, 6594, 6448
11427, 6452, 6595, 277
11428, 6595, 6448, 6600
11429, 6600, 6448, 6601
11430, 6579, 6597, 6580
11431, 6604, 6596, 6601
11432, 6571, 6580, 6597
11433, 6602, 6596, 6597
11434, 278, 6599, 279
11435, 6598, 6602, 6599
11436, 6603, 6579, 6589
11437, 6448, 6594, 6601
11438, 6598, 6600, 6596
11439, 6439, 6572, 6604
11440, 6596, 6600, 6601
11441, 6596, 6602, 6598
11442, 6603, 6602, 6579
11443, 6584, 6603, 6589
11444, 279, 6599, 6603
11445, 6597, 6604, 6571
11446, 6439, 6604, 6601
11447, 5990, 6605, 5974
11448, 6606, 6605, 5986
11449, 6608, 6606, 5988
11450, 6605, 6606, 6475
11451, 6608, 6607, 6475
11452, 6609, 6607, 6608
11453, 6606, 6608, 6475
11454, 6608, 5988, 6613
11455, 6609, 6479, 6610
11456, 6013, 6607, 6609
11457, 6479, 6611, 6610
11458, 6615, 6617, 6611
11459, 6612, 6611, 6479
11460, 6614, 6615, 6616
11461, 6613, 6612, 6479
11462, 678, 6612, 677
11463, 6608, 6613, 6479
11464, 6613, 5988, 6474
11465, 6618, 6621, 6619
11466, 6610, 6617, 6010
11467, 6616, 679, 6758
11468, 6615, 6614, 6617
11469, 6617, 6610, 6611
11470, 6615, 678, 6616
11471, 6619, 6617, 6757
11472, 6756, 6757, 6758
11473, 6761, 6759, 6760
11474, 6757, 6617, 6614
11475, 6619, 6621, 6620
11476, 6623, 6620, 6481
11477, 6478, 6620, 6014
11478, 6618, 6762, 6763
11479, 6481, 6620, 6621
11480, 6760, 6764, 6640
11481, 6626, 6627, 6630
11482, 6626, 6624, 6623
11483, 6014, 6623, 43
11484, 6628, 6625, 6627
11485, 43, 6623, 6624
11486, 6639, 6633, 6638
11487, 6632, 6636, 45
11488, 44, 6624, 6626
11489, 6628, 6627, 6481
11490, 6629, 6630, 6632
11491, 6763, 6481, 6621
11492, 6628, 6622, 6634
11493, 6632, 6630, 6625
11494, 6629, 44, 6630
11495, 6632, 45, 6629
11496, 6630, 44, 6626
11497, 6625, 6638, 6633
11498, 6640, 6767, 6641
11499, 6633, 6635, 6636
11500, 6628, 6634, 6638
11501, 6633, 6631, 6635
11502, 6759, 6761, 6756
11503, 6633, 6639, 6631
11504, 6770, 6631, 6644
11505, 6636, 6637, 45
11506, 6633, 6636, 6632
11507, 6637, 6635, 46
11508, 6628, 6638, 6625
11509, 6635, 6637, 6636
11510, 6639, 6638, 6634
11511, 6634, 6641, 6639
11512, 6643, 6631, 6639
11513, 6634, 6622, 6811
11514, 6768, 6765, 6766
11515, 6641, 6634, 6811
11516, 6765, 6642, 6767
11517, 6765, 6640, 6764
11518, 682, 6769, 6768
11519, 6767, 6639, 6641
11520, 6644, 6643, 6642
11521, 6642, 6768, 6813
11522, 6644, 6815, 6814
11523, 6770, 6814, 6645
11524, 46, 6646, 6772
11525, 6770, 6635, 6631
11526, 6772, 6646, 6645
11527, 6605, 6647, 5974
11528, 6648, 6647, 6475
11529, 6607, 6648, 6475
11530, 6648, 6005, 6006
11531, 6776, 6778, 6841
11532, 6775, 1090, 6652
11533, 6057, 6650, 6058
11534, 6651, 6650, 6649
11535, 6651, 6649, 6774
11536, 6045, 6651, 6486
11537, 6725, 6729, 6730
11538, 6652, 6487, 6775
11539, 6751, 6750, 927
11540, 6099, 6654, 6100
11541, 6655, 6654, 6653
11542, 6655, 6653, 6751
11543, 6087, 6655, 6496
11544, 6782, 6784, 6913
11545, 6751, 6656, 6494
11546, 6781, 1253, 6660
11547, 6141, 6658, 6142
11548, 6659, 6658, 6657
11549, 6659, 6657, 6780
11550, 6129, 6659, 6506
11551, 6662, 6661, 6156
11552, 6660, 6507, 6781
11553, 6661, 6512, 6786
11554, 6163, 6662, 6156
11555, 8186, 8193, 8187
11556, 8191, 8186, 8189
11557, 6512, 8192, 6786
11558, 6791, 6793, 6985
11559, 6790, 764, 6667
11560, 6200, 6665, 6201
11561, 6666, 6665, 6664
11562, 6666, 6664, 6789
11563, 6188, 6666, 6517
11564, 5536, 6553, 6387
11565, 6667, 6518, 6790
11566, 6549, 6553, 6563
11567, 6249, 6669, 6240
11568, 6525, 6669, 6237
11569, 6229, 6243, 7128
11570, 1078, 1079, 6673
11571, 1079, 6676, 6677
11572, 6673, 6677, 6671
11573, 6674, 6671, 6677
11574, 1077, 6672, 6675
11575, 5540, 6675, 6672
11576, 1079, 6802, 6676
11577, 6804, 7116, 6805
11578, 1079, 6677, 6673
11579, 6392, 6677, 6676
11580, 7120, 6683, 6392
11581, 6549, 6682, 434
11582, 6563, 5536, 6679
11583, 6679, 5536, 6559
11584, 6674, 6680, 6568
11585, 6392, 6678, 6680
11586, 6392, 6676, 7116
11587, 6806, 7121, 435
11588, 6563, 6678, 6682
11589, 6683, 6682, 6678
11590, 6392, 6683, 6678
11591, 6683, 6681, 6806
11592, 6697, 6684, 6581
11593, 281, 280, 6687
11594, 279, 6584, 6685
11595, 6687, 6696, 6684
11596, 6686, 6689, 6688
11597, 6696, 6687, 280
11598, 6684, 6697, 6688
11599, 6689, 6686, 6591
11600, 6687, 6688, 6691
11601, 6689, 6591, 6692
11602, 6688, 6689, 6691
11603, 6690, 6692, 6693
11604, 6706, 6716, 6718
11605, 6692, 6691, 6689
11606, 6695, 282, 6694
11607, 6693, 6692, 6591
11608, 6692, 6690, 6695
11609, 6699, 6703, 6713
11610, 6704, 6702, 923
11611, 6692, 6695, 6691
11612, 6695, 6694, 6691
11613, 6690, 6718, 6732
11614, 6685, 6696, 280
11615, 6584, 6684, 6696
11616, 6754, 6697, 6581
11617, 6688, 6697, 6686
11618, 921, 922, 6698
11619, 6699, 6698, 922
11620, 6700, 6699, 922
11621, 6699, 6707, 6703
11622, 922, 923, 6700
11623, 6700, 923, 6702
11624, 6701, 6723, 6724
11625, 6706, 6711, 6712
11626, 6704, 923, 924
11627, 6705, 6702, 6701
11628, 6693, 6591, 6703
11629, 6713, 6591, 6592
11630, 6704, 924, 6721
11631, 6702, 6704, 6735
11632, 6705, 6701, 6708
11633, 6707, 6705, 6693
11634, 6708, 6711, 6706
11635, 6718, 6690, 6710
11636, 6703, 6707, 6693
11637, 6714, 6699, 6700
11638, 6711, 6701, 6709
11639, 6708, 6706, 6710
11640, 6735, 6721, 6723
11641, 284, 6733, 6719
11642, 6718, 6710, 6706
11643, 6690, 6693, 6710
11644, 6701, 6711, 6708
11645, 6709, 6734, 6711
11646, 6733, 6734, 6719
11647, 6720, 283, 6712
11648, 6699, 6713, 6698
11649, 6591, 6713, 6703
11650, 6705, 6714, 6702
11651, 6699, 6714, 6707
11652, 6722, 6721, 924
11653, 6726, 6729, 6725
11654, 282, 6695, 6732
11655, 6706, 6712, 6716
11656, 6716, 6717, 6718
11657, 6716, 283, 6717
11658, 6732, 6717, 282
11659, 6724, 6726, 6728
11660, 6719, 6731, 6746
11661, 6722, 924, 925
11662, 6733, 6720, 6712
11663, 6723, 6721, 6715
11664, 6722, 925, 6736
11665, 6715, 6721, 6722
11666, 6724, 6723, 6715
11667, 6701, 6702, 6735
11668, 6724, 6715, 6726
11669, 6701, 6724, 6709
11670, 6729, 6726, 6738
11671, 6742, 6743, 6745
11672, 6722, 6736, 6738
11673, 6728, 6726, 6725
11674, 6737, 6736, 925
11675, 926, 6749, 6737
11676, 6731, 6728, 6725
11677, 6728, 6719, 6734
11678, 6738, 6726, 6715
11679, 6730, 6729, 6727
11680, 6737, 6748, 6727
11681, 286, 6742, 6102
11682, 6739, 6725, 6730
11683, 6731, 285, 6746
11684, 6690, 6732, 6695
11685, 6717, 6732, 6718
11686, 6720, 6733, 284
11687, 6734, 6733, 6712
11688, 6711, 6734, 6712
11689, 6728, 6734, 6709
11690, 6721, 6735, 6704
11691, 6701, 6735, 6723
11692, 6737, 925, 926
11693, 6738, 6736, 6727
11694, 6749, 926, 6750
11695, 6727, 6736, 6737
11696, 6729, 6738, 6727
11697, 6722, 6738, 6715
11698, 6741, 6739, 6730
11699, 286, 6743, 6742
11700, 6810, 6747, 6809
11701, 6744, 6102, 6742
11702, 6810, 6741, 6730
11703, 6742, 6741, 6740
11704, 286, 285, 6743
11705, 6744, 6742, 6740
11706, 6731, 6745, 285
11707, 6739, 6745, 6731
11708, 6809, 6744, 6740
11709, 6744, 6099, 6101
11710, 6742, 6745, 6739
11711, 285, 6745, 6743
11712, 285, 284, 6746
11713, 6719, 6746, 284
11714, 6752, 6809, 6747
11715, 6727, 6748, 6730
11716, 6749, 6748, 6737
11717, 6810, 6748, 6747
11718, 6750, 926, 927
11719, 6748, 6749, 6747
11720, 6656, 6751, 927
11721, 6747, 6749, 6750
11722, 6655, 6751, 6494
11723, 6752, 6751, 6653
11724, 6809, 6752, 6653
11725, 6750, 6752, 6747
11726, 6592, 6755, 6753
11727, 6686, 6697, 6754
11728, 6754, 6581, 6585
11729, 6754, 6753, 6755
11730, 6591, 6755, 6592
11731, 6754, 6755, 6686
11732, 6759, 6756, 679
11733, 6756, 6761, 6762
11734, 6619, 6757, 6618
11735, 6758, 6757, 6614
11736, 6616, 6758, 6614
11737, 679, 6756, 6758
11738, 679, 680, 6759
11739, 6759, 680, 6760
11740, 6764, 6760, 680
11741, 6640, 6641, 6811
11742, 6811, 6761, 6760
11743, 6762, 6761, 6622
11744, 6622, 6628, 6763
11745, 6762, 6618, 6757
11746, 6618, 6763, 6621
11747, 6622, 6763, 6762
11748, 680, 681, 6764
11749, 6765, 6764, 681
11750, 6768, 6766, 682
11751, 6767, 6642, 6643
11752, 6767, 6643, 6639
11753, 6765, 681, 6766
11754, 6640, 6765, 6767
11755, 683, 6819, 6812
11756, 6765, 6768, 6642
11757, 6833, 6771, 6837
11758, 6769, 6815, 6813
11759, 6814, 6770, 6644
11760, 6646, 6770, 6645
11761, 6769, 6819, 6818
11762, 6821, 6828, 6830
11763, 6842, 6846, 6841
11764, 6772, 6645, 6827
11765, 6773, 6847, 6849
11766, 6651, 6774, 6484
11767, 6841, 6649, 6842
11768, 6484, 6774, 6775
11769, 1090, 6775, 6774
11770, 6776, 6845, 6860
11771, 6776, 6862, 6777
11772, 1090, 6774, 6777
11773, 6777, 6774, 6778
11774, 6841, 6778, 6649
11775, 6777, 6778, 6776
11776, 6914, 6918, 6913
11777, 6779, 6919, 6921
11778, 6659, 6780, 6504
11779, 6913, 6657, 6914
11780, 6504, 6780, 6781
11781, 1253, 6781, 6780
11782, 6782, 6917, 6932
11783, 6782, 6934, 6783
11784, 1253, 6780, 6783
11785, 6783, 6780, 6784
11786, 6913, 6784, 6657
11787, 6783, 6784, 6782
11788, 6165, 6661, 6786
11789, 6787, 6785, 6663
11790, 6512, 8193, 8192
11791, 6663, 6785, 6786
11792, 8200, 6663, 8198
11793, 595, 6787, 596
11794, 6986, 6990, 6985
11795, 6788, 6991, 6993
11796, 6666, 6789, 6515
11797, 6985, 6664, 6986
11798, 6515, 6789, 6790
11799, 764, 6790, 6789
11800, 6791, 6989, 7004
11801, 6791, 7006, 6792
11802, 764, 6789, 6792
11803, 6792, 6789, 6793
11804, 6985, 6793, 6664
11805, 6792, 6793, 6791
11806, 7058, 7061, 6794
11807, 7061, 7131, 6794
11808, 6795, 7131, 7130
11809, 7130, 7136, 6795
11810, 7065, 7068, 6796
11811, 7068, 7141, 6796
11812, 6797, 7141, 7140
11813, 7140, 7146, 6797
11814, 7072, 7075, 6798
11815, 7075, 7151, 6798
11816, 6799, 7151, 7150
11817, 7150, 7156, 6799
11818, 7079, 7082, 6800
11819, 7082, 7161, 6800
11820, 6801, 7161, 7160
11821, 7160, 7166, 6801
11822, 1079, 1080, 6802
11823, 7088, 7087, 7085
11824, 7089, 7088, 1081
11825, 7113, 435, 7121
11826, 6804, 6805, 7085
11827, 7114, 7111, 7112
11828, 7085, 6805, 1080
11829, 6804, 7115, 7116
11830, 435, 434, 6806
11831, 6806, 434, 6682
11832, 6805, 7116, 6802
11833, 7115, 6803, 7114
11834, 7122, 7121, 6681
11835, 6808, 7114, 7112
11836, 6744, 6809, 6099
11837, 6809, 6740, 6810
11838, 6741, 6810, 6740
11839, 6748, 6810, 6730
11840, 6761, 6811, 6622
11841, 6811, 6760, 6640
11842, 6642, 6813, 6644
11843, 6769, 682, 6812
11844, 6768, 6769, 6813
11845, 6644, 6813, 6815
11846, 6822, 6814, 6771
11847, 6818, 6815, 6769
11848, 6771, 6814, 6817
11849, 6819, 6820, 6821
11850, 6819, 6821, 6816
11851, 6814, 6815, 6817
11852, 6817, 6815, 6818
11853, 6769, 6812, 6819
11854, 6818, 6816, 6837
11855, 6820, 684, 6821
11856, 6816, 6818, 6819
11857, 6828, 6829, 6823
11858, 6819, 683, 6820
11859, 6821, 684, 6828
11860, 6822, 6771, 6825
11861, 47, 6772, 6827
11862, 7260, 7168, 7123
11863, 6832, 6833, 6837
11864, 6824, 6830, 6834
11865, 6838, 48, 6825
11866, 6839, 6771, 6833
11867, 6835, 6838, 6839
11868, 6814, 6822, 6827
11869, 6825, 6836, 6822
11870, 6827, 6822, 47
11871, 6829, 685, 7169
11872, 6830, 6828, 6823
11873, 6823, 7168, 6834
11874, 6828, 684, 6829
11875, 6830, 6824, 6832
11876, 6829, 7169, 6823
11877, 49, 6840, 7124
11878, 6833, 6832, 6824
11879, 6821, 6832, 6816
11880, 6833, 6824, 6839
11881, 6771, 6817, 6837
11882, 6823, 6834, 6830
11883, 7174, 6835, 6834
11884, 48, 6838, 6840
11885, 6824, 6834, 6835
11886, 48, 6836, 6825
11887, 47, 6836, 6826
11888, 6818, 6837, 6817
11889, 6832, 6837, 6816
11890, 6839, 6838, 6825
11891, 6840, 6838, 6835
11892, 6839, 6825, 6771
11893, 6835, 6839, 6824
11894, 6840, 6835, 7174
11895, 48, 6840, 49
11896, 6060, 6844, 6057
11897, 6841, 6846, 6847
11898, 6650, 6842, 6649
11899, 6846, 6842, 6057
11900, 6864, 6863, 6879
11901, 6845, 6841, 6847
11902, 6849, 6879, 6848
11903, 6844, 6843, 6846
11904, 6860, 6773, 6859
11905, 6776, 6841, 6845
11906, 6844, 6846, 6057
11907, 6847, 6846, 6843
11908, 6879, 445, 6864
11909, 6845, 6847, 6773
11910, 6863, 6875, 6848
11911, 6882, 6878, 6853
11912, 6843, 6849, 6847
11913, 6854, 6855, 6852
11914, 6850, 6858, 6854
11915, 6875, 6856, 6865
11916, 6855, 6849, 6848
11917, 6851, 6854, 6858
11918, 6863, 444, 6856
11919, 6868, 6867, 443
11920, 6858, 6873, 6853
11921, 6851, 6859, 6773
11922, 6855, 6854, 6851
11923, 6866, 6854, 6852
11924, 6849, 6855, 6851
11925, 6875, 6855, 6848
11926, 443, 6865, 6856
11927, 6852, 6867, 6866
11928, 6906, 441, 6898
11929, 6850, 6866, 6872
11930, 6873, 6858, 6850
11931, 6859, 6858, 6853
11932, 6853, 6874, 6859
11933, 6861, 1089, 6862
11934, 6773, 6860, 6845
11935, 6860, 6859, 6861
11936, 6874, 6861, 6859
11937, 1088, 1089, 6861
11938, 6777, 6862, 1089
11939, 6776, 6860, 6862
11940, 6879, 6844, 445
11941, 6866, 6867, 6857
11942, 6875, 6852, 6855
11943, 444, 6863, 6864
11944, 6875, 6865, 6852
11945, 6867, 6852, 6865
11946, 6890, 6872, 6866
11947, 442, 6876, 6870
11948, 6868, 6857, 6867
11949, 443, 6870, 6868
11950, 6868, 6870, 6876
11951, 6891, 6868, 6876
11952, 6881, 6873, 6877
11953, 443, 6867, 6865
11954, 6892, 6897, 6895
11955, 6886, 6884, 6869
11956, 6890, 6866, 6857
11957, 6873, 6872, 6869
11958, 6877, 6873, 6869
11959, 6848, 6879, 6863
11960, 6878, 6874, 6853
11961, 6861, 6874, 1088
11962, 6856, 6875, 6863
11963, 6906, 6876, 442
11964, 6876, 6871, 6891
11965, 6884, 6883, 6877
11966, 6873, 6881, 1087
11967, 6874, 6878, 1088
11968, 6878, 6882, 1087
11969, 6844, 6879, 6843
11970, 6904, 6893, 6886
11971, 6905, 6896, 6898
11972, 6853, 6873, 6882
11973, 6877, 1086, 6881
11974, 1087, 6882, 6873
11975, 6884, 6877, 6869
11976, 6885, 6883, 6880
11977, 6890, 6869, 6872
11978, 6880, 6883, 6884
11979, 6889, 6911, 6912
11980, 6883, 6888, 1086
11981, 6891, 6886, 6890
11982, 6891, 6904, 6886
11983, 6884, 6893, 6880
11984, 6899, 6907, 6901
11985, 6902, 1084, 6889
11986, 6885, 1085, 6888
11987, 6911, 1085, 6885
11988, 6891, 6890, 6857
11989, 6869, 6890, 6886
11990, 6891, 6857, 6868
11991, 6904, 6891, 6871
11992, 441, 6905, 6898
11993, 6899, 6895, 6897
11994, 6886, 6893, 6884
11995, 6895, 6893, 6892
11996, 6895, 6894, 6880
11997, 6887, 6910, 6912
11998, 6893, 6895, 6880
11999, 6897, 6898, 6896
12000, 8222, 6900, 8226
12001, 6894, 6895, 6899
12002, 6904, 7125, 6892
12003, 6899, 6897, 6896
12004, 7125, 6897, 6892
12005, 6898, 7125, 6906
12006, 6907, 6908, 8225
12007, 6894, 6899, 6887
12008, 8221, 439, 438
12009, 6887, 6899, 6901
12010, 6902, 6909, 6903
12011, 6903, 1084, 6902
12012, 6909, 6910, 6901
12013, 1084, 6903, 1083
12014, 6902, 6912, 6910
12015, 7118, 7107, 6909
12016, 6893, 6904, 6892
12017, 441, 440, 6905
12018, 6905, 440, 6908
12019, 6876, 6906, 6871
12020, 442, 441, 6906
12021, 6908, 6907, 6896
12022, 6900, 6901, 6907
12023, 6905, 6908, 6896
12024, 8224, 8226, 8225
12025, 7098, 7101, 7100
12026, 6909, 7095, 6903
12027, 6901, 6910, 6887
12028, 6909, 6902, 6910
12029, 6894, 6887, 6912
12030, 1085, 6911, 6889
12031, 6889, 6912, 6902
12032, 6894, 6912, 6911
12033, 6144, 6916, 6141
12034, 6913, 6918, 6919
12035, 6658, 6914, 6657
12036, 6918, 6914, 6141
12037, 6936, 6935, 6951
12038, 6917, 6913, 6919
12039, 6921, 6951, 6920
12040, 6916, 6915, 6918
12041, 6932, 6779, 6931
12042, 6782, 6913, 6917
12043, 6916, 6918, 6141
12044, 6919, 6918, 6915
12045, 6951, 604, 6936
12046, 6917, 6919, 6779
12047, 6935, 6947, 6920
12048, 6954, 6950, 6925
12049, 6915, 6921, 6919
12050, 6926, 6927, 6924
12051, 6922, 6930, 6926
12052, 6947, 6928, 6937
12053, 6927, 6921, 6920
12054, 6923, 6926, 6930
12055, 6935, 603, 6928
12056, 6940, 6939, 602
12057, 6930, 6945, 6925
12058, 6923, 6931, 6779
12059, 6927, 6926, 6923
12060, 6938, 6926, 6924
12061, 6921, 6927, 6923
12062, 6947, 6927, 6920
12063, 602, 6937, 6928
12064, 6924, 6939, 6938
12065, 6978, 600, 6970
12066, 6922, 6938, 6944
12067, 6945, 6930, 6922
12068, 6931, 6930, 6925
12069, 6925, 6946, 6931
12070, 6933, 1252, 6934
12071, 6779, 6932, 6917
12072, 6932, 6931, 6933
12073, 6946, 6933, 6931
12074, 1251, 1252, 6933
12075, 6783, 6934, 1252
12076, 6782, 6932, 6934
12077, 6951, 6916, 604
12078, 6938, 6939, 6929
12079, 6947, 6924, 6927
12080, 603, 6935, 6936
12081, 6947, 6937, 6924
12082, 6939, 6924, 6937
12083, 6962, 6944, 6938
12084, 601, 6948, 6942
12085, 6940, 6929, 6939
12086, 602, 6942, 6940
12087, 6940, 6942, 6948
12088, 6963, 6940, 6948
12089, 6953, 6945, 6949
12090, 602, 6939, 6937
12091, 6964, 6969, 6967
12092, 6958, 6956, 6941
12093, 6962, 6938, 6929
12094, 6945, 6944, 6941
12095, 6949, 6945, 6941
12096, 6920, 6951, 6935
12097, 6950, 6946, 6925
12098, 6933, 6946, 1251
12099, 6928, 6947, 6935
12100, 6978, 6948, 601
12101, 6948, 6943, 6963
12102, 6956, 6955, 6949
12103, 6945, 6953, 1250
12104, 6946, 6950, 1251
12105, 6950, 6954, 1250
12106, 6916, 6951, 6915
12107, 6976, 6965, 6958
12108, 6977, 6968, 6970
12109, 6925, 6945, 6954
12110, 6949, 1249, 6953
12111, 1250, 6954, 6945
12112, 6956, 6949, 6941
12113, 6957, 6955, 6952
12114, 6962, 6941, 6944
12115, 6952, 6955, 6956
12116, 6961, 6983, 6984
12117, 6955, 6960, 1249
12118, 6963, 6958, 6962
12119, 6963, 6976, 6958
12120, 6956, 6965, 6952
12121, 6971, 6979, 6973
12122, 6974, 1247, 6961
12123, 6957, 1248, 6960
12124, 6983, 1248, 6957
12125, 6963, 6962, 6929
12126, 6941, 6962, 6958
12127, 6963, 6929, 6940
12128, 6976, 6963, 6943
12129, 600, 6977, 6970
12130, 6971, 6967, 6969
12131, 6958, 6965, 6956
12132, 6967, 6965, 6964
12133, 6967, 6966, 6952
12134, 6959, 6982, 6984
12135, 6965, 6967, 6952
12136, 6969, 6970, 6968
12137, 8999, 599, 598
12138, 6966, 6967, 6971
12139, 6976, 7126, 6964
12140, 6971, 6969, 6968
12141, 7126, 6969, 6964
12142, 6970, 7126, 6978
12143, 6979, 6980, 8999
12144, 6966, 6971, 6959
12145, 597, 8201, 8204
12146, 6959, 6971, 6973
12147, 6974, 6981, 6975
12148, 6975, 1247, 6974
12149, 6981, 6982, 6973
12150, 1247, 6975, 1246
12151, 6974, 6984, 6982
12152, 8207, 8220, 8214
12153, 6965, 6976, 6964
12154, 600, 599, 6977
12155, 6977, 599, 6980
12156, 6948, 6978, 6943
12157, 601, 600, 6978
12158, 6980, 6979, 6968
12159, 6972, 6973, 6979
12160, 6977, 6980, 6968
12161, 6980, 599, 8999
12162, 596, 8200, 8201
12163, 8220, 8218, 6981
12164, 6973, 6982, 6959
12165, 6981, 6974, 6982
12166, 6966, 6959, 6984
12167, 1248, 6983, 6961
12168, 6961, 6984, 6974
12169, 6966, 6984, 6983
12170, 6203, 6988, 6200
12171, 6985, 6990, 6991
12172, 6665, 6986, 6664
12173, 6990, 6986, 6200
12174, 7008, 7007, 7023
12175, 6989, 6985, 6991
12176, 6993, 7023, 6992
12177, 6988, 6987, 6990
12178, 7004, 6788, 7003
12179, 6791, 6985, 6989
12180, 6988, 6990, 6200
12181, 6991, 6990, 6987
12182, 7023, 127, 7008
12183, 6989, 6991, 6788
12184, 7007, 7019, 6992
12185, 7026, 7022, 6997
12186, 6987, 6993, 6991
12187, 6998, 6999, 6996
12188, 6994, 7002, 6998
12189, 7019, 7000, 7009
12190, 6999, 6993, 6992
12191, 6995, 6998, 7002
12192, 7007, 126, 7000
12193, 7012, 7011, 125
12194, 7002, 7017, 6997
12195, 6995, 7003, 6788
12196, 6999, 6998, 6995
12197, 7010, 6998, 6996
12198, 6993, 6999, 6995
12199, 7019, 6999, 6992
12200, 125, 7009, 7000
12201, 6996, 7011, 7010
12202, 7050, 123, 7042
12203, 6994, 7010, 7016
12204, 7017, 7002, 6994
12205, 7003, 7002, 6997
12206, 6997, 7018, 7003
12207, 7005, 763, 7006
12208, 6788, 7004, 6989
12209, 7004, 7003, 7005
12210, 7018, 7005, 7003
12211, 762, 763, 7005
12212, 6792, 7006, 763
12213, 6791, 7004, 7006
12214, 7023, 6988, 127
12215, 7010, 7011, 7001
12216, 7019, 6996, 6999
12217, 126, 7007, 7008
12218, 7019, 7009, 6996
12219, 7011, 6996, 7009
12220, 7034, 7016, 7010
12221, 124, 7020, 7014
12222, 7012, 7001, 7011
12223, 125, 7014, 7012
12224, 7012, 7014, 7020
12225, 7035, 7012, 7020
12226, 7025, 7017, 7021
12227, 125, 7011, 7009
12228, 7036, 7041, 7039
12229, 7030, 7028, 7013
12230, 7034, 7010, 7001
12231, 7017, 7016, 7013
12232, 7021, 7017, 7013
12233, 6992, 7023, 7007
12234, 7022, 7018, 6997
12235, 7005, 7018, 762
12236, 7000, 7019, 7007
12237, 7050, 7020, 124
12238, 7020, 7015, 7035
12239, 7028, 7027, 7021
12240, 7017, 7025, 761
12241, 7018, 7022, 762
12242, 7022, 7026, 761
12243, 6988, 7023, 6987
12244, 7048, 7037, 7030
12245, 7049, 7040, 7042
12246, 6997, 7017, 7026
12247, 7021, 760, 7025
12248, 761, 7026, 7017
12249, 7028, 7021, 7013
12250, 7029, 7027, 7024
12251, 7034, 7013, 7016
12252, 7024, 7027, 7028
12253, 7033, 7055, 7056
12254, 7027, 7032, 760
12255, 7035, 7030, 7034
12256, 7035, 7048, 7030
12257, 7028, 7037, 7024
12258, 7043, 7051, 7045
12259, 7046, 758, 7033
12260, 7029, 759, 7032
12261, 7055, 759, 7029
12262, 7035, 7034, 7001
12263, 7013, 7034, 7030
12264, 7035, 7001, 7012
12265, 7048, 7035, 7015
12266, 123, 7049, 7042
12267, 7043, 7039, 7041
12268, 7030, 7037, 7028
12269, 7039, 7037, 7036
12270, 7039, 7038, 7024
12271, 7031, 7054, 7056
12272, 7037, 7039, 7024
12273, 7041, 7042, 7040
12274, 8080, 8077, 7044
12275, 7038, 7039, 7043
12276, 7048, 7127, 7036
12277, 7043, 7041, 7040
12278, 7127, 7041, 7036
12279, 7042, 7127, 7050
12280, 122, 8078, 8080
12281, 7038, 7043, 7031
12282, 8072, 8074, 8079
12283, 7031, 7043, 7045
12284, 7046, 7053, 7047
12285, 7047, 758, 7046
12286, 7053, 7054, 7045
12287, 758, 7047, 757
12288, 7046, 7056, 7054
12289, 8065, 8067, 8068
12290, 7037, 7048, 7036
12291, 123, 122, 7049
12292, 7049, 122, 7052
12293, 7020, 7050, 7015
12294, 124, 123, 7050
12295, 7052, 7051, 7040
12296, 7044, 7045, 7051
12297, 7049, 7052, 7040
12298, 7051, 8080, 7044
12299, 8072, 8075, 8070
12300, 7053, 8063, 7047
12301, 7045, 7054, 7031
12302, 7053, 7046, 7054
12303, 7038, 7031, 7056
12304, 759, 7055, 7033
12305, 7033, 7056, 7046
12306, 7038, 7056, 7055
12307, 6227, 6241, 6530
12308, 6239, 7058, 6236
12309, 7061, 7058, 6229
12310, 7129, 7057, 7132
12311, 7132, 7130, 7131
12312, 7178, 7180, 7134
12313, 7179, 7196, 7181
12314, 7128, 7061, 6229
12315, 7059, 7132, 7131
12316, 7063, 7062, 6794
12317, 7195, 7194, 6216
12318, 7136, 7181, 6795
12319, 7136, 7134, 7181
12320, 6271, 6285, 6540
12321, 6283, 7065, 6280
12322, 7068, 7065, 6273
12323, 7139, 7064, 7142
12324, 7142, 7140, 7141
12325, 7199, 7201, 7144
12326, 7200, 7217, 7202
12327, 7138, 7068, 6273
12328, 7066, 7142, 7141
12329, 7070, 7069, 6796
12330, 7216, 7215, 6260
12331, 7146, 7202, 6797
12332, 7146, 7144, 7202
12333, 6315, 6329, 6550
12334, 6327, 7072, 6324
12335, 7075, 7072, 6317
12336, 7149, 7071, 7152
12337, 7152, 7150, 7151
12338, 7220, 7222, 7154
12339, 7221, 7238, 7223
12340, 7148, 7075, 6317
12341, 7073, 7152, 7151
12342, 7077, 7076, 6798
12343, 7237, 7236, 6304
12344, 7156, 7223, 6799
12345, 7156, 7154, 7223
12346, 6359, 6373, 6560
12347, 6371, 7079, 6368
12348, 7082, 7079, 6361
12349, 7159, 7078, 7162
12350, 7162, 7160, 7161
12351, 7241, 7243, 7164
12352, 7242, 7259, 7244
12353, 7158, 7082, 6361
12354, 7080, 7162, 7161
12355, 7084, 7083, 6800
12356, 7258, 7257, 6348
12357, 7166, 7244, 6801
12358, 7166, 7164, 7244
12359, 1080, 1081, 7085
12360, 7085, 1081, 7088
12361, 7091, 7089, 7092
12362, 7097, 7099, 7108
12363, 7109, 7087, 7086
12364, 6803, 6804, 7087
12365, 7089, 1081, 1082
12366, 7087, 7088, 7086
12367, 7093, 7092, 1082
12368, 7086, 7088, 7089
12369, 7118, 6900, 8223
12370, 7103, 7101, 7102
12371, 7092, 7089, 1082
12372, 7097, 7091, 7090
12373, 7093, 1082, 1083
12374, 7091, 7092, 7096
12375, 1083, 6903, 7095
12376, 7091, 7096, 7090
12377, 7097, 7100, 7094
12378, 7094, 7110, 7099
12379, 7107, 7095, 6909
12380, 7117, 7096, 7093
12381, 7092, 7093, 7096
12382, 7117, 7093, 7095
12383, 7119, 7100, 7090
12384, 7097, 7094, 7099
12385, 7119, 7117, 7107
12386, 8226, 8221, 8222
12387, 7103, 7105, 7110
12388, 7099, 7110, 7111
12389, 7090, 7100, 7097
12390, 7098, 8221, 7101
12391, 7103, 7102, 437
12392, 7094, 7100, 7101
12393, 7104, 7105, 7106
12394, 7101, 438, 7102
12395, 7101, 7103, 7094
12396, 7104, 7113, 7112
12397, 7099, 7111, 7109
12398, 7104, 7106, 436
12399, 7105, 7104, 7110
12400, 6909, 6901, 7118
12401, 7105, 437, 7106
12402, 7119, 7107, 8223
12403, 7086, 7091, 7108
12404, 7097, 7108, 7091
12405, 7087, 7109, 6803
12406, 7108, 7109, 7086
12407, 7110, 7094, 7103
12408, 7111, 7110, 7104
12409, 7112, 7111, 7104
12410, 7109, 7111, 6803
12411, 7113, 7104, 436
12412, 7122, 7114, 6808
12413, 435, 7113, 436
12414, 6808, 7112, 7113
12415, 7115, 7114, 6807
12416, 7111, 7114, 6803
12417, 7116, 7115, 6807
12418, 6803, 7115, 6804
12419, 7116, 6807, 7120
12420, 6802, 7116, 6676
12421, 7096, 7117, 7090
12422, 7095, 7107, 7117
12423, 6901, 6900, 7118
12424, 8223, 6900, 8222
12425, 7100, 7119, 7098
12426, 7117, 7119, 7090
12427, 6683, 7120, 6681
12428, 7116, 7120, 6392
12429, 6681, 7120, 7122
12430, 7113, 7121, 6808
12431, 7114, 7122, 6807
12432, 6808, 7121, 7122
12433, 7170, 7123, 7169
12434, 8168, 687, 8166
12435, 7123, 7172, 7173
12436, 49, 7124, 7175
12437, 6906, 7125, 6871
12438, 6897, 7125, 6898
12439, 6978, 7126, 6943
12440, 6969, 7126, 6970
12441, 7050, 7127, 7015
12442, 7041, 7127, 7042
12443, 7057, 7129, 7128
12444, 7129, 7061, 7128
12445, 7132, 7057, 6668
12446, 7061, 7129, 7059
12447, 7176, 7133, 960
12448, 7134, 7136, 7135
12449, 7131, 6795, 7063
12450, 7061, 7059, 7131
12451, 7129, 7132, 7059
12452, 7135, 7132, 6668
12453, 7178, 7134, 7176
12454, 7132, 7135, 7130
12455, 7060, 7182, 7183
12456, 6668, 7133, 7135
12457, 7135, 7133, 7176
12458, 7135, 7136, 7130
12459, 7181, 7134, 7180
12460, 7194, 7195, 7193
12461, 7064, 7139, 7138
12462, 7139, 7068, 7138
12463, 7142, 7064, 6523
12464, 7068, 7139, 7066
12465, 7197, 7143, 797
12466, 7144, 7146, 7145
12467, 7141, 6797, 7070
12468, 7068, 7066, 7141
12469, 7139, 7142, 7066
12470, 7145, 7142, 6523
12471, 7199, 7144, 7197
12472, 7142, 7145, 7140
12473, 7067, 7203, 7204
12474, 6523, 7143, 7145
12475, 7145, 7143, 7197
12476, 7145, 7146, 7140
12477, 7202, 7144, 7201
12478, 7215, 7216, 7214
12479, 7071, 7149, 7148
12480, 7149, 7075, 7148
12481, 7152, 7071, 6533
12482, 7075, 7149, 7073
12483, 7218, 7153, 1123
12484, 7154, 7156, 7155
12485, 7151, 6799, 7077
12486, 7075, 7073, 7151
12487, 7149, 7152, 7073
12488, 7155, 7152, 6533
12489, 7220, 7154, 7218
12490, 7152, 7155, 7150
12491, 7074, 7224, 7225
12492, 6533, 7153, 7155
12493, 7155, 7153, 7218
12494, 7155, 7156, 7150
12495, 7223, 7154, 7222
12496, 7236, 7237, 7235
12497, 7078, 7159, 7158
12498, 7159, 7082, 7158
12499, 7162, 7078, 6543
12500, 7082, 7159, 7080
12501, 7239, 7163, 1286
12502, 7164, 7166, 7165
12503, 7161, 6801, 7084
12504, 7082, 7080, 7161
12505, 7159, 7162, 7080
12506, 7165, 7162, 6543
12507, 7241, 7164, 7239
12508, 7162, 7165, 7160
12509, 7081, 7245, 7246
12510, 6543, 7163, 7165
12511, 7165, 7163, 7239
12512, 7165, 7166, 7160
12513, 7244, 7164, 7243
12514, 7257, 7258, 7256
12515, 6834, 7168, 6831
12516, 7169, 7168, 6823
12517, 7170, 7169, 685
12518, 7168, 7169, 7123
12519, 685, 686, 7170
12520, 8167, 7172, 7170
12521, 8161, 8128, 8134
12522, 7263, 7124, 7262
12523, 8167, 7170, 686
12524, 7173, 7172, 7171
12525, 7261, 7263, 7264
12526, 7174, 7262, 7124
12527, 7262, 7174, 6831
12528, 6840, 7174, 7124
12529, 8303, 8298, 8258
12530, 7124, 50, 7175
12531, 7135, 7176, 7134
12532, 8288, 8270, 8287
12533, 6795, 7137, 7063
12534, 960, 7178, 7176
12535, 7188, 7180, 7178
12536, 7179, 7186, 7183
12537, 7192, 7182, 7060
12538, 7269, 7271, 7189
12539, 7180, 7179, 7181
12540, 7137, 7193, 7063
12541, 6795, 7181, 7137
12542, 6236, 7195, 6216
12543, 7137, 7181, 7196
12544, 7337, 7304, 7333
12545, 7187, 7060, 7183
12546, 7193, 7182, 7192
12547, 7330, 7311, 7342
12548, 7188, 7186, 7179
12549, 7186, 7189, 7187
12550, 7188, 7269, 7186
12551, 7186, 7187, 7183
12552, 7185, 7060, 7187
12553, 7180, 7188, 7179
12554, 7313, 7321, 7311
12555, 7376, 7785, 7273
12556, 7187, 7189, 7185
12557, 7196, 7183, 7182
12558, 7189, 7271, 7185
12559, 7137, 7182, 7193
12560, 7344, 7339, 7340
12561, 7195, 6236, 7062
12562, 7193, 7192, 7194
12563, 7062, 7193, 7195
12564, 7183, 7196, 7179
12565, 7137, 7196, 7182
12566, 8408, 8406, 8403
12567, 7145, 7197, 7144
12568, 8393, 8375, 8392
12569, 6797, 7147, 7070
12570, 797, 7199, 7197
12571, 7209, 7201, 7199
12572, 7200, 7207, 7204
12573, 7213, 7203, 7067
12574, 7278, 7280, 7210
12575, 7201, 7200, 7202
12576, 7147, 7214, 7070
12577, 6797, 7202, 7147
12578, 6280, 7216, 6260
12579, 7147, 7202, 7217
12580, 7422, 7389, 7418
12581, 7208, 7067, 7204
12582, 7214, 7203, 7213
12583, 7415, 7396, 7427
12584, 7209, 7207, 7200
12585, 7207, 7210, 7208
12586, 7209, 7278, 7207
12587, 7207, 7208, 7204
12588, 7206, 7067, 7208
12589, 7201, 7209, 7200
12590, 7398, 7406, 7396
12591, 7461, 7794, 7282
12592, 7208, 7210, 7206
12593, 7217, 7204, 7203
12594, 7210, 7280, 7206
12595, 7147, 7203, 7214
12596, 7429, 7424, 7425
12597, 7216, 6280, 7069
12598, 7214, 7213, 7215
12599, 7069, 7214, 7216
12600, 7204, 7217, 7200
12601, 7147, 7217, 7203
12602, 8592, 8590, 8587
12603, 7155, 7218, 7154
12604, 8577, 8559, 8576
12605, 6799, 7157, 7077
12606, 1123, 7220, 7218
12607, 7230, 7222, 7220
12608, 7221, 7228, 7225
12609, 7234, 7224, 7074
12610, 7287, 7289, 7231
12611, 7222, 7221, 7223
12612, 7157, 7235, 7077
12613, 6799, 7223, 7157
12614, 6324, 7237, 6304
12615, 7157, 7223, 7238
12616, 7507, 7474, 7503
12617, 7229, 7074, 7225
12618, 7235, 7224, 7234
12619, 7500, 7481, 7512
12620, 7230, 7228, 7221
12621, 7228, 7231, 7229
12622, 7230, 7287, 7228
12623, 7228, 7229, 7225
12624, 7227, 7074, 7229
12625, 7222, 7230, 7221
12626, 7483, 7491, 7481
12627, 7546, 7803, 7291
12628, 7229, 7231, 7227
12629, 7238, 7225, 7224
12630, 7231, 7289, 7227
12631, 7157, 7224, 7235
12632, 7514, 7509, 7510
12633, 7237, 6324, 7076
12634, 7235, 7234, 7236
12635, 7076, 7235, 7237
12636, 7225, 7238, 7221
12637, 7157, 7238, 7224
12638, 8784, 8782, 8779
12639, 7165, 7239, 7164
12640, 8769, 8767, 8768
12641, 6801, 7167, 7084
12642, 1286, 7241, 7239
12643, 7251, 7243, 7241
12644, 7242, 7249, 7246
12645, 7255, 7245, 7081
12646, 7296, 7298, 7252
12647, 7243, 7242, 7244
12648, 7167, 7256, 7084
12649, 6801, 7244, 7167
12650, 6368, 7258, 6348
12651, 7167, 7244, 7259
12652, 7592, 7559, 7588
12653, 7250, 7081, 7246
12654, 7256, 7245, 7255
12655, 7585, 7566, 7597
12656, 7251, 7249, 7242
12657, 7249, 7252, 7250
12658, 7251, 7296, 7249
12659, 7249, 7250, 7246
12660, 7248, 7081, 7250
12661, 7243, 7251, 7242
12662, 7568, 7576, 7566
12663, 7631, 7812, 7300
12664, 7250, 7252, 7248
12665, 7259, 7246, 7245
12666, 7252, 7298, 7248
12667, 7167, 7245, 7256
12668, 7599, 7594, 7595
12669, 7258, 6368, 7083
12670, 7256, 7255, 7257
12671, 7083, 7256, 7258
12672, 7246, 7259, 7242
12673, 7167, 7259, 7245
12674, 7168, 7260, 6831
12675, 7123, 7173, 7260
12676, 7261, 8154, 8153
12677, 8151, 8152, 8153
12678, 7260, 7262, 6831
12679, 7173, 7264, 7263
12680, 7265, 7266, 8152
12681, 7263, 7266, 7124
12682, 7173, 7171, 7264
12683, 8155, 7264, 7171
12684, 7124, 7266, 50
12685, 50, 7266, 7265
12686, 8152, 7263, 7261
12687, 7352, 7361, 7351
12688, 7269, 7267, 7271
12689, 7320, 7329, 7331
12690, 7344, 7303, 7308
12691, 7191, 7185, 7271
12692, 7338, 7275, 7335
12693, 7271, 1290, 7191
12694, 7379, 7349, 7325
12695, 1290, 7271, 7267
12696, 7314, 7272, 7323
12697, 7332, 7326, 7310
12698, 7667, 7669, 7660
12699, 7267, 7322, 7643
12700, 7332, 7268, 7304
12701, 7305, 7323, 7272
12702, 7437, 7446, 7436
12703, 7278, 7276, 7280
12704, 7405, 7414, 7416
12705, 7429, 7388, 7393
12706, 7212, 7206, 7280
12707, 7423, 7284, 7420
12708, 7280, 1289, 7212
12709, 7464, 7434, 7410
12710, 1289, 7280, 7276
12711, 7399, 7281, 7408
12712, 7417, 7411, 7395
12713, 7701, 7703, 7694
12714, 7276, 7407, 7677
12715, 7417, 7277, 7389
12716, 7390, 7408, 7281
12717, 7522, 7531, 7521
12718, 7287, 7285, 7289
12719, 7490, 7499, 7501
12720, 7514, 7473, 7478
12721, 7233, 7227, 7289
12722, 7508, 7293, 7505
12723, 7289, 1291, 7233
12724, 7549, 7519, 7495
12725, 1291, 7289, 7285
12726, 7484, 7290, 7493
12727, 7502, 7496, 7480
12728, 7735, 7737, 7728
12729, 7285, 7492, 7711
12730, 7502, 7286, 7474
12731, 7475, 7493, 7290
12732, 7607, 7616, 7606
12733, 7296, 7294, 7298
12734, 7575, 7584, 7586
12735, 7599, 7558, 7563
12736, 7254, 7248, 7298
12737, 7593, 7302, 7590
12738, 7298, 1292, 7254
12739, 7634, 7604, 7580
12740, 1292, 7298, 7294
12741, 7569, 7299, 7578
12742, 7587, 7581, 7565
12743, 7769, 7771, 7762
12744, 7294, 7577, 7745
12745, 7587, 7295, 7559
12746, 7560, 7578, 7299
12747, 7332, 7310, 7270
12748, 7311, 7306, 7342
12749, 7343, 7306, 7267
12750, 7307, 7303, 7309
12751, 7267, 7306, 7322
12752, 7303, 7307, 7308
12753, 7338, 7335, 7340
12754, 7350, 7304, 7341
12755, 7310, 7326, 7334
12756, 7320, 7337, 7327
12757, 7270, 7310, 7318
12758, 7316, 7314, 7312
12759, 7303, 7275, 7336
12760, 7307, 7306, 7308
12761, 7313, 7311, 7330
12762, 7643, 7322, 7321
12763, 7320, 7312, 7329
12764, 7316, 7317, 7314
12765, 7322, 7306, 7311
12766, 7314, 7313, 7312
12767, 7317, 7316, 7315
12768, 7323, 7313, 7314
12769, 7312, 7320, 7316
12770, 7319, 7324, 7315
12771, 7315, 7272, 7317
12772, 7315, 7316, 7319
12773, 7314, 7317, 7272
12774, 7304, 7331, 7332
12775, 7353, 7348, 7358
12776, 7328, 7319, 7316
12777, 7328, 7327, 7319
12778, 7326, 7329, 7330
12779, 7337, 7320, 7331
12780, 7311, 7321, 7322
12781, 7352, 7351, 7355
12782, 7321, 7305, 7643
12783, 7305, 7321, 7323
12784, 7323, 7321, 7313
12785, 7334, 7326, 7330
12786, 7319, 7274, 7324
12787, 7380, 7319, 7387
12788, 7334, 7342, 7309
12789, 7340, 7345, 7178
12790, 7268, 7341, 7304
12791, 7337, 7331, 7304
12792, 7316, 7320, 7328
12793, 7327, 7328, 7320
12794, 7330, 7329, 7312
12795, 7329, 7326, 7331
12796, 7313, 7330, 7312
12797, 7310, 7309, 7318
12798, 7326, 7332, 7331
12799, 7349, 7350, 7325
12800, 7306, 7307, 7342
12801, 7336, 7309, 7303
12802, 7345, 7340, 7339
12803, 7310, 7334, 7309
12804, 7335, 7275, 7303
12805, 7275, 7318, 7336
12806, 7309, 7336, 7318
12807, 7332, 7270, 7268
12808, 7327, 7337, 7333
12809, 7308, 7343, 7339
12810, 7335, 7344, 7340
12811, 7188, 7339, 7269
12812, 960, 7338, 7346
12813, 7274, 7380, 7385
12814, 7346, 7178, 960
12815, 7348, 7327, 7333
12816, 7309, 7342, 7307
12817, 7330, 7342, 7334
12818, 7306, 7343, 7308
12819, 7269, 7343, 7267
12820, 7303, 7344, 7335
12821, 7339, 7344, 7308
12822, 7339, 7188, 7345
12823, 7178, 7345, 7188
12824, 7338, 7340, 7346
12825, 7178, 7346, 7340
12826, 7370, 7366, 7644
12827, 7349, 7348, 7333
12828, 7333, 7304, 7350
12829, 7361, 7184, 7356
12830, 7325, 7350, 7341
12831, 7333, 7350, 7349
12832, 7381, 7351, 7360
12833, 7360, 7351, 7356
12834, 7355, 7354, 7353
12835, 7358, 7379, 7352
12836, 7353, 7365, 7348
12837, 7381, 7369, 7372
12838, 7355, 7358, 7352
12839, 7354, 7382, 7384
12840, 7358, 7355, 7353
12841, 7380, 7274, 7319
12842, 7347, 7357, 7384
12843, 7365, 7387, 7348
12844, 7372, 7354, 7355
12845, 7348, 7387, 7327
12846, 7349, 7358, 7348
12847, 7359, 7352, 7379
12848, 7363, 7366, 7369
12849, 7356, 7351, 7361
12850, 7352, 7359, 7361
12851, 7654, 7658, 7650
12852, 7184, 7361, 7359
12853, 7647, 7646, 7364
12854, 7373, 7370, 7367
12855, 7367, 7647, 7648
12856, 7645, 7360, 7356
12857, 7386, 7353, 7354
12858, 7384, 7385, 7386
12859, 7370, 7373, 7786
12860, 7369, 7375, 7371
12861, 7644, 7363, 7645
12862, 7360, 7363, 7369
12863, 7349, 7379, 7358
12864, 7366, 7363, 7644
12865, 7369, 7366, 7375
12866, 7372, 7355, 7381
12867, 7659, 7655, 7658
12868, 7367, 7648, 7373
12869, 7371, 8228, 8229
12870, 7371, 8229, 7382
12871, 8227, 8228, 7376
12872, 7372, 7371, 7382
12873, 7356, 7184, 7645
12874, 7660, 7671, 7673
12875, 7646, 7647, 7367
12876, 7370, 7377, 7366
12877, 7366, 7377, 7376
12878, 8228, 8227, 7383
12879, 7785, 7376, 7377
12880, 8228, 7383, 8229
12881, 7784, 7782, 7779
12882, 7645, 7184, 7364
12883, 7658, 7655, 7672
12884, 7779, 7653, 7784
12885, 7387, 7319, 7327
12886, 7359, 7379, 7325
12887, 7385, 7384, 7357
12888, 7351, 7381, 7355
12889, 7369, 7381, 7360
12890, 7354, 7372, 7382
12891, 7369, 7371, 7372
12892, 7347, 7384, 7382
12893, 7375, 7366, 7376
12894, 7274, 7385, 7357
12895, 7387, 7385, 7380
12896, 7386, 7385, 7365
12897, 7353, 7386, 7365
12898, 7384, 7386, 7354
12899, 7385, 7387, 7365
12900, 7417, 7395, 7279
12901, 7396, 7391, 7427
12902, 7428, 7391, 7276
12903, 7392, 7388, 7394
12904, 7276, 7391, 7407
12905, 7388, 7392, 7393
12906, 7423, 7420, 7425
12907, 7435, 7389, 7426
12908, 7395, 7411, 7419
12909, 7405, 7422, 7412
12910, 7279, 7395, 7403
12911, 7401, 7399, 7397
12912, 7388, 7284, 7421
12913, 7392, 7391, 7393
12914, 7398, 7396, 7415
12915, 7677, 7407, 7406
12916, 7405, 7397, 7414
12917, 7401, 7402, 7399
12918, 7407, 7391, 7396
12919, 7399, 7398, 7397
12920, 7402, 7401, 7400
12921, 7408, 7398, 7399
12922, 7397, 7405, 7401
12923, 7404, 7409, 7400
12924, 7400, 7281, 7402
12925, 7400, 7401, 7404
12926, 7399, 7402, 7281
12927, 7389, 7416, 7417
12928, 7438, 7433, 7443
12929, 7413, 7404, 7401
12930, 7413, 7412, 7404
12931, 7411, 7414, 7415
12932, 7422, 7405, 7416
12933, 7396, 7406, 7407
12934, 7437, 7436, 7440
12935, 7406, 7390, 7677
12936, 7390, 7406, 7408
12937, 7408, 7406, 7398
12938, 7419, 7411, 7415
12939, 7404, 7283, 7409
12940, 7465, 7404, 7472
12941, 7419, 7427, 7394
12942, 7425, 7430, 7199
12943, 7277, 7426, 7389
12944, 7422, 7416, 7389
12945, 7401, 7405, 7413
12946, 7412, 7413, 7405
12947, 7415, 7414, 7397
12948, 7414, 7411, 7416
12949, 7398, 7415, 7397
12950, 7395, 7394, 7403
12951, 7411, 7417, 7416
12952, 7434, 7435, 7410
12953, 7391, 7392, 7427
12954, 7421, 7394, 7388
12955, 7430, 7425, 7424
12956, 7395, 7419, 7394
12957, 7420, 7284, 7388
12958, 7284, 7403, 7421
12959, 7394, 7421, 7403
12960, 7417, 7279, 7277
12961, 7412, 7422, 7418
12962, 7393, 7428, 7424
12963, 7420, 7429, 7425
12964, 7209, 7424, 7278
12965, 797, 7423, 7431
12966, 7283, 7465, 7470
12967, 7431, 7199, 797
12968, 7433, 7412, 7418
12969, 7394, 7427, 7392
12970, 7415, 7427, 7419
12971, 7391, 7428, 7393
12972, 7278, 7428, 7276
12973, 7388, 7429, 7420
12974, 7424, 7429, 7393
12975, 7424, 7209, 7430
12976, 7199, 7430, 7209
12977, 7423, 7425, 7431
12978, 7199, 7431, 7425
12979, 7455, 7451, 7678
12980, 7434, 7433, 7418
12981, 7418, 7389, 7435
12982, 7446, 7205, 7441
12983, 7410, 7435, 7426
12984, 7418, 7435, 7434
12985, 7466, 7436, 7445
12986, 7445, 7436, 7441
12987, 7440, 7439, 7438
12988, 7443, 7464, 7437
12989, 7438, 7450, 7433
12990, 7466, 7454, 7457
12991, 7440, 7443, 7437
12992, 7439, 7467, 7469
12993, 7443, 7440, 7438
12994, 7465, 7283, 7404
12995, 7432, 7442, 7469
12996, 7450, 7472, 7433
12997, 7457, 7439, 7440
12998, 7433, 7472, 7412
12999, 7434, 7443, 7433
13000, 7444, 7437, 7464
13001, 7448, 7451, 7454
13002, 7441, 7436, 7446
13003, 7437, 7444, 7446
13004, 7688, 7692, 7684
13005, 7205, 7446, 7444
13006, 7681, 7680, 7449
13007, 7458, 7455, 7452
13008, 7452, 7681, 7682
13009, 7679, 7445, 7441
13010, 7471, 7438, 7439
13011, 7469, 7470, 7471
13012, 7455, 7458, 7795
13013, 7454, 7460, 7456
13014, 7678, 7448, 7679
13015, 7445, 7448, 7454
13016, 7434, 7464, 7443
13017, 7451, 7448, 7678
13018, 7454, 7451, 7460
13019, 7457, 7440, 7466
13020, 7693, 7689, 7692
13021, 7452, 7682, 7458
13022, 7456, 8231, 8232
13023, 7456, 8232, 7467
13024, 8230, 8231, 7461
13025, 7457, 7456, 7467
13026, 7441, 7205, 7679
13027, 7694, 7705, 7707
13028, 7680, 7681, 7452
13029, 7455, 7462, 7451
13030, 7451, 7462, 7461
13031, 8231, 8230, 7468
13032, 7794, 7461, 7462
13033, 8231, 7468, 8232
13034, 7793, 7791, 7788
13035, 7679, 7205, 7449
13036, 7692, 7689, 7706
13037, 7788, 7687, 7793
13038, 7472, 7404, 7412
13039, 7444, 7464, 7410
13040, 7470, 7469, 7442
13041, 7436, 7466, 7440
13042, 7454, 7466, 7445
13043, 7439, 7457, 7467
13044, 7454, 7456, 7457
13045, 7432, 7469, 7467
13046, 7460, 7451, 7461
13047, 7283, 7470, 7442
13048, 7472, 7470, 7465
13049, 7471, 7470, 7450
13050, 7438, 7471, 7450
13051, 7469, 7471, 7439
13052, 7470, 7472, 7450
13053, 7502, 7480, 7288
13054, 7481, 7476, 7512
13055, 7513, 7476, 7285
13056, 7477, 7473, 7479
13057, 7285, 7476, 7492
13058, 7473, 7477, 7478
13059, 7508, 7505, 7510
13060, 7520, 7474, 7511
13061, 7480, 7496, 7504
13062, 7490, 7507, 7497
13063, 7288, 7480, 7488
13064, 7486, 7484, 7482
13065, 7473, 7293, 7506
13066, 7477, 7476, 7478
13067, 7483, 7481, 7500
13068, 7711, 7492, 7491
13069, 7490, 7482, 7499
13070, 7486, 7487, 7484
13071, 7492, 7476, 7481
13072, 7484, 7483, 7482
13073, 7487, 7486, 7485
13074, 7493, 7483, 7484
13075, 7482, 7490, 7486
13076, 7489, 7494, 7485
13077, 7485, 7290, 7487
13078, 7485, 7486, 7489
13079, 7484, 7487, 7290
13080, 7474, 7501, 7502
13081, 7523, 7518, 7528
13082, 7498, 7489, 7486
13083, 7498, 7497, 7489
13084, 7496, 7499, 7500
13085, 7507, 7490, 7501
13086, 7481, 7491, 7492
13087, 7522, 7521, 7525
13088, 7491, 7475, 7711
13089, 7475, 7491, 7493
13090, 7493, 7491, 7483
13091, 7504, 7496, 7500
13092, 7489, 7292, 7494
13093, 7550, 7489, 7557
13094, 7504, 7512, 7479
13095, 7510, 7515, 7220
13096, 7286, 7511, 7474
13097, 7507, 7501, 7474
13098, 7486, 7490, 7498
13099, 7497, 7498, 7490
13100, 7500, 7499, 7482
13101, 7499, 7496, 7501
13102, 7483, 7500, 7482
13103, 7480, 7479, 7488
13104, 7496, 7502, 7501
13105, 7519, 7520, 7495
13106, 7476, 7477, 7512
13107, 7506, 7479, 7473
13108, 7515, 7510, 7509
13109, 7480, 7504, 7479
13110, 7505, 7293, 7473
13111, 7293, 7488, 7506
13112, 7479, 7506, 7488
13113, 7502, 7288, 7286
13114, 7497, 7507, 7503
13115, 7478, 7513, 7509
13116, 7505, 7514, 7510
13117, 7230, 7509, 7287
13118, 1123, 7508, 7516
13119, 7292, 7550, 7555
13120, 7516, 7220, 1123
13121, 7518, 7497, 7503
13122, 7479, 7512, 7477
13123, 7500, 7512, 7504
13124, 7476, 7513, 7478
13125, 7287, 7513, 7285
13126, 7473, 7514, 7505
13127, 7509, 7514, 7478
13128, 7509, 7230, 7515
13129, 7220, 7515, 7230
13130, 7508, 7510, 7516
13131, 7220, 7516, 7510
13132, 7540, 7536, 7712
13133, 7519, 7518, 7503
13134, 7503, 7474, 7520
13135, 7531, 7226, 7526
13136, 7495, 7520, 7511
13137, 7503, 7520, 7519
13138, 7551, 7521, 7530
13139, 7530, 7521, 7526
13140, 7525, 7524, 7523
13141, 7528, 7549, 7522
13142, 7523, 7535, 7518
13143, 7551, 7539, 7542
13144, 7525, 7528, 7522
13145, 7524, 7552, 7554
13146, 7528, 7525, 7523
13147, 7550, 7292, 7489
13148, 7517, 7527, 7554
13149, 7535, 7557, 7518
13150, 7542, 7524, 7525
13151, 7518, 7557, 7497
13152, 7519, 7528, 7518
13153, 7529, 7522, 7549
13154, 7533, 7536, 7539
13155, 7526, 7521, 7531
13156, 7522, 7529, 7531
13157, 7722, 7726, 7718
13158, 7226, 7531, 7529
13159, 7715, 7714, 7534
13160, 7543, 7540, 7537
13161, 7537, 7715, 7716
13162, 7713, 7530, 7526
13163, 7556, 7523, 7524
13164, 7554, 7555, 7556
13165, 7540, 7543, 7804
13166, 7539, 7545, 7541
13167, 7712, 7533, 7713
13168, 7530, 7533, 7539
13169, 7519, 7549, 7528
13170, 7536, 7533, 7712
13171, 7539, 7536, 7545
13172, 7542, 7525, 7551
13173, 7727, 7723, 7726
13174, 7537, 7716, 7543
13175, 7541, 8234, 8235
13176, 7541, 8235, 7552
13177, 8233, 8234, 7546
13178, 7542, 7541, 7552
13179, 7526, 7226, 7713
13180, 7728, 7739, 7741
13181, 7714, 7715, 7537
13182, 7540, 7547, 7536
13183, 7536, 7547, 7546
13184, 8234, 8233, 7553
13185, 7803, 7546, 7547
13186, 8234, 7553, 8235
13187, 7802, 7800, 7797
13188, 7713, 7226, 7534
13189, 7726, 7723, 7740
13190, 7797, 7721, 7802
13191, 7557, 7489, 7497
13192, 7529, 7549, 7495
13193, 7555, 7554, 7527
13194, 7521, 7551, 7525
13195, 7539, 7551, 7530
13196, 7524, 7542, 7552
13197, 7539, 7541, 7542
13198, 7517, 7554, 7552
13199, 7545, 7536, 7546
13200, 7292, 7555, 7527
13201, 7557, 7555, 7550
13202, 7556, 7555, 7535
13203, 7523, 7556, 7535
13204, 7554, 7556, 7524
13205, 7555, 7557, 7535
13206, 7587, 7565, 7297
13207, 7566, 7561, 7597
13208, 7598, 7561, 7294
13209, 7562, 7558, 7564
13210, 7294, 7561, 7577
13211, 7558, 7562, 7563
13212, 7593, 7590, 7595
13213, 7605, 7559, 7596
13214, 7565, 7581, 7589
13215, 7575, 7592, 7582
13216, 7297, 7565, 7573
13217, 7571, 7569, 7567
13218, 7558, 7302, 7591
13219, 7562, 7561, 7563
13220, 7568, 7566, 7585
13221, 7745, 7577, 7576
13222, 7575, 7567, 7584
13223, 7571, 7572, 7569
13224, 7577, 7561, 7566
13225, 7569, 7568, 7567
13226, 7572, 7571, 7570
13227, 7578, 7568, 7569
13228, 7567, 7575, 7571
13229, 7574, 7579, 7570
13230, 7570, 7299, 7572
13231, 7570, 7571, 7574
13232, 7569, 7572, 7299
13233, 7559, 7586, 7587
13234, 7608, 7603, 7613
13235, 7583, 7574, 7571
13236, 7583, 7582, 7574
13237, 7581, 7584, 7585
13238, 7592, 7575, 7586
13239, 7566, 7576, 7577
13240, 7607, 7606, 7610
13241, 7576, 7560, 7745
13242, 7560, 7576, 7578
13243, 7578, 7576, 7568
13244, 7589, 7581, 7585
13245, 7574, 7301, 7579
13246, 7635, 7574, 7642
13247, 7589, 7597, 7564
13248, 7595, 7600, 7241
13249, 7295, 7596, 7559
13250, 7592, 7586, 7559
13251, 7571, 7575, 7583
13252, 7582, 7583, 7575
13253, 7585, 7584, 7567
13254, 7584, 7581, 7586
13255, 7568, 7585, 7567
13256, 7565, 7564, 7573
13257, 7581, 7587, 7586
13258, 7604, 7605, 7580
13259, 7561, 7562, 7597
13260, 7591, 7564, 7558
13261, 7600, 7595, 7594
13262, 7565, 7589, 7564
13263, 7590, 7302, 7558
13264, 7302, 7573, 7591
13265, 7564, 7591, 7573
13266, 7587, 7297, 7295
13267, 7582, 7592, 7588
13268, 7563, 7598, 7594
13269, 7590, 7599, 7595
13270, 7251, 7594, 7296
13271, 1286, 7593, 7601
13272, 7301, 7635, 7640
13273, 7601, 7241, 1286
13274, 7603, 7582, 7588
13275, 7564, 7597, 7562
13276, 7585, 7597, 7589
13277, 7561, 7598, 7563
13278, 7296, 7598, 7294
13279, 7558, 7599, 7590
13280, 7594, 7599, 7563
13281, 7594, 7251, 7600
13282, 7241, 7600, 7251
13283, 7593, 7595, 7601
13284, 7241, 7601, 7595
13285, 7625, 7621, 7746
13286, 7604, 7603, 7588
13287, 7588, 7559, 7605
13288, 7616, 7247, 7611
13289, 7580, 7605, 7596
13290, 7588, 7605, 7604
13291, 7636, 7606, 7615
13292, 7615, 7606, 7611
13293, 7610, 7609, 7608
13294, 7613, 7634, 7607
13295, 7608, 7620, 7603
13296, 7636, 7624, 7627
13297, 7610, 7613, 7607
13298, 7609, 7637, 7639
13299, 7613, 7610, 7608
13300, 7635, 7301, 7574
13301, 7602, 7612, 7639
13302, 7620, 7642, 7603
13303, 7627, 7609, 7610
13304, 7603, 7642, 7582
13305, 7604, 7613, 7603
13306, 7614, 7607, 7634
13307, 7618, 7621, 7624
13308, 7611, 7606, 7616
13309, 7607, 7614, 7616
13310, 7756, 7760, 7752
13311, 7247, 7616, 7614
13312, 7749, 7748, 7619
13313, 7628, 7625, 7622
13314, 7622, 7749, 7750
13315, 7747, 7615, 7611
13316, 7641, 7608, 7609
13317, 7639, 7640, 7641
13318, 7625, 7628, 7813
13319, 7624, 7630, 7626
13320, 7746, 7618, 7747
13321, 7615, 7618, 7624
13322, 7604, 7634, 7613
13323, 7621, 7618, 7746
13324, 7624, 7621, 7630
13325, 7627, 7610, 7636
13326, 7761, 7757, 7760
13327, 7622, 7750, 7628
13328, 7626, 8237, 8238
13329, 7626, 8238, 7637
13330, 8236, 8237, 7631
13331, 7627, 7626, 7637
13332, 7611, 7247, 7747
13333, 7762, 7773, 7775
13334, 7748, 7749, 7622
13335, 7625, 7632, 7621
13336, 7621, 7632, 7631
13337, 8237, 8236, 7638
13338, 7812, 7631, 7632
13339, 8237, 7638, 8238
13340, 7811, 7809, 7806
13341, 7747, 7247, 7619
13342, 7760, 7757, 7774
13343, 7806, 7755, 7811
13344, 7642, 7574, 7582
13345, 7614, 7634, 7580
13346, 7640, 7639, 7612
13347, 7606, 7636, 7610
13348, 7624, 7636, 7615
13349, 7609, 7627, 7637
13350, 7624, 7626, 7627
13351, 7602, 7639, 7637
13352, 7630, 7621, 7631
13353, 7301, 7640, 7612
13354, 7642, 7640, 7635
13355, 7641, 7640, 7620
13356, 7608, 7641, 7620
13357, 7639, 7641, 7609
13358, 7640, 7642, 7620
13359, 7305, 1290, 7643
13360, 7267, 7643, 1290
13361, 7367, 7370, 7644
13362, 7645, 7364, 7646
13363, 7360, 7645, 7363
13364, 7367, 7644, 7646
13365, 7645, 7646, 7644
13366, 7364, 7374, 7647
13367, 7647, 7374, 7648
13368, 7658, 7654, 7663
13369, 7373, 7648, 7650
13370, 7656, 7648, 7651
13371, 7648, 7374, 7651
13372, 7657, 7663, 7654
13373, 7374, 7649, 7651
13374, 7649, 7654, 7656
13375, 1644, 7822, 1417
13376, 7781, 7661, 7673
13377, 7650, 7656, 7654
13378, 7378, 7659, 7661
13379, 7663, 7657, 7362
13380, 7650, 7672, 7373
13381, 7674, 7661, 7659
13382, 7783, 7785, 7782
13383, 7648, 7656, 7650
13384, 7649, 7656, 7651
13385, 7659, 7658, 7652
13386, 7654, 7649, 7657
13387, 7378, 7779, 7655
13388, 7652, 7663, 7666
13389, 7655, 7659, 7378
13390, 7660, 7669, 7671
13391, 7674, 7659, 7652
13392, 8239, 8248, 8342
13393, 7780, 7653, 7779
13394, 7661, 7660, 7673
13395, 7667, 7666, 8243
13396, 7658, 7663, 7652
13397, 8244, 8243, 7665
13398, 7666, 7667, 7674
13399, 8262, 8254, 8259
13400, 8265, 7663, 7362
13401, 7663, 8265, 7666
13402, 7667, 8243, 8266
13403, 7660, 7661, 7674
13404, 8269, 8242, 8245
13405, 7662, 7781, 7676
13406, 8243, 7666, 8265
13407, 7668, 7817, 7669
13408, 1638, 7787, 1413
13409, 1487, 7821, 1551
13410, 8537, 8538, 8544
13411, 8358, 8360, 8354
13412, 7658, 7672, 7650
13413, 7786, 7655, 7782
13414, 7780, 7781, 7662
13415, 7666, 7674, 7652
13416, 7660, 7674, 7667
13417, 7671, 8341, 7673
13418, 7669, 7817, 7671
13419, 7390, 1289, 7677
13420, 7673, 7368, 7676
13421, 7276, 7677, 1289
13422, 7452, 7455, 7678
13423, 7679, 7449, 7680
13424, 7445, 7679, 7448
13425, 7452, 7678, 7680
13426, 7679, 7680, 7678
13427, 7449, 7459, 7681
13428, 7681, 7459, 7682
13429, 7692, 7688, 7697
13430, 7458, 7682, 7684
13431, 7690, 7682, 7685
13432, 7682, 7459, 7685
13433, 7691, 7697, 7688
13434, 7459, 7683, 7685
13435, 7683, 7688, 7690
13436, 1486, 7787, 1550
13437, 7790, 7695, 7707
13438, 7684, 7690, 7688
13439, 7463, 7693, 7695
13440, 7697, 7691, 7447
13441, 7684, 7706, 7458
13442, 7708, 7695, 7693
13443, 7792, 7794, 7791
13444, 7682, 7690, 7684
13445, 7683, 7690, 7685
13446, 7693, 7692, 7686
13447, 7688, 7683, 7691
13448, 7463, 7788, 7689
13449, 7686, 7697, 7700
13450, 7689, 7693, 7463
13451, 7694, 7703, 7705
13452, 7708, 7693, 7686
13453, 8344, 8353, 8526
13454, 7789, 7687, 7788
13455, 7695, 7694, 7707
13456, 7701, 7700, 8348
13457, 7692, 7697, 7686
13458, 8349, 8348, 7699
13459, 7700, 7701, 7708
13460, 8367, 8359, 8364
13461, 8370, 7697, 7447
13462, 7697, 8370, 7700
13463, 7701, 8348, 8371
13464, 7694, 7695, 7708
13465, 8374, 8347, 8350
13466, 7696, 7790, 7710
13467, 8348, 7700, 8370
13468, 7702, 7805, 7703
13469, 8899, 7770, 8719
13470, 8900, 8898, 7796
13471, 8728, 8729, 8735
13472, 8542, 8544, 8538
13473, 7692, 7706, 7684
13474, 7795, 7689, 7791
13475, 7789, 7790, 7696
13476, 7700, 7708, 7686
13477, 7694, 7708, 7701
13478, 7705, 8525, 7707
13479, 7703, 7805, 7705
13480, 7475, 1291, 7711
13481, 7707, 7453, 7710
13482, 7285, 7711, 1291
13483, 7537, 7540, 7712
13484, 7713, 7534, 7714
13485, 7530, 7713, 7533
13486, 7537, 7712, 7714
13487, 7713, 7714, 7712
13488, 7534, 7544, 7715
13489, 7715, 7544, 7716
13490, 7726, 7722, 7731
13491, 7543, 7716, 7718
13492, 7724, 7716, 7719
13493, 7716, 7544, 7719
13494, 7725, 7731, 7722
13495, 7544, 7717, 7719
13496, 7717, 7722, 7724
13497, 8718, 8716, 7816
13498, 7799, 7729, 7741
13499, 7718, 7724, 7722
13500, 7548, 7727, 7729
13501, 7731, 7725, 7532
13502, 7718, 7740, 7543
13503, 7742, 7729, 7727
13504, 7801, 7803, 7800
13505, 7716, 7724, 7718
13506, 7717, 7724, 7719
13507, 7727, 7726, 7720
13508, 7722, 7717, 7725
13509, 7548, 7797, 7723
13510, 7720, 7731, 7734
13511, 7723, 7727, 7548
13512, 7728, 7737, 7739
13513, 7742, 7727, 7720
13514, 8528, 8537, 8717
13515, 7798, 7721, 7797
13516, 7729, 7728, 7741
13517, 7735, 7734, 8532
13518, 7726, 7731, 7720
13519, 8533, 8532, 7733
13520, 7734, 7735, 7742
13521, 8551, 8543, 8548
13522, 8554, 7731, 7532
13523, 7731, 8554, 7734
13524, 7735, 8532, 8555
13525, 7728, 7729, 7742
13526, 8558, 8531, 8534
13527, 7730, 7799, 7744
13528, 8532, 7734, 8554
13529, 7736, 7816, 7737
13530, 8343, 8341, 7817
13531, 8526, 7702, 8344
13532, 7453, 7707, 8525
13533, 8733, 8735, 8729
13534, 7726, 7740, 7718
13535, 7804, 7723, 7800
13536, 7798, 7799, 7730
13537, 7734, 7742, 7720
13538, 7728, 7742, 7735
13539, 7739, 8716, 7741
13540, 7737, 7816, 7739
13541, 7560, 1292, 7745
13542, 7741, 7538, 7744
13543, 7294, 7745, 1292
13544, 7622, 7625, 7746
13545, 7747, 7619, 7748
13546, 7615, 7747, 7618
13547, 7622, 7746, 7748
13548, 7747, 7748, 7746
13549, 7619, 7629, 7749
13550, 7749, 7629, 7750
13551, 7760, 7756, 7765
13552, 7628, 7750, 7752
13553, 7758, 7750, 7753
13554, 7750, 7629, 7753
13555, 7759, 7765, 7756
13556, 7629, 7751, 7753
13557, 7751, 7756, 7758
13558, 8342, 7668, 8239
13559, 7808, 7763, 7775
13560, 7752, 7758, 7756
13561, 7633, 7761, 7763
13562, 7765, 7759, 7617
13563, 7752, 7774, 7628
13564, 7776, 7763, 7761
13565, 7810, 7812, 7809
13566, 7750, 7758, 7752
13567, 7751, 7758, 7753
13568, 7761, 7760, 7754
13569, 7756, 7751, 7759
13570, 7633, 7806, 7757
13571, 7754, 7765, 7768
13572, 7757, 7761, 7633
13573, 7762, 7771, 7773
13574, 7776, 7761, 7754
13575, 8719, 8728, 8899
13576, 7807, 7755, 7806
13577, 7763, 7762, 7775
13578, 7769, 7768, 8723
13579, 7760, 7765, 7754
13580, 8724, 8723, 7767
13581, 7768, 7769, 7776
13582, 8742, 8734, 8739
13583, 8745, 7765, 7617
13584, 7765, 8745, 7768
13585, 7769, 8723, 8746
13586, 7762, 7763, 7776
13587, 8749, 8722, 8725
13588, 7764, 7808, 7778
13589, 8723, 7768, 8745
13590, 7770, 7796, 7771
13591, 7736, 8529, 8528
13592, 7538, 7741, 8716
13593, 7668, 8240, 8239
13594, 7368, 7673, 8341
13595, 7760, 7774, 7752
13596, 7813, 7757, 7809
13597, 7807, 7808, 7764
13598, 7768, 7776, 7754
13599, 7762, 7776, 7769
13600, 7773, 8898, 7775
13601, 7771, 7796, 7773
13602, 7780, 7779, 7378
13603, 7775, 7623, 7778
13604, 8228, 7371, 7375
13605, 7781, 7780, 7378
13606, 7653, 7780, 7662
13607, 7661, 7781, 7378
13608, 7781, 7673, 7676
13609, 7655, 7779, 7782
13610, 7786, 7672, 7655
13611, 7653, 7783, 7784
13612, 7785, 7377, 7786
13613, 7783, 7782, 7784
13614, 7273, 7785, 7783
13615, 7377, 7370, 7786
13616, 7672, 7786, 7373
13617, 7782, 7785, 7786
13618, 1641, 7821, 1415
13619, 7671, 7817, 8341
13620, 7789, 7788, 7463
13621, 8231, 7456, 7460
13622, 7790, 7789, 7463
13623, 7687, 7789, 7696
13624, 7695, 7790, 7463
13625, 7790, 7707, 7710
13626, 7689, 7788, 7791
13627, 7795, 7706, 7689
13628, 7687, 7792, 7793
13629, 7794, 7462, 7795
13630, 7792, 7791, 7793
13631, 7282, 7794, 7792
13632, 7462, 7455, 7795
13633, 7706, 7795, 7458
13634, 7791, 7794, 7795
13635, 7855, 7862, 7854
13636, 7705, 7805, 8525
13637, 7798, 7797, 7548
13638, 8234, 7541, 7545
13639, 7799, 7798, 7548
13640, 7721, 7798, 7730
13641, 7729, 7799, 7548
13642, 7799, 7741, 7744
13643, 7723, 7797, 7800
13644, 7804, 7740, 7723
13645, 7721, 7801, 7802
13646, 7803, 7547, 7804
13647, 7801, 7800, 7802
13648, 7291, 7803, 7801
13649, 7547, 7540, 7804
13650, 7740, 7804, 7543
13651, 7800, 7803, 7804
13652, 8527, 8525, 7805
13653, 7739, 7816, 8716
13654, 7807, 7806, 7633
13655, 8237, 7626, 7630
13656, 7808, 7807, 7633
13657, 7755, 7807, 7764
13658, 7763, 7808, 7633
13659, 7808, 7775, 7778
13660, 7757, 7806, 7809
13661, 7813, 7774, 7757
13662, 7755, 7810, 7811
13663, 7812, 7632, 7813
13664, 7810, 7809, 7811
13665, 7300, 7812, 7810
13666, 7632, 7625, 7813
13667, 7774, 7813, 7628
13668, 7809, 7812, 7813
13669, 7770, 8720, 8719
13670, 7773, 7796, 8898
13671, 8355, 8345, 7670
13672, 1488, 7822, 1552
13673, 8539, 8529, 7704
13674, 7864, 7865, 7866
13675, 8730, 8720, 7738
13676, 8717, 7736, 8528
13677, 7702, 8345, 8344
13678, 7623, 7775, 8898
13679, 8353, 8354, 8360
13680, 8253, 8255, 8249
13681, 8250, 8240, 7820
13682, 8248, 8249, 8255
13683, 1489, 7823, 1553
13684, 1647, 7823, 1419
13685, 2697, 2267, 7824
13686, 1985, 7825, 1938
13687, 2697, 7825, 1499
13688, 319, 1985, 7826
13689, 1938, 7826, 1985
13690, 2698, 2271, 7827
13691, 1992, 7828, 1941
13692, 2698, 7828, 1503
13693, 160, 1992, 7829
13694, 1941, 7829, 1992
13695, 2699, 2275, 7830
13696, 1999, 7831, 1944
13697, 2699, 7831, 1507
13698, 478, 1999, 7832
13699, 1944, 7832, 1999
13700, 2700, 2279, 7833
13701, 2006, 7834, 1947
13702, 2700, 7834, 1511
13703, 1, 2006, 7835
13704, 1947, 7835, 2006
13705, 1345, 7836, 963
13706, 7838, 7837, 2487
13707, 2134, 7836, 7837
13708, 3635, 7838, 2487
13709, 2134, 7838, 2131
13710, 1346, 7839, 800
13711, 7841, 7840, 2525
13712, 2143, 7839, 7840
13713, 3653, 7841, 2525
13714, 2143, 7841, 2140
13715, 1347, 7842, 1126
13716, 7844, 7843, 2563
13717, 2152, 7842, 7843
13718, 3671, 7844, 2563
13719, 2152, 7844, 2149
13720, 1348, 7845, 637
13721, 7847, 7846, 2601
13722, 2161, 7845, 7846
13723, 3689, 7847, 2601
13724, 2161, 7847, 2158
13725, 7852, 7850, 7851
13726, 7864, 7866, 7815
13727, 2186, 7849, 2190
13728, 7876, 7849, 7848
13729, 7853, 7850, 735
13730, 7850, 7853, 7856
13731, 7849, 7851, 7848
13732, 7852, 7851, 2186
13733, 2187, 7852, 2186
13734, 735, 7852, 2188
13735, 735, 736, 7853
13736, 7854, 7853, 736
13737, 7855, 7854, 736
13738, 7854, 7815, 7856
13739, 736, 737, 7855
13740, 7855, 737, 7858
13741, 7874, 7815, 7866
13742, 7874, 7851, 7850
13743, 7858, 737, 7859
13744, 7861, 100, 7864
13745, 7859, 737, 738
13746, 7860, 7858, 7857
13747, 7859, 7877, 7870
13748, 7858, 7859, 7870
13749, 7860, 7857, 7861
13750, 7815, 7854, 7862
13751, 7867, 7861, 7857
13752, 7873, 100, 7861
13753, 7858, 7862, 7855
13754, 7815, 7862, 7860
13755, 7877, 738, 7878
13756, 7867, 7871, 7875
13757, 7866, 7865, 99
13758, 7860, 7864, 7815
13759, 99, 7848, 7866
13760, 7864, 100, 7865
13761, 7874, 7866, 7848
13762, 7857, 7868, 7867
13763, 7875, 101, 7867
13764, 7870, 7868, 7857
13765, 7871, 7868, 7863
13766, 7871, 7867, 7868
13767, 7869, 7875, 7890
13768, 7858, 7870, 7857
13769, 7859, 738, 7877
13770, 7872, 7871, 7863
13771, 7890, 7872, 102
13772, 7878, 7880, 7863
13773, 103, 102, 7881
13774, 7851, 7874, 7848
13775, 7867, 7873, 7861
13776, 7815, 7874, 7856
13777, 101, 7875, 7869
13778, 7878, 738, 739
13779, 7848, 99, 7876
13780, 7868, 7877, 7863
13781, 7878, 739, 7880
13782, 7863, 7877, 7878
13783, 7889, 7955, 7887
13784, 7892, 740, 7891
13785, 7955, 7880, 739
13786, 7863, 7880, 7879
13787, 102, 7872, 7881
13788, 7882, 7872, 7888
13789, 7887, 7884, 7886
13790, 103, 7881, 7883
13791, 7886, 7883, 7882
13792, 103, 7883, 7885
13793, 7891, 741, 7894
13794, 7884, 7887, 7893
13795, 7886, 7885, 7883
13796, 7911, 7885, 7884
13797, 7882, 7888, 7889
13798, 7885, 7886, 7884
13799, 7889, 7886, 7882
13800, 7879, 7880, 7955
13801, 7863, 7888, 7872
13802, 7889, 7888, 7879
13803, 7955, 7889, 7879
13804, 7886, 7889, 7887
13805, 7869, 7890, 102
13806, 7871, 7890, 7875
13807, 7907, 7898, 7895
13808, 7892, 7893, 7887
13809, 7955, 7892, 7887
13810, 7894, 7892, 7891
13811, 7895, 7894, 741
13812, 7956, 742, 7957
13813, 7892, 7894, 7893
13814, 7904, 7908, 7901
13815, 7897, 7884, 7893
13816, 7904, 7907, 7908
13817, 7902, 7899, 7900
13818, 7893, 7894, 7898
13819, 7899, 7897, 7896
13820, 7893, 7898, 7897
13821, 7894, 7895, 7898
13822, 7900, 7899, 7896
13823, 104, 7885, 7911
13824, 7904, 7903, 7900
13825, 7899, 7902, 104
13826, 7908, 7895, 7957
13827, 7912, 7901, 7914
13828, 7904, 7900, 7896
13829, 7900, 105, 7902
13830, 7903, 7901, 7905
13831, 7896, 7898, 7907
13832, 7901, 7903, 7904
13833, 7921, 7913, 7922
13834, 7912, 7913, 7917
13835, 7907, 7895, 7908
13836, 7905, 7906, 7903
13837, 7896, 7907, 7904
13838, 7915, 7918, 743
13839, 7908, 7915, 7914
13840, 7931, 7915, 743
13841, 7940, 7923, 7930
13842, 7912, 7909, 7913
13843, 7905, 7901, 7912
13844, 7897, 7911, 7884
13845, 104, 7911, 7899
13846, 7914, 7901, 7908
13847, 107, 7910, 7913
13848, 7913, 7910, 7917
13849, 7908, 7918, 7915
13850, 7912, 7914, 7920
13851, 7932, 7919, 7931
13852, 7912, 7920, 7909
13853, 7909, 7923, 7922
13854, 108, 7926, 7927
13855, 106, 7917, 7910
13856, 7912, 7917, 7905
13857, 7957, 7918, 7908
13858, 743, 7918, 742
13859, 7930, 7923, 7919
13860, 7920, 7915, 7931
13861, 7914, 7915, 7920
13862, 7931, 7929, 7920
13863, 7922, 7913, 7909
13864, 7924, 7921, 7916
13865, 7920, 7929, 7909
13866, 7916, 7921, 7922
13867, 7930, 7919, 744
13868, 7916, 7922, 7923
13869, 7926, 7924, 7944
13870, 107, 7924, 108
13871, 7940, 7930, 7935
13872, 7941, 7943, 7946
13873, 7944, 7924, 7916
13874, 7927, 7926, 7925
13875, 7928, 7927, 7925
13876, 108, 7927, 109
13877, 7934, 7938, 7935
13878, 7943, 7934, 7946
13879, 7919, 7923, 7929
13880, 7909, 7929, 7923
13881, 744, 7933, 7930
13882, 7933, 7935, 7930
13883, 7919, 7932, 744
13884, 7929, 7931, 7919
13885, 744, 745, 7933
13886, 7931, 743, 7932
13887, 7936, 7935, 7933
13888, 7936, 745, 7937
13889, 7938, 7953, 7925
13890, 7936, 7933, 745
13891, 7953, 7938, 7934
13892, 7937, 745, 746
13893, 7934, 7935, 7936
13894, 7937, 746, 7941
13895, 7936, 7937, 7946
13896, 7944, 7925, 7926
13897, 7940, 7916, 7923
13898, 7942, 7941, 746
13899, 7959, 7963, 7958
13900, 7935, 7938, 7940
13901, 7940, 7938, 7944
13902, 7942, 746, 747
13903, 7941, 7939, 7943
13904, 7942, 7958, 7952
13905, 7941, 7942, 7952
13906, 7939, 7947, 7943
13907, 7953, 7928, 7925
13908, 7940, 7944, 7916
13909, 7925, 7944, 7938
13910, 7962, 7961, 748
13911, 7966, 7969, 7948
13912, 7936, 7946, 7934
13913, 7941, 7946, 7937
13914, 7948, 7949, 7950
13915, 7953, 7947, 7928
13916, 7966, 7967, 7965
13917, 7948, 7951, 7949
13918, 7950, 7949, 7939
13919, 7969, 7951, 7948
13920, 7952, 7950, 7939
13921, 7950, 7945, 7967
13922, 7954, 7951, 110
13923, 7947, 7951, 7928
13924, 7941, 7952, 7939
13925, 7942, 747, 7958
13926, 7934, 7943, 7953
13927, 7953, 7943, 7947
13928, 110, 109, 7954
13929, 7928, 7954, 109
13930, 739, 740, 7955
13931, 7892, 7955, 740
13932, 7956, 7957, 7895
13933, 7895, 741, 7956
13934, 7918, 7957, 742
13935, 7959, 7958, 747
13936, 7950, 7958, 7945
13937, 747, 748, 7959
13938, 7959, 748, 7961
13939, 7972, 7973, 7980
13940, 7967, 7966, 7948
13941, 7962, 748, 749
13942, 7963, 7961, 7960
13943, 7971, 7974, 7978
13944, 7960, 7961, 7962
13945, 7960, 7974, 7976
13946, 7963, 7945, 7958
13947, 7970, 7972, 112
13948, 7972, 7968, 7964
13949, 7976, 7963, 7960
13950, 7965, 7964, 7966
13951, 7964, 7968, 7966
13952, 7966, 7968, 7969
13953, 7950, 7967, 7948
13954, 7965, 7967, 7945
13955, 7970, 7968, 7972
13956, 7969, 7968, 111
13957, 111, 110, 7969
13958, 7951, 7969, 110
13959, 7964, 7976, 7973
13960, 111, 7968, 7970
13961, 7962, 7983, 7960
13962, 7981, 7962, 749
13963, 7980, 7975, 112
13964, 7964, 7965, 7976
13965, 7975, 7980, 7984
13966, 7977, 7983, 7981
13967, 7971, 7973, 7974
13968, 7986, 7980, 7973
13969, 7980, 112, 7972
13970, 7976, 7965, 7963
13971, 7973, 7976, 7974
13972, 7982, 7981, 749
13973, 7989, 750, 7990
13974, 7983, 7974, 7960
13975, 7979, 7978, 7977
13976, 7989, 7988, 7982
13977, 7995, 7987, 7992
13978, 7979, 7984, 7986
13979, 7982, 749, 750
13980, 7983, 7977, 7978
13981, 7982, 750, 7989
13982, 7977, 7981, 7982
13983, 7981, 7983, 7962
13984, 7974, 7983, 7978
13985, 7996, 7995, 7984
13986, 7975, 7984, 113
13987, 8003, 8008, 8001
13988, 7998, 7992, 7987
13989, 7979, 7986, 7971
13990, 7984, 7980, 7986
13991, 7987, 7996, 7997
13992, 8014, 7998, 7987
13993, 7982, 7988, 7977
13994, 7997, 7988, 7985
13995, 7990, 750, 751
13996, 7988, 7989, 7985
13997, 8031, 8032, 8030
13998, 7985, 7989, 7990
13999, 7992, 114, 7991
14000, 7984, 7995, 113
14001, 7998, 7994, 7992
14002, 7991, 7995, 7992
14003, 7998, 7999, 7993
14004, 8007, 115, 8000
14005, 7993, 8000, 7994
14006, 115, 114, 7994
14007, 7996, 7984, 7979
14008, 7997, 7996, 7979
14009, 7987, 7995, 7996
14010, 7988, 7997, 7979
14011, 7999, 8014, 7985
14012, 7987, 7997, 8014
14013, 7993, 7994, 7998
14014, 7990, 8015, 7985
14015, 8030, 8029, 8015
14016, 8002, 8007, 8004
14017, 115, 7994, 8000
14018, 8007, 8001, 8004
14019, 8006, 8020, 8022
14020, 8003, 8000, 7993
14021, 8004, 116, 8002
14022, 7999, 8010, 7993
14023, 8046, 8026, 753
14024, 8021, 8022, 8009
14025, 8008, 8010, 8029
14026, 7999, 7985, 8015
14027, 8001, 8008, 8012
14028, 8052, 8053, 8034
14029, 115, 8007, 8002
14030, 8000, 8003, 8007
14031, 8010, 8008, 8003
14032, 8005, 8011, 8012
14033, 8016, 117, 8009
14034, 8021, 116, 8004
14035, 7993, 8010, 8003
14036, 7999, 8015, 8029
14037, 8032, 752, 8033
14038, 8020, 8006, 8053
14039, 8005, 8012, 8008
14040, 8012, 8023, 8013
14041, 8001, 8012, 8013
14042, 8012, 8011, 8023
14043, 7985, 8014, 7997
14044, 7998, 8014, 7999
14045, 8030, 7990, 751
14046, 8029, 8005, 8008
14047, 8050, 8052, 8034
14048, 117, 8016, 8018
14049, 8049, 8056, 8057
14050, 8062, 8064, 8060
14051, 8016, 8020, 8036
14052, 8018, 8036, 8027
14053, 8023, 8024, 8006
14054, 8052, 8035, 8019
14055, 8053, 8006, 8024
14056, 8020, 8019, 8036
14057, 116, 8021, 8009
14058, 8009, 8022, 8016
14059, 8013, 8022, 8021
14060, 8024, 8023, 8011
14061, 8022, 8023, 8006
14062, 8028, 8024, 8011
14063, 8048, 8046, 8047
14064, 8017, 8069, 8040
14065, 119, 118, 8038
14066, 8033, 8011, 8005
14067, 8051, 753, 8026
14068, 8016, 8036, 8018
14069, 8038, 8027, 8025
14070, 8033, 8028, 8011
14071, 8046, 8028, 8026
14072, 7999, 8029, 8010
14073, 8015, 7990, 8030
14074, 8032, 8005, 8029
14075, 8029, 8030, 8032
14076, 8031, 752, 8032
14077, 8030, 751, 8031
14078, 752, 8051, 8033
14079, 8033, 8026, 8028
14080, 8005, 8032, 8033
14081, 8024, 8028, 8046
14082, 8048, 8049, 8050
14083, 8040, 8035, 8017
14084, 8036, 8025, 8027
14085, 8019, 8035, 8036
14086, 8036, 8035, 8025
14087, 8040, 8042, 8039
14088, 757, 8063, 8061
14089, 8027, 8038, 118
14090, 8039, 8038, 8025
14091, 8040, 8039, 8025
14092, 8042, 8045, 8039
14093, 8035, 8040, 8025
14094, 8042, 8040, 8069
14095, 8048, 8050, 8034
14096, 8057, 755, 8058
14097, 8062, 8042, 8041
14098, 8045, 8042, 8037
14099, 8043, 8045, 8070
14100, 8055, 119, 8043
14101, 8039, 8044, 8038
14102, 8043, 119, 8044
14103, 8070, 8045, 8037
14104, 8044, 8045, 8043
14105, 8048, 8047, 754
14106, 8034, 8024, 8046
14107, 8048, 754, 8049
14108, 8046, 753, 8047
14109, 8046, 8048, 8034
14110, 8057, 8056, 755
14111, 8049, 8057, 8069
14112, 8069, 8050, 8049
14113, 8052, 8050, 8017
14114, 8035, 8052, 8017
14115, 8033, 8051, 8026
14116, 8053, 8052, 8019
14117, 8020, 8053, 8019
14118, 8024, 8034, 8053
14119, 8059, 8062, 8060
14120, 8076, 8077, 8074
14121, 8058, 755, 756
14122, 8075, 8055, 8043
14123, 8049, 754, 8056
14124, 8069, 8057, 8041
14125, 8058, 756, 8060
14126, 8057, 8058, 8064
14127, 8060, 756, 8061
14128, 8071, 8054, 8070
14129, 8061, 756, 757
14130, 8071, 8062, 8059
14131, 757, 7047, 8063
14132, 8060, 8061, 8066
14133, 8042, 8062, 8037
14134, 8064, 8062, 8041
14135, 8067, 8063, 7053
14136, 8060, 8066, 8059
14137, 8057, 8064, 8041
14138, 8060, 8064, 8058
14139, 7053, 7045, 8068
14140, 8054, 8071, 8073
14141, 8061, 8063, 8066
14142, 8066, 8063, 8067
14143, 8068, 8067, 7053
14144, 8066, 8067, 8065
14145, 7045, 7044, 8068
14146, 8076, 8068, 7044
14147, 8042, 8069, 8041
14148, 8050, 8069, 8017
14149, 8071, 8070, 8037
14150, 8072, 8070, 8054
14151, 8062, 8071, 8037
14152, 8071, 8059, 8073
14153, 8074, 8072, 8054
14154, 120, 8055, 8075
14155, 8066, 8073, 8059
14156, 8054, 8073, 8065
14157, 8054, 8065, 8076
14158, 8072, 8079, 120
14159, 8070, 8075, 8043
14160, 120, 8075, 8072
14161, 8068, 8076, 8065
14162, 8077, 8076, 7044
14163, 8080, 7051, 7052
14164, 121, 8074, 8077
14165, 122, 8080, 7052
14166, 121, 8077, 8078
14167, 8078, 8077, 8080
14168, 8074, 121, 8079
14169, 8083, 8081, 61
14170, 8081, 8085, 8116
14171, 3626, 8082, 2884
14172, 61, 8081, 8082
14173, 61, 60, 8083
14174, 8083, 60, 8086
14175, 8087, 8084, 8086
14176, 8087, 59, 8091
14177, 8084, 3630, 8085
14178, 8116, 8085, 3630
14179, 8087, 8086, 60
14180, 8085, 8086, 8084
14181, 60, 59, 8087
14182, 8091, 8089, 8087
14183, 8092, 8091, 59
14184, 8096, 8095, 58
14185, 8098, 8090, 8089
14186, 8089, 8090, 8097
14187, 3630, 8090, 3632
14188, 8089, 8088, 8098
14189, 8092, 59, 58
14190, 8088, 8089, 8091
14191, 8095, 8092, 58
14192, 8088, 8091, 8094
14193, 8093, 8115, 8105
14194, 8088, 8102, 8099
14195, 8091, 8092, 8094
14196, 8094, 8092, 8095
14197, 8096, 58, 57
14198, 8094, 8095, 8093
14199, 8096, 57, 8107
14200, 8093, 8095, 8096
14201, 3630, 8084, 8097
14202, 8089, 8097, 8084
14203, 8099, 8098, 8088
14204, 8098, 8099, 8100
14205, 8102, 8088, 8093
14206, 8106, 8099, 8102
14207, 694, 695, 8100
14208, 695, 8090, 8100
14209, 8107, 8110, 8113
14210, 8117, 8111, 8112
14211, 8115, 8107, 8114
14212, 694, 8099, 8104
14213, 8904, 8108, 8103
14214, 8106, 8102, 8105
14215, 8104, 8099, 8106
14216, 8103, 8108, 8105
14217, 8115, 8093, 8096
14218, 8105, 8108, 8106
14219, 693, 8104, 8106
14220, 8110, 8107, 57
14221, 8114, 8107, 8101
14222, 8101, 8904, 8114
14223, 8109, 693, 8108
14224, 57, 56, 8110
14225, 8109, 8108, 8904
14226, 8110, 56, 8112
14227, 8117, 8120, 8111
14228, 8126, 8902, 8901
14229, 8117, 8112, 56
14230, 8111, 8136, 8113
14231, 8107, 8113, 8101
14232, 8110, 8112, 8113
14233, 8904, 8101, 8903
14234, 8115, 8103, 8105
14235, 8107, 8115, 8096
14236, 8115, 8114, 8103
14237, 3631, 8116, 3630
14238, 8081, 8116, 2881
14239, 56, 55, 8117
14240, 8119, 8120, 8121
14241, 8122, 8121, 55
14242, 8127, 8123, 8125
14243, 8121, 8117, 55
14244, 8137, 8138, 8126
14245, 8121, 8120, 8117
14246, 8120, 8119, 8137
14247, 8122, 55, 54
14248, 8119, 8121, 8124
14249, 8125, 8122, 54
14250, 8124, 8118, 8139
14251, 8127, 8130, 8123
14252, 8149, 8140, 8118
14253, 8121, 8122, 8124
14254, 8124, 8122, 8125
14255, 8127, 8125, 54
14256, 8124, 8125, 8123
14257, 8113, 8136, 8101
14258, 8111, 8137, 8136
14259, 54, 53, 8127
14260, 8129, 8130, 8131
14261, 8132, 8131, 53
14262, 8133, 8134, 8128
14263, 8131, 8127, 53
14264, 689, 8145, 8148
14265, 8131, 8130, 8127
14266, 8130, 8129, 8156
14267, 8132, 53, 52
14268, 8129, 8131, 8133
14269, 8135, 8132, 52
14270, 8133, 8128, 8157
14271, 8131, 8132, 8133
14272, 8133, 8132, 8135
14273, 8134, 8135, 8151
14274, 8151, 8153, 8134
14275, 8151, 8135, 52
14276, 8133, 8135, 8134
14277, 8111, 8120, 8137
14278, 8903, 8136, 8126
14279, 8137, 8139, 8138
14280, 8126, 8136, 8137
14281, 8139, 8140, 8138
14282, 8126, 8138, 8142
14283, 8124, 8139, 8119
14284, 8140, 8139, 8118
14285, 8150, 8144, 8149
14286, 689, 690, 8145
14287, 8141, 691, 8142
14288, 8142, 8138, 8143
14289, 8143, 8138, 8140
14290, 690, 8143, 8140
14291, 8141, 8142, 8143
14292, 8156, 8123, 8130
14293, 8157, 8156, 8129
14294, 690, 8140, 8145
14295, 8146, 8145, 8140
14296, 8149, 8146, 8140
14297, 8144, 8147, 8148
14298, 8156, 8147, 8144
14299, 688, 8159, 8169
14300, 8146, 8148, 8145
14301, 8169, 8159, 8147
14302, 8150, 8149, 8118
14303, 8146, 8149, 8144
14304, 8124, 8150, 8118
14305, 8123, 8144, 8150
14306, 52, 51, 8151
14307, 8152, 8151, 51
14308, 8152, 51, 7265
14309, 8152, 7261, 8153
14310, 7264, 8155, 7261
14311, 8134, 8153, 8161
14312, 8155, 7171, 8168
14313, 687, 688, 8162
14314, 8167, 8168, 7171
14315, 7261, 8155, 8154
14316, 8156, 8144, 8123
14317, 8129, 8133, 8157
14318, 8128, 8164, 8157
14319, 8147, 8156, 8157
14320, 8160, 8163, 8164
14321, 8168, 8154, 8155
14322, 8148, 8159, 689
14323, 8169, 8157, 8158
14324, 8166, 8162, 8163
14325, 8154, 8161, 8153
14326, 8128, 8161, 8160
14327, 688, 8158, 8162
14328, 8163, 8162, 8158
14329, 8164, 8163, 8158
14330, 8154, 8163, 8160
14331, 8157, 8164, 8158
14332, 8128, 8160, 8164
14333, 8167, 686, 8165
14334, 687, 8162, 8166
14335, 8154, 8166, 8163
14336, 8165, 687, 8168
14337, 7172, 8167, 7171
14338, 8154, 8168, 8166
14339, 8167, 8165, 8168
14340, 8157, 8169, 8147
14341, 688, 8169, 8158
14342, 264, 263, 8170
14343, 8170, 263, 3733
14344, 8172, 3724, 4352
14345, 4013, 4363, 8176
14346, 4352, 4013, 8172
14347, 8176, 265, 8173
14348, 8174, 8173, 264
14349, 8172, 4013, 8176
14350, 3273, 8174, 8170
14351, 8173, 8174, 8171
14352, 8175, 3725, 3724
14353, 8175, 8171, 8174
14354, 8173, 8171, 8176
14355, 350, 349, 8177
14356, 8178, 8177, 349
14357, 5210, 8178, 349
14358, 8178, 5207, 5739
14359, 191, 190, 8179
14360, 8180, 8179, 190
14361, 5237, 8180, 190
14362, 8180, 5234, 5828
14363, 509, 508, 8181
14364, 8182, 8181, 508
14365, 5264, 8182, 508
14366, 8182, 5261, 5921
14367, 32, 31, 8183
14368, 8184, 8183, 31
14369, 5291, 8184, 31
14370, 8184, 5288, 6021
14371, 1242, 1243, 8185
14372, 8185, 1243, 8188
14373, 8189, 8186, 8188
14374, 8189, 1244, 8194
14375, 6662, 6162, 8187
14376, 8185, 8187, 6162
14377, 8189, 8188, 1243
14378, 8187, 8188, 8186
14379, 1243, 1244, 8189
14380, 8194, 8191, 8189
14381, 8195, 8194, 1244
14382, 8197, 8199, 8205
14383, 8196, 8192, 8191
14384, 8191, 8192, 8193
14385, 8196, 8191, 8190
14386, 6663, 6786, 8192
14387, 8187, 8193, 6512
14388, 8191, 8193, 8186
14389, 8195, 1244, 1245
14390, 8190, 8191, 8194
14391, 8195, 1245, 8211
14392, 8190, 8194, 8210
14393, 8199, 8196, 8190
14394, 8198, 6663, 8196
14395, 8206, 8205, 8199
14396, 598, 8213, 8216
14397, 8204, 8201, 8203
14398, 6787, 8200, 596
14399, 8206, 8210, 8211
14400, 8199, 8197, 8203
14401, 6663, 8200, 6787
14402, 8201, 8200, 8198
14403, 8203, 8201, 8198
14404, 596, 8201, 597
14405, 8202, 8212, 8209
14406, 6981, 8214, 8220
14407, 8199, 8203, 8198
14408, 8203, 8197, 8204
14409, 8219, 8215, 8204
14410, 8213, 597, 8204
14411, 8206, 8199, 8190
14412, 8209, 8208, 8202
14413, 8206, 8190, 8210
14414, 8202, 8205, 8206
14415, 6981, 6973, 8214
14416, 8205, 8208, 8197
14417, 8212, 8202, 8211
14418, 8208, 8207, 8219
14419, 8218, 1246, 6975
14420, 8207, 8208, 8209
14421, 8194, 8195, 8210
14422, 8210, 8195, 8211
14423, 8211, 1245, 8212
14424, 8206, 8211, 8202
14425, 1245, 1246, 8212
14426, 1246, 8209, 8212
14427, 6973, 6972, 8214
14428, 8216, 8204, 8215
14429, 8204, 8197, 8219
14430, 6972, 8217, 8214
14431, 8217, 598, 8216
14432, 8204, 8216, 8213
14433, 8217, 8216, 8215
14434, 8214, 8217, 8215
14435, 8217, 6972, 8999
14436, 6981, 8218, 6975
14437, 8209, 1246, 8218
14438, 8208, 8219, 8197
14439, 8207, 8215, 8219
14440, 8207, 8209, 8220
14441, 8218, 8220, 8209
14442, 7101, 8221, 438
14443, 8222, 8221, 7098
14444, 7098, 7119, 8223
14445, 8225, 8226, 6900
14446, 7118, 8223, 7107
14447, 7098, 8223, 8222
14448, 8225, 440, 8224
14449, 439, 8226, 8224
14450, 6907, 8225, 6900
14451, 440, 8225, 6908
14452, 8221, 8226, 439
14453, 7376, 7273, 8227
14454, 7375, 7376, 8228
14455, 7383, 7347, 8229
14456, 7382, 8229, 7347
14457, 7461, 7282, 8230
14458, 7460, 7461, 8231
14459, 7468, 7432, 8232
14460, 7467, 8232, 7432
14461, 7546, 7291, 8233
14462, 7545, 7546, 8234
14463, 7553, 7517, 8235
14464, 7552, 8235, 7517
14465, 7631, 7300, 8236
14466, 7630, 7631, 8237
14467, 7638, 7602, 8238
14468, 7637, 8238, 7602
14469, 8249, 8250, 8267
14470, 8343, 7817, 8342
14471, 8241, 8240, 7668
14472, 8242, 8246, 8245
14473, 8266, 7668, 7669
14474, 8243, 8244, 8266
14475, 8268, 8269, 7177
14476, 7820, 8240, 8242
14477, 7665, 7664, 8244
14478, 8244, 8241, 8266
14479, 8241, 8244, 7664
14480, 8240, 8241, 8242
14481, 8246, 8241, 7664
14482, 8241, 8246, 8242
14483, 8256, 8252, 8253
14484, 7675, 7819, 8343
14485, 8249, 8248, 8239
14486, 8250, 8249, 8239
14487, 8253, 8254, 8256
14488, 8240, 8250, 8239
14489, 7820, 8251, 8267
14490, 7820, 8268, 8251
14491, 8267, 8257, 8247
14492, 8253, 8247, 8254
14493, 8247, 8253, 8249
14494, 8255, 8253, 8252
14495, 8277, 8257, 8274
14496, 8251, 8268, 8263
14497, 8252, 7675, 8255
14498, 8248, 8255, 7675
14499, 8275, 8262, 8259
14500, 8254, 7190, 8256
14501, 8259, 8254, 8247
14502, 8325, 8327, 8319
14503, 8294, 8295, 8291
14504, 8257, 8259, 8247
14505, 8257, 8267, 8251
14506, 8276, 8286, 8279
14507, 8251, 8263, 8274
14508, 8283, 8278, 8284
14509, 8275, 8259, 8277
14510, 8328, 8319, 8327
14511, 8276, 8279, 8277
14512, 8286, 8280, 8294
14513, 8286, 8287, 8280
14514, 8289, 8263, 7177
14515, 8275, 8279, 8281
14516, 7362, 7665, 8265
14517, 8243, 8265, 7665
14518, 7668, 8266, 8241
14519, 7667, 8266, 7669
14520, 8249, 8267, 8247
14521, 7820, 8267, 8250
14522, 7820, 8242, 8269
14523, 8268, 7177, 8263
14524, 7177, 8269, 8245
14525, 7820, 8269, 8268
14526, 8275, 8281, 8282
14527, 8251, 8274, 8257
14528, 8276, 8277, 8274
14529, 8281, 8279, 8273
14530, 8291, 8299, 8332
14531, 8289, 7177, 8264
14532, 8262, 8282, 7190
14533, 8277, 8279, 8275
14534, 8288, 8264, 8270
14535, 8277, 8259, 8257
14536, 8331, 8292, 8330
14537, 7190, 8254, 8262
14538, 8281, 8284, 8282
14539, 8291, 8283, 8285
14540, 8285, 8281, 8273
14541, 8278, 8260, 8284
14542, 7190, 8282, 8260
14543, 8275, 8282, 8262
14544, 8294, 8291, 8285
14545, 8330, 8278, 8283
14546, 8282, 8284, 8260
14547, 8284, 8281, 8285
14548, 8285, 8273, 8294
14549, 8284, 8285, 8283
14550, 8279, 8286, 8273
14551, 8287, 8286, 8276
14552, 8287, 8276, 8288
14553, 8293, 8287, 8270
14554, 8276, 8274, 8288
14555, 8289, 8274, 8263
14556, 8264, 8288, 8289
14557, 8274, 8289, 8288
14558, 8280, 8293, 8295
14559, 8287, 8293, 8280
14560, 8291, 8295, 8299
14561, 8270, 8290, 8293
14562, 8272, 8339, 8305
14563, 8295, 8293, 8290
14564, 8286, 8294, 8273
14565, 8295, 8294, 8280
14566, 8290, 8296, 8295
14567, 8296, 8298, 8299
14568, 8290, 8258, 8296
14569, 8296, 8258, 8298
14570, 8303, 8301, 8298
14571, 8310, 8308, 8304
14572, 8309, 8304, 8300
14573, 8340, 8332, 8333
14574, 8296, 8299, 8295
14575, 8333, 8298, 8297
14576, 8258, 8302, 8303
14577, 8297, 8298, 8301
14578, 8308, 8301, 8304
14579, 8300, 8304, 8302
14580, 8301, 8302, 8304
14581, 8311, 8313, 8316
14582, 8302, 8301, 8303
14583, 8312, 8301, 8308
14584, 8329, 8313, 8307
14585, 8315, 8336, 8334
14586, 8334, 8305, 8312
14587, 8301, 8312, 8297
14588, 8329, 8320, 8322
14589, 8308, 8317, 8312
14590, 8304, 8309, 8310
14591, 8317, 8308, 8310
14592, 8300, 8320, 8309
14593, 8309, 8307, 8310
14594, 8907, 8908, 8906
14595, 8313, 8310, 8307
14596, 8314, 8329, 8322
14597, 8305, 8297, 8312
14598, 8339, 8331, 8340
14599, 8317, 8310, 8313
14600, 8311, 8315, 8317
14601, 8325, 8319, 8321
14602, 8908, 8316, 8321
14603, 8311, 8337, 8315
14604, 8336, 8305, 8334
14605, 8309, 8320, 8307
14606, 8321, 8316, 8314
14607, 8311, 8317, 8313
14608, 8317, 8315, 8334
14609, 8300, 8318, 8320
14610, 8322, 8320, 8318
14611, 8933, 8934, 8948
14612, 8337, 8907, 8306
14613, 8324, 8322, 8318
14614, 8322, 8324, 8314
14615, 8910, 8325, 8321
14616, 8906, 8908, 8319
14617, 8909, 8945, 8968
14618, 8314, 8316, 8329
14619, 8931, 8935, 8926
14620, 8318, 8261, 8324
14621, 8914, 8911, 8916
14622, 8910, 8321, 8314
14623, 8924, 8922, 8323
14624, 8926, 8915, 8931
14625, 8917, 8919, 8327
14626, 8913, 8271, 8918
14627, 8914, 8325, 8910
14628, 8327, 8325, 8914
14629, 8271, 8905, 8906
14630, 8313, 8329, 8316
14631, 8320, 8329, 8307
14632, 8330, 8283, 8331
14633, 8292, 8278, 8330
14634, 8283, 8291, 8332
14635, 8297, 8305, 8340
14636, 8333, 8332, 8299
14637, 8283, 8332, 8331
14638, 8298, 8333, 8299
14639, 8333, 8297, 8340
14640, 8317, 8334, 8312
14641, 8315, 8335, 8336
14642, 8335, 8272, 8336
14643, 8338, 8315, 8337
14644, 8272, 8305, 8336
14645, 8907, 8337, 8311
14646, 8338, 8337, 8306
14647, 8306, 8335, 8338
14648, 8315, 8338, 8335
14649, 8272, 8292, 8339
14650, 8292, 8331, 8339
14651, 8339, 8340, 8305
14652, 8340, 8331, 8332
14653, 7819, 7368, 8341
14654, 8343, 8342, 8248
14655, 7668, 8342, 7817
14656, 7675, 8343, 8248
14657, 8341, 8343, 7819
14658, 8354, 8355, 8372
14659, 8527, 7805, 8526
14660, 8346, 8345, 7702
14661, 8347, 8351, 8350
14662, 8371, 7702, 7703
14663, 8348, 8349, 8371
14664, 8373, 8374, 7198
14665, 7670, 8345, 8347
14666, 7699, 7698, 8349
14667, 8349, 8346, 8371
14668, 8346, 8349, 7698
14669, 8345, 8346, 8347
14670, 8351, 8346, 7698
14671, 8346, 8351, 8347
14672, 8361, 8357, 8358
14673, 7709, 7772, 8527
14674, 8354, 8353, 8344
14675, 8355, 8354, 8344
14676, 8358, 8359, 8361
14677, 8345, 8355, 8344
14678, 7670, 8356, 8372
14679, 7670, 8373, 8356
14680, 8372, 8362, 8352
14681, 8358, 8352, 8359
14682, 8352, 8358, 8354
14683, 8360, 8358, 8357
14684, 8382, 8362, 8379
14685, 8356, 8373, 8368
14686, 8357, 7709, 8360
14687, 8353, 8360, 7709
14688, 8380, 8367, 8364
14689, 8359, 7211, 8361
14690, 8364, 8359, 8352
14691, 8376, 8438, 8435
14692, 8399, 8400, 8396
14693, 8362, 8364, 8352
14694, 8362, 8372, 8356
14695, 8381, 8391, 8384
14696, 8356, 8368, 8379
14697, 8388, 8383, 8389
14698, 8380, 8364, 8382
14699, 8435, 8441, 8376
14700, 8381, 8384, 8382
14701, 8391, 8385, 8399
14702, 8391, 8392, 8385
14703, 8394, 8368, 7198
14704, 8380, 8384, 8386
14705, 7447, 7699, 8370
14706, 8348, 8370, 7699
14707, 7702, 8371, 8346
14708, 7701, 8371, 7703
14709, 8354, 8372, 8352
14710, 7670, 8372, 8355
14711, 7670, 8347, 8374
14712, 8373, 7198, 8368
14713, 7198, 8374, 8350
14714, 7670, 8374, 8373
14715, 8380, 8386, 8387
14716, 8356, 8379, 8362
14717, 8381, 8382, 8379
14718, 8386, 8384, 8378
14719, 8396, 8404, 8480
14720, 8394, 7198, 8369
14721, 8367, 8387, 7211
14722, 8382, 8384, 8380
14723, 8393, 8369, 8375
14724, 8382, 8364, 8362
14725, 8481, 8397, 8475
14726, 7211, 8359, 8367
14727, 8386, 8389, 8387
14728, 8396, 8388, 8390
14729, 8390, 8386, 8378
14730, 8383, 8365, 8389
14731, 7211, 8387, 8365
14732, 8380, 8387, 8367
14733, 8399, 8396, 8390
14734, 8475, 8383, 8388
14735, 8387, 8389, 8365
14736, 8389, 8386, 8390
14737, 8390, 8378, 8399
14738, 8389, 8390, 8388
14739, 8384, 8391, 8378
14740, 8392, 8391, 8381
14741, 8392, 8381, 8393
14742, 8398, 8392, 8375
14743, 8381, 8379, 8393
14744, 8394, 8379, 8368
14745, 8369, 8393, 8394
14746, 8379, 8394, 8393
14747, 8385, 8398, 8400
14748, 8392, 8398, 8385
14749, 8396, 8400, 8404
14750, 8375, 8395, 8398
14751, 8377, 8516, 8418
14752, 8400, 8398, 8395
14753, 8391, 8399, 8378
14754, 8400, 8399, 8385
14755, 8395, 8401, 8400
14756, 8401, 8403, 8404
14757, 8395, 8363, 8401
14758, 8401, 8363, 8403
14759, 8403, 8363, 8408
14760, 8414, 8415, 8413
14761, 8414, 8409, 8405
14762, 8517, 8480, 8483
14763, 8401, 8404, 8400
14764, 8483, 8403, 8402
14765, 8363, 8407, 8408
14766, 8402, 8403, 8406
14767, 8413, 8406, 8409
14768, 8405, 8409, 8407
14769, 8406, 8407, 8409
14770, 8410, 8416, 8421
14771, 8406, 8408, 8407
14772, 8417, 8406, 8413
14773, 8419, 8450, 8425
14774, 8489, 8417, 8413
14775, 8422, 8489, 8413
14776, 8406, 8417, 8402
14777, 8425, 8427, 8460
14778, 8450, 8416, 8412
14779, 8413, 8409, 8414
14780, 8422, 8413, 8415
14781, 8405, 8424, 8414
14782, 8414, 8412, 8415
14783, 8422, 8416, 8485
14784, 8416, 8415, 8412
14785, 8516, 8481, 8517
14786, 8428, 8426, 8433
14787, 8422, 8415, 8416
14788, 8490, 8417, 8489
14789, 8402, 8417, 8418
14790, 8410, 8428, 8432
14791, 8421, 8428, 8410
14792, 8487, 8486, 8484
14793, 8486, 8422, 8485
14794, 8414, 8424, 8412
14795, 8428, 8421, 8429
14796, 8485, 8416, 8410
14797, 8484, 8486, 8485
14798, 8405, 8423, 8424
14799, 8450, 8424, 8425
14800, 8427, 8425, 8423
14801, 8425, 8424, 8423
14802, 8419, 8421, 8450
14803, 8429, 8426, 8428
14804, 8419, 8425, 8460
14805, 8423, 8366, 8427
14806, 8470, 8441, 8443
14807, 8429, 8421, 8419
14808, 8438, 8431, 8433
14809, 8478, 8473, 8466
14810, 8499, 8476, 8498
14811, 8479, 8500, 8476
14812, 8430, 8468, 8463
14813, 8434, 8411, 8432
14814, 8432, 8428, 8433
14815, 8484, 8432, 8411
14816, 8433, 8426, 8435
14817, 8431, 8432, 8433
14818, 8469, 8453, 8461
14819, 8432, 8431, 8434
14820, 8440, 8443, 8426
14821, 8479, 8437, 8473
14822, 8441, 8442, 8376
14823, 8426, 8429, 8440
14824, 8445, 8442, 8444
14825, 8471, 8458, 8436
14826, 8435, 8438, 8433
14827, 8435, 8443, 8441
14828, 8460, 8474, 8419
14829, 8455, 8471, 8452
14830, 8470, 8444, 8441
14831, 8426, 8443, 8435
14832, 8454, 8465, 8467
14833, 8442, 8441, 8444
14834, 8445, 8444, 8430
14835, 8442, 8445, 8436
14836, 8456, 8446, 8457
14837, 8447, 8457, 8472
14838, 8468, 8470, 8461
14839, 8447, 8456, 8457
14840, 8446, 8455, 8449
14841, 8462, 8463, 8468
14842, 8455, 8452, 8463
14843, 8497, 8466, 8457
14844, 8416, 8450, 8421
14845, 8424, 8450, 8412
14846, 8461, 8443, 8440
14847, 8388, 8480, 8481
14848, 8464, 8446, 8449
14849, 8452, 8471, 8445
14850, 8453, 8493, 8492
14851, 8449, 8455, 8463
14852, 8468, 8461, 8453
14853, 8464, 8449, 8465
14854, 8455, 8446, 8456
14855, 8491, 8459, 8494
14856, 8471, 8455, 8456
14857, 8445, 8430, 8452
14858, 8440, 8474, 8469
14859, 8446, 8464, 8497
14860, 8456, 8447, 8458
14861, 8492, 8493, 8448
14862, 8366, 8460, 8427
14863, 8439, 8467, 8451
14864, 8469, 8461, 8440
14865, 8492, 8459, 8491
14866, 8491, 8462, 8453
14867, 8430, 8463, 8452
14868, 8449, 8463, 8462
14869, 8494, 8496, 8462
14870, 8464, 8454, 8466
14871, 8465, 8449, 8496
14872, 8454, 8464, 8465
14873, 8500, 8479, 8473
14874, 8473, 8457, 8466
14875, 8468, 8453, 8462
14876, 8451, 8467, 8465
14877, 8470, 8468, 8430
14878, 8474, 8440, 8429
14879, 8495, 8460, 8366
14880, 8444, 8470, 8430
14881, 8461, 8470, 8443
14882, 8458, 8471, 8456
14883, 8445, 8471, 8436
14884, 8498, 8502, 8508
14885, 8457, 8437, 8472
14886, 8419, 8474, 8429
14887, 8460, 8469, 8474
14888, 8511, 8504, 8513
14889, 8473, 8437, 8457
14890, 8397, 8383, 8475
14891, 8502, 8506, 8501
14892, 8475, 8388, 8481
14893, 8503, 8504, 8511
14894, 8500, 8473, 8478
14895, 8476, 8437, 8479
14896, 8477, 8518, 8509
14897, 8402, 8418, 8517
14898, 8483, 8480, 8404
14899, 8403, 8483, 8404
14900, 8388, 8396, 8480
14901, 8454, 8467, 8511
14902, 8483, 8402, 8517
14903, 8432, 8484, 8410
14904, 8411, 8420, 8487
14905, 8410, 8484, 8485
14906, 8484, 8411, 8487
14907, 8488, 8420, 8377
14908, 8486, 8420, 8488
14909, 8377, 8418, 8488
14910, 8486, 8487, 8420
14911, 8490, 8488, 8418
14912, 8422, 8486, 8489
14913, 8486, 8488, 8490
14914, 8417, 8490, 8418
14915, 8486, 8490, 8489
14916, 8492, 8491, 8453
14917, 8494, 8459, 8451
14918, 8493, 8453, 8469
14919, 8459, 8492, 8448
14920, 8495, 8469, 8460
14921, 8448, 8493, 8495
14922, 8496, 8451, 8465
14923, 8462, 8491, 8494
14924, 8448, 8495, 8366
14925, 8469, 8495, 8493
14926, 8462, 8496, 8449
14927, 8451, 8496, 8494
14928, 8446, 8497, 8457
14929, 8464, 8466, 8497
14930, 8511, 8513, 8454
14931, 8498, 8478, 8502
14932, 8478, 8498, 8500
14933, 8519, 8499, 8498
14934, 8476, 8500, 8498
14935, 8986, 8987, 8501
14936, 8507, 8986, 8501
14937, 8513, 8478, 8466
14938, 8988, 8990, 8993
14939, 8507, 8506, 8504
14940, 8512, 8504, 8503
14941, 8467, 8439, 8511
14942, 8512, 8503, 8482
14943, 8522, 8521, 8524
14944, 8520, 8522, 8518
14945, 8515, 8502, 8478
14946, 8990, 8988, 8987
14947, 8515, 8513, 8504
14948, 8506, 8507, 8501
14949, 8989, 8502, 8501
14950, 8989, 8987, 8510
14951, 8508, 8520, 8518
14952, 8519, 8508, 8518
14953, 8522, 8510, 8523
14954, 8477, 8519, 8518
14955, 8503, 8511, 8514
14956, 8482, 8507, 8512
14957, 8504, 8512, 8507
14958, 8504, 8506, 8515
14959, 8454, 8513, 8466
14960, 8502, 8515, 8506
14961, 8511, 8439, 8514
14962, 8478, 8513, 8515
14963, 8377, 8397, 8516
14964, 8397, 8481, 8516
14965, 8516, 8517, 8418
14966, 8517, 8481, 8480
14967, 8508, 8519, 8498
14968, 8499, 8519, 8477
14969, 8508, 8502, 8989
14970, 8521, 8522, 8523
14971, 8510, 8522, 8520
14972, 8509, 8518, 8522
14973, 8987, 8988, 8510
14974, 8524, 8509, 8522
14975, 8521, 8523, 8505
14976, 8521, 799, 8524
14977, 8509, 8524, 799
14978, 7772, 7453, 8525
14979, 8527, 8526, 8353
14980, 7702, 8526, 7805
14981, 7709, 8527, 8353
14982, 8525, 8527, 7772
14983, 8538, 8539, 8556
14984, 8718, 7816, 8717
14985, 8530, 8529, 7736
14986, 8531, 8535, 8534
14987, 8555, 7736, 7737
14988, 8532, 8533, 8555
14989, 8557, 8558, 7219
14990, 7704, 8529, 8531
14991, 7733, 7732, 8533
14992, 8533, 8530, 8555
14993, 8530, 8533, 7732
14994, 8529, 8530, 8531
14995, 8535, 8530, 7732
14996, 8530, 8535, 8531
14997, 8545, 8541, 8542
14998, 7743, 7818, 8718
14999, 8538, 8537, 8528
15000, 8539, 8538, 8528
15001, 8542, 8543, 8545
15002, 8529, 8539, 8528
15003, 7704, 8540, 8556
15004, 7704, 8557, 8540
15005, 8556, 8546, 8536
15006, 8542, 8536, 8543
15007, 8536, 8542, 8538
15008, 8544, 8542, 8541
15009, 8566, 8546, 8563
15010, 8540, 8557, 8552
15011, 8541, 7743, 8544
15012, 8537, 8544, 7743
15013, 8564, 8551, 8548
15014, 8543, 7232, 8545
15015, 8548, 8543, 8536
15016, 8614, 8616, 8608
15017, 8583, 8584, 8580
15018, 8546, 8548, 8536
15019, 8546, 8556, 8540
15020, 8565, 8575, 8568
15021, 8540, 8552, 8563
15022, 8572, 8567, 8573
15023, 8564, 8548, 8566
15024, 8628, 8632, 8658
15025, 8565, 8568, 8566
15026, 8575, 8569, 8583
15027, 8575, 8576, 8569
15028, 8578, 8552, 7219
15029, 8564, 8568, 8570
15030, 7532, 7733, 8554
15031, 8532, 8554, 7733
15032, 7736, 8555, 8530
15033, 7735, 8555, 7737
15034, 8538, 8556, 8536
15035, 7704, 8556, 8539
15036, 7704, 8531, 8558
15037, 8557, 7219, 8552
15038, 7219, 8558, 8534
15039, 7704, 8558, 8557
15040, 8564, 8570, 8571
15041, 8540, 8563, 8546
15042, 8565, 8566, 8563
15043, 8570, 8568, 8562
15044, 8580, 8588, 8636
15045, 8578, 7219, 8553
15046, 8551, 8571, 7232
15047, 8566, 8568, 8564
15048, 8577, 8553, 8559
15049, 8566, 8548, 8546
15050, 8635, 8581, 8634
15051, 7232, 8543, 8551
15052, 8570, 8573, 8571
15053, 8580, 8572, 8574
15054, 8574, 8570, 8562
15055, 8567, 8549, 8573
15056, 7232, 8571, 8549
15057, 8564, 8571, 8551
15058, 8583, 8580, 8574
15059, 8634, 8567, 8572
15060, 8571, 8573, 8549
15061, 8573, 8570, 8574
15062, 8574, 8562, 8583
15063, 8573, 8574, 8572
15064, 8568, 8575, 8562
15065, 8576, 8575, 8565
15066, 8576, 8565, 8577
15067, 8582, 8576, 8559
15068, 8565, 8563, 8577
15069, 8578, 8563, 8552
15070, 8553, 8577, 8578
15071, 8563, 8578, 8577
15072, 8569, 8582, 8584
15073, 8576, 8582, 8569
15074, 8580, 8584, 8588
15075, 8559, 8579, 8582
15076, 8561, 8673, 8594
15077, 8584, 8582, 8579
15078, 8575, 8583, 8562
15079, 8584, 8583, 8569
15080, 8579, 8585, 8584
15081, 8585, 8587, 8588
15082, 8579, 8547, 8585
15083, 8585, 8547, 8587
15084, 8587, 8547, 8592
15085, 8599, 8597, 8593
15086, 8598, 8593, 8589
15087, 8674, 8636, 8637
15088, 8585, 8588, 8584
15089, 8637, 8587, 8586
15090, 8547, 8591, 8592
15091, 8586, 8587, 8590
15092, 8597, 8590, 8593
15093, 8589, 8593, 8591
15094, 8590, 8591, 8593
15095, 8600, 8602, 8605
15096, 8590, 8592, 8591
15097, 8601, 8590, 8597
15098, 8633, 8602, 8596
15099, 8640, 8639, 8604
15100, 8597, 8606, 8601
15101, 8590, 8601, 8586
15102, 8633, 8609, 8611
15103, 8639, 8641, 8606
15104, 8593, 8598, 8599
15105, 8606, 8597, 8599
15106, 8589, 8609, 8598
15107, 8598, 8596, 8599
15108, 8621, 8620, 8608
15109, 8602, 8599, 8596
15110, 8603, 8633, 8611
15111, 8586, 8601, 8641
15112, 8673, 8635, 8674
15113, 8606, 8599, 8602
15114, 8642, 8600, 8625
15115, 8614, 8608, 8610
15116, 8620, 8605, 8610
15117, 8622, 8625, 8600
15118, 8639, 8638, 8604
15119, 8598, 8609, 8596
15120, 8610, 8605, 8603
15121, 8600, 8606, 8602
15122, 8638, 8639, 8642
15123, 8589, 8607, 8609
15124, 8611, 8609, 8607
15125, 8643, 8652, 8651
15126, 8621, 8608, 8615
15127, 8613, 8611, 8607
15128, 8613, 8650, 8611
15129, 8647, 8649, 8650
15130, 8621, 8622, 8620
15131, 8682, 8683, 8687
15132, 8603, 8605, 8633
15133, 8605, 8620, 8600
15134, 8607, 8550, 8613
15135, 8643, 8651, 8632
15136, 8649, 8610, 8603
15137, 8615, 8626, 8560
15138, 8667, 8654, 8680
15139, 8623, 8560, 8626
15140, 8653, 8627, 8655
15141, 8616, 8643, 8629
15142, 8600, 8620, 8622
15143, 8616, 8615, 8608
15144, 8560, 8619, 8621
15145, 8639, 8640, 8641
15146, 8626, 8629, 8628
15147, 8560, 8621, 8615
15148, 8621, 8619, 8622
15149, 8595, 8625, 8624
15150, 8622, 8624, 8625
15151, 8628, 8623, 8626
15152, 8608, 8620, 8610
15153, 8622, 8619, 8624
15154, 8625, 8595, 8638
15155, 8616, 8629, 8615
15156, 8550, 8647, 8650
15157, 8659, 8651, 8630
15158, 8655, 8677, 8653
15159, 8626, 8615, 8629
15160, 8627, 8618, 8644
15161, 8656, 8632, 8659
15162, 8616, 8614, 8646
15163, 8646, 8647, 8652
15164, 8628, 8644, 8623
15165, 8550, 8612, 8647
15166, 8648, 8618, 8653
15167, 8628, 8629, 8632
15168, 8614, 8649, 8646
15169, 8602, 8633, 8605
15170, 8609, 8633, 8596
15171, 8634, 8572, 8635
15172, 8581, 8567, 8634
15173, 8572, 8580, 8636
15174, 8641, 8674, 8586
15175, 8637, 8636, 8588
15176, 8572, 8636, 8635
15177, 8587, 8637, 8588
15178, 8637, 8586, 8674
15179, 8595, 8604, 8638
15180, 8640, 8594, 8641
15181, 8604, 8561, 8640
15182, 8642, 8639, 8606
15183, 8594, 8640, 8561
15184, 8641, 8594, 8674
15185, 8606, 8641, 8601
15186, 8600, 8642, 8606
15187, 8638, 8642, 8625
15188, 8643, 8616, 8646
15189, 8647, 8646, 8649
15190, 8628, 8627, 8644
15191, 8612, 8675, 8652
15192, 8652, 8643, 8646
15193, 8618, 8623, 8644
15194, 8662, 8659, 8660
15195, 8675, 8630, 8652
15196, 8632, 8629, 8643
15197, 8654, 8667, 8665
15198, 8655, 8627, 8656
15199, 8610, 8649, 8614
15200, 8650, 8649, 8603
15201, 8611, 8650, 8603
15202, 8550, 8650, 8613
15203, 8651, 8652, 8630
15204, 8612, 8652, 8647
15205, 8670, 8671, 8664
15206, 8653, 8618, 8627
15207, 8656, 8627, 8658
15208, 8657, 8677, 8667
15209, 8665, 8667, 8655
15210, 8651, 8659, 8632
15211, 8655, 8656, 8665
15212, 8654, 8671, 8688
15213, 8657, 8679, 8676
15214, 8628, 8658, 8627
15215, 8632, 8656, 8658
15216, 8630, 8660, 8659
15217, 8660, 8631, 8663
15218, 8675, 8660, 8630
15219, 8664, 8662, 8661
15220, 8645, 8670, 8668
15221, 8663, 8661, 8662
15222, 8659, 8662, 8666
15223, 8664, 8668, 8670
15224, 8660, 8663, 8662
15225, 8665, 8664, 8654
15226, 8656, 8666, 8665
15227, 8665, 8666, 8664
15228, 8659, 8666, 8656
15229, 8664, 8666, 8662
15230, 8680, 8654, 8672
15231, 8677, 8657, 8676
15232, 8697, 8709, 8696
15233, 8664, 8661, 8668
15234, 8696, 8689, 8685
15235, 8699, 8700, 8701
15236, 8701, 8671, 8670
15237, 8702, 8707, 8690
15238, 8664, 8671, 8654
15239, 8698, 8715, 8713
15240, 8672, 8654, 8688
15241, 8561, 8581, 8673
15242, 8581, 8635, 8673
15243, 8673, 8674, 8594
15244, 8674, 8635, 8636
15245, 8612, 8631, 8675
15246, 8660, 8675, 8631
15247, 8617, 8648, 8676
15248, 8648, 8653, 8677
15249, 8667, 8677, 8655
15250, 8648, 8677, 8676
15251, 8687, 8680, 8682
15252, 8617, 8679, 8687
15253, 8676, 8679, 8617
15254, 8680, 8679, 8657
15255, 8667, 8680, 8657
15256, 8678, 8683, 8681
15257, 8681, 8683, 8686
15258, 8692, 8694, 8700
15259, 8687, 8683, 8678
15260, 8672, 8682, 8680
15261, 8705, 8681, 8686
15262, 8672, 8688, 8691
15263, 8683, 8693, 8686
15264, 8672, 8691, 8682
15265, 8693, 8683, 8682
15266, 8686, 8685, 8705
15267, 8617, 8687, 8678
15268, 8680, 8687, 8679
15269, 8682, 8691, 8693
15270, 8691, 8688, 8694
15271, 8696, 8685, 8693
15272, 8669, 8705, 8704
15273, 8670, 8645, 8699
15274, 8645, 8684, 8699
15275, 8711, 8712, 8695
15276, 8693, 8685, 8686
15277, 8697, 8691, 8694
15278, 8692, 8702, 8697
15279, 8701, 8688, 8671
15280, 8694, 8692, 8697
15281, 8708, 8710, 8709
15282, 8700, 8684, 8707
15283, 8697, 8696, 8693
15284, 8689, 8711, 8706
15285, 8697, 8693, 8691
15286, 8714, 8698, 8713
15287, 8704, 1125, 8669
15288, 8689, 8704, 8705
15289, 8688, 8700, 8694
15290, 8699, 8684, 8700
15291, 8699, 8701, 8670
15292, 8700, 8688, 8701
15293, 8707, 8702, 8692
15294, 8706, 8704, 8689
15295, 8706, 8703, 8704
15296, 1125, 8704, 8703
15297, 8705, 8669, 8681
15298, 8689, 8705, 8685
15299, 8689, 8710, 8711
15300, 8695, 8703, 8706
15301, 8700, 8707, 8692
15302, 8684, 8690, 8707
15303, 8710, 8696, 8709
15304, 8715, 1124, 8712
15305, 8697, 8702, 8709
15306, 8690, 8714, 8702
15307, 8710, 8708, 8711
15308, 8696, 8710, 8689
15309, 8708, 8715, 8712
15310, 8706, 8711, 8695
15311, 8708, 8709, 8713
15312, 8708, 8712, 8711
15313, 8702, 8713, 8709
15314, 8713, 8715, 8708
15315, 8702, 8714, 8713
15316, 1124, 8715, 8698
15317, 7818, 7538, 8716
15318, 8718, 8717, 8537
15319, 7736, 8717, 7816
15320, 7743, 8718, 8537
15321, 8716, 8718, 7818
15322, 8729, 8730, 8747
15323, 8900, 7796, 8899
15324, 8721, 8720, 7770
15325, 8722, 8726, 8725
15326, 8746, 7770, 7771
15327, 8723, 8724, 8746
15328, 8748, 8749, 7240
15329, 7738, 8720, 8722
15330, 7767, 7766, 8724
15331, 8724, 8721, 8746
15332, 8721, 8724, 7766
15333, 8720, 8721, 8722
15334, 8726, 8721, 7766
15335, 8721, 8726, 8722
15336, 8736, 8732, 8733
15337, 7777, 7814, 8900
15338, 8729, 8728, 8719
15339, 8730, 8729, 8719
15340, 8733, 8734, 8736
15341, 8720, 8730, 8719
15342, 7738, 8731, 8747
15343, 7738, 8748, 8731
15344, 8747, 8737, 8727
15345, 8733, 8727, 8734
15346, 8727, 8733, 8729
15347, 8735, 8733, 8732
15348, 8757, 8737, 8754
15349, 8731, 8748, 8743
15350, 8732, 7777, 8735
15351, 8728, 8735, 7777
15352, 8755, 8742, 8739
15353, 8734, 7253, 8736
15354, 8739, 8734, 8727
15355, 8834, 8836, 8807
15356, 8775, 8776, 8772
15357, 8737, 8739, 8727
15358, 8737, 8747, 8731
15359, 8756, 8766, 8759
15360, 8731, 8743, 8754
15361, 8763, 8758, 8764
15362, 8755, 8739, 8757
15363, 8821, 8751, 8822
15364, 8756, 8759, 8757
15365, 8766, 8760, 8775
15366, 8766, 8767, 8760
15367, 8770, 8743, 7240
15368, 8755, 8759, 8761
15369, 7617, 7767, 8745
15370, 8723, 8745, 7767
15371, 7770, 8746, 8721
15372, 7769, 8746, 7771
15373, 8729, 8747, 8727
15374, 7738, 8747, 8730
15375, 7738, 8722, 8749
15376, 8748, 7240, 8743
15377, 7240, 8749, 8725
15378, 7738, 8749, 8748
15379, 8755, 8761, 8762
15380, 8731, 8754, 8737
15381, 8756, 8757, 8754
15382, 8761, 8759, 8753
15383, 8772, 8780, 8812
15384, 8770, 7240, 8744
15385, 8742, 8762, 7253
15386, 8757, 8759, 8755
15387, 8769, 8750, 8767
15388, 8757, 8739, 8737
15389, 8811, 8773, 8810
15390, 7253, 8734, 8742
15391, 8761, 8764, 8762
15392, 8772, 8763, 8765
15393, 8765, 8761, 8753
15394, 8758, 8740, 8764
15395, 7253, 8762, 8740
15396, 8755, 8762, 8742
15397, 8775, 8772, 8765
15398, 8810, 8758, 8763
15399, 8762, 8764, 8740
15400, 8764, 8761, 8765
15401, 8765, 8753, 8775
15402, 8764, 8765, 8763
15403, 8759, 8766, 8753
15404, 8767, 8766, 8756
15405, 8767, 8756, 8768
15406, 8774, 8767, 8750
15407, 8756, 8754, 8768
15408, 8770, 8754, 8743
15409, 8744, 8768, 8770
15410, 8768, 8744, 8769
15411, 8754, 8770, 8768
15412, 8760, 8774, 8776
15413, 8767, 8774, 8760
15414, 8772, 8776, 8780
15415, 8750, 8771, 8774
15416, 8752, 8826, 8794
15417, 8776, 8774, 8771
15418, 8766, 8775, 8753
15419, 8776, 8775, 8760
15420, 8771, 8777, 8776
15421, 8777, 8779, 8780
15422, 8771, 8738, 8777
15423, 8777, 8738, 8779
15424, 8779, 8738, 8784
15425, 8790, 8791, 8789
15426, 8790, 8785, 8781
15427, 8827, 8812, 8813
15428, 8777, 8780, 8776
15429, 8813, 8779, 8778
15430, 8738, 8783, 8784
15431, 8778, 8779, 8782
15432, 8789, 8782, 8785
15433, 8781, 8785, 8783
15434, 8782, 8783, 8785
15435, 8786, 8792, 8797
15436, 8782, 8784, 8783
15437, 8793, 8782, 8789
15438, 8808, 8801, 8795
15439, 8794, 8793, 8815
15440, 8789, 8798, 8793
15441, 8782, 8793, 8778
15442, 8808, 8800, 8801
15443, 8808, 8792, 8788
15444, 8789, 8785, 8790
15445, 8798, 8789, 8791
15446, 8781, 8800, 8790
15447, 8790, 8788, 8791
15448, 8820, 8786, 8806
15449, 8792, 8791, 8788
15450, 8826, 8811, 8827
15451, 8806, 8804, 8818
15452, 8798, 8791, 8792
15453, 8846, 8823, 8824
15454, 8778, 8793, 8794
15455, 8814, 8818, 8822
15456, 8797, 8804, 8786
15457, 8834, 8809, 8836
15458, 8815, 8824, 8825
15459, 8788, 8790, 8800
15460, 8804, 8797, 8805
15461, 8786, 8798, 8792
15462, 8824, 8815, 8846
15463, 8800, 8781, 8799
15464, 8802, 8809, 8801
15465, 8802, 8801, 8799
15466, 8801, 8800, 8799
15467, 8795, 8797, 8808
15468, 8799, 8741, 8802
15469, 8834, 8816, 8805
15470, 8805, 8803, 8804
15471, 8807, 8836, 8828
15472, 8805, 8797, 8795
15473, 8806, 8819, 8820
15474, 8795, 8801, 8809
15475, 8809, 8834, 8795
15476, 8786, 8804, 8806
15477, 8803, 8818, 8804
15478, 8889, 8864, 8865
15479, 8831, 8832, 8751
15480, 8792, 8808, 8797
15481, 8800, 8808, 8788
15482, 8741, 8809, 8802
15483, 8807, 8828, 8839
15484, 8810, 8763, 8811
15485, 8773, 8758, 8810
15486, 8763, 8772, 8812
15487, 8778, 8794, 8827
15488, 8813, 8812, 8780
15489, 8763, 8812, 8811
15490, 8779, 8813, 8780
15491, 8813, 8778, 8827
15492, 8837, 8842, 8843
15493, 8825, 8794, 8815
15494, 8798, 8815, 8793
15495, 8818, 8803, 8821
15496, 8847, 8848, 8853
15497, 8787, 8820, 8819
15498, 8831, 8751, 8821
15499, 8814, 8806, 8818
15500, 8823, 8820, 8787
15501, 8806, 8814, 8819
15502, 8786, 8820, 8846
15503, 8805, 8816, 8803
15504, 8803, 8816, 8833
15505, 8787, 8796, 8823
15506, 8821, 8822, 8818
15507, 8824, 8823, 8796
15508, 8825, 8824, 8796
15509, 8846, 8815, 8798
15510, 8796, 8752, 8825
15511, 8794, 8825, 8752
15512, 8752, 8773, 8826
15513, 8773, 8811, 8826
15514, 8826, 8827, 8794
15515, 8827, 8811, 8812
15516, 8807, 8842, 8838
15517, 8833, 8838, 8847
15518, 8864, 8866, 8860
15519, 8833, 8816, 8838
15520, 8795, 8834, 8805
15521, 8821, 8803, 8833
15522, 8849, 8833, 8847
15523, 8809, 8741, 8836
15524, 8821, 8833, 8831
15525, 8807, 8838, 8816
15526, 8807, 8816, 8834
15527, 8839, 8840, 8835
15528, 8828, 8836, 8741
15529, 8845, 8844, 8841
15530, 8850, 8832, 8849
15531, 8847, 8838, 8837
15532, 8845, 8839, 8835
15533, 8842, 8839, 8843
15534, 8861, 8859, 8897
15535, 8839, 8828, 8840
15536, 8841, 8854, 8848
15537, 8838, 8842, 8837
15538, 8807, 8839, 8842
15539, 8844, 8845, 8835
15540, 8837, 8848, 8847
15541, 8854, 8856, 8865
15542, 8839, 8845, 8843
15543, 8841, 8843, 8845
15544, 8786, 8846, 8798
15545, 8823, 8846, 8820
15546, 8849, 8832, 8831
15547, 8837, 8843, 8848
15548, 8843, 8841, 8848
15549, 8853, 8854, 8852
15550, 8833, 8849, 8831
15551, 8850, 8849, 8847
15552, 8850, 8847, 8853
15553, 8832, 8850, 8830
15554, 8841, 8856, 8854
15555, 8860, 8876, 8829
15556, 8857, 8860, 8829
15557, 8852, 8897, 8850
15558, 8854, 8853, 8848
15559, 8850, 8853, 8852
15560, 8856, 8844, 8855
15561, 8860, 8861, 8851
15562, 8844, 8858, 8855
15563, 8858, 8863, 8855
15564, 8844, 8856, 8841
15565, 8856, 8855, 8865
15566, 8830, 8850, 8897
15567, 8852, 8851, 8861
15568, 8844, 8817, 8858
15569, 8878, 8863, 8817
15570, 8851, 8852, 8854
15571, 8857, 8859, 8861
15572, 8888, 8862, 8867
15573, 8860, 8851, 8864
15574, 8868, 8870, 8888
15575, 8860, 8857, 8861
15576, 8884, 8881, 8885
15577, 8876, 8870, 8829
15578, 8817, 8863, 8858
15579, 8865, 8863, 8889
15580, 8864, 8851, 8865
15581, 8875, 8888, 8867
15582, 8865, 8851, 8854
15583, 8863, 8865, 8855
15584, 8880, 8879, 8877
15585, 8876, 8866, 8862
15586, 8874, 8867, 8872
15587, 8866, 8867, 8862
15588, 8868, 8888, 8875
15589, 8872, 8864, 8889
15590, 8864, 8872, 8866
15591, 8867, 8866, 8872
15592, 8888, 8870, 8862
15593, 8881, 8882, 8880
15594, 8871, 8882, 8874
15595, 8882, 8881, 8873
15596, 8874, 8875, 8867
15597, 8871, 8874, 8872
15598, 8874, 8873, 8875
15599, 8873, 8881, 8884
15600, 8875, 8896, 8868
15601, 8866, 8876, 8860
15602, 8870, 8876, 8862
15603, 8817, 8877, 8878
15604, 8889, 8878, 8879
15605, 8879, 8878, 8877
15606, 8880, 8877, 8869
15607, 8879, 8871, 8889
15608, 8880, 8869, 8881
15609, 8879, 8880, 8882
15610, 8873, 8884, 8887
15611, 8996, 8997, 8995
15612, 8874, 8882, 8873
15613, 8882, 8871, 8879
15614, 1288, 8890, 8894
15615, 8881, 8869, 8885
15616, 8887, 8891, 8873
15617, 8869, 8883, 8885
15618, 8884, 8995, 8887
15619, 8885, 8995, 8884
15620, 8892, 8891, 8887
15621, 8995, 8885, 8883
15622, 8889, 8863, 8878
15623, 8872, 8889, 8871
15624, 8891, 8893, 8875
15625, 8875, 8873, 8891
15626, 8997, 8998, 8887
15627, 8895, 8893, 8890
15628, 8892, 8893, 8891
15629, 8896, 8893, 8895
15630, 8894, 8890, 8892
15631, 8893, 8892, 8890
15632, 8895, 8890, 1288
15633, 8892, 8886, 8894
15634, 8861, 8897, 8852
15635, 8896, 8875, 8893
15636, 8895, 8868, 8896
15637, 8859, 8830, 8897
15638, 7814, 7623, 8898
15639, 8900, 8899, 8728
15640, 7770, 8899, 7796
15641, 7777, 8900, 8728
15642, 8898, 8900, 7814
15643, 691, 692, 8901
15644, 8903, 8901, 692
15645, 8126, 8142, 8902
15646, 691, 8902, 8142
15647, 8903, 692, 8109
15648, 8903, 8101, 8136
15649, 8114, 8904, 8103
15650, 8109, 8904, 8903
15651, 8907, 8906, 8905
15652, 8271, 8906, 8328
15653, 8319, 8328, 8906
15654, 8907, 8311, 8908
15655, 8306, 8907, 8905
15656, 8316, 8908, 8311
15657, 8319, 8908, 8321
15658, 8911, 8324, 8261
15659, 8916, 8261, 8922
15660, 8911, 8314, 8324
15661, 8911, 8261, 8916
15662, 8917, 8914, 8326
15663, 8314, 8911, 8910
15664, 8942, 8947, 8934
15665, 8271, 8328, 8918
15666, 8917, 8327, 8914
15667, 8328, 8327, 8919
15668, 8918, 8328, 8919
15669, 8924, 8923, 8922
15670, 8914, 8916, 8923
15671, 8929, 8326, 8923
15672, 8927, 8928, 8929
15673, 8919, 8917, 8921
15674, 8913, 8918, 8919
15675, 8937, 8934, 8920
15676, 8926, 8933, 8932
15677, 8928, 8917, 8326
15678, 8926, 8921, 8920
15679, 8911, 8914, 8910
15680, 8923, 8916, 8922
15681, 8914, 8923, 8326
15682, 8929, 8323, 8925
15683, 8923, 8924, 8929
15684, 8937, 8939, 8934
15685, 8927, 8920, 8921
15686, 8926, 8920, 8933
15687, 8931, 8915, 8913
15688, 8921, 8917, 8928
15689, 8937, 8927, 8925
15690, 8928, 8326, 8929
15691, 8921, 8928, 8927
15692, 8323, 8929, 8924
15693, 8929, 8925, 8927
15694, 8947, 8948, 8934
15695, 8951, 8933, 8948
15696, 8919, 8935, 8913
15697, 8921, 8935, 8919
15698, 8925, 8938, 8937
15699, 8926, 8932, 8915
15700, 8934, 8933, 8920
15701, 8915, 8932, 8930
15702, 8920, 8927, 8937
15703, 8939, 8942, 8934
15704, 8926, 8935, 8921
15705, 8913, 8935, 8931
15706, 8937, 8938, 8939
15707, 8323, 8936, 8938
15708, 8323, 8938, 8925
15709, 8939, 8938, 8936
15710, 8909, 8943, 8940
15711, 8959, 8944, 8973
15712, 8945, 8966, 8944
15713, 8939, 8936, 8940
15714, 8957, 8949, 8959
15715, 8943, 8942, 8939
15716, 8952, 8954, 8964
15717, 8940, 8943, 8939
15718, 8961, 8955, 8953
15719, 8967, 8944, 8949
15720, 8930, 8951, 8950
15721, 8946, 8947, 8949
15722, 8942, 8967, 8947
15723, 8968, 8943, 8909
15724, 8967, 8943, 8968
15725, 8947, 8946, 8948
15726, 8950, 8948, 8946
15727, 8932, 8951, 8930
15728, 8958, 8953, 8957
15729, 8958, 8952, 8964
15730, 8949, 8955, 8946
15731, 8930, 8950, 8912
15732, 8933, 8951, 8932
15733, 8950, 8951, 8948
15734, 8952, 8965, 8971
15735, 8954, 8912, 8961
15736, 8961, 8946, 8955
15737, 8961, 8950, 8946
15738, 8961, 8953, 8954
15739, 8953, 8958, 8964
15740, 8955, 8957, 8953
15741, 8944, 8959, 8949
15742, 8956, 8959, 8960
15743, 8949, 8957, 8955
15744, 8957, 8956, 8958
15745, 8974, 8982, 8970
15746, 8976, 8960, 8941
15747, 8984, 8975, 8983
15748, 8957, 8959, 8956
15749, 8978, 8979, 8962
15750, 8970, 8958, 8956
15751, 8982, 8974, 8963
15752, 8950, 8961, 8912
15753, 8965, 8958, 8970
15754, 8974, 8977, 8981
15755, 8966, 8941, 8960
15756, 8953, 8964, 8954
15757, 8981, 8976, 8978
15758, 8958, 8965, 8952
15759, 8960, 8959, 8973
15760, 8945, 8941, 8966
15761, 8947, 8967, 8949
15762, 8943, 8967, 8942
15763, 8945, 8944, 8968
15764, 8968, 8944, 8967
15765, 8978, 8976, 8969
15766, 8980, 8962, 8972
15767, 8977, 8960, 8976
15768, 8941, 8969, 8976
15769, 8982, 8965, 8970
15770, 8982, 8975, 8984
15771, 8970, 8956, 8974
15772, 8982, 8984, 8965
15773, 8944, 8966, 8973
15774, 8960, 8973, 8966
15775, 8960, 8974, 8956
15776, 8984, 962, 8971
15777, 8960, 8977, 8974
15778, 8978, 8980, 8981
15779, 8978, 8969, 8979
15780, 8969, 961, 8979
15781, 8962, 8979, 961
15782, 8978, 8962, 8980
15783, 8975, 8963, 8980
15784, 8981, 8980, 8963
15785, 8974, 8981, 8963
15786, 8976, 8981, 8977
15787, 8972, 8983, 8975
15788, 8963, 8975, 8982
15789, 8975, 8980, 8972
15790, 962, 8984, 8983
15791, 8984, 8971, 8965
15792, 8993, 8985, 798
15793, 8510, 8988, 8523
15794, 8482, 8986, 8507
15795, 8482, 8985, 8991
15796, 8482, 8991, 8986
15797, 8510, 8520, 8989
15798, 8985, 8993, 8990
15799, 8505, 8523, 8988
15800, 8508, 8989, 8520
15801, 8501, 8987, 8989
15802, 8985, 8990, 8991
15803, 8987, 8986, 8990
15804, 8986, 8991, 8990
15805, 798, 8992, 8993
15806, 8505, 8988, 8992
15807, 8988, 8993, 8992
15808, 8998, 8886, 8892
15809, 8995, 8997, 8887
15810, 8996, 8995, 8883
15811, 8994, 8997, 8996
15812, 8998, 8994, 8886
15813, 1287, 8994, 8996
15814, 8887, 8998, 8892
15815, 8994, 8998, 8997
15816, 8217, 8999, 598
15817, 8999, 6972, 6979
*NSET, NSET=LEFT
961, 962, 8962, 8972, 8983
*NSET, NSET=RIGHT
1287, 1288, 8886, 8894, 8994
*NSET, NSET=TOP
798, 799, 8505, 8521, 8992
*NSET, NSET=BOTTOM
1124, 1125, 8695, 8703, 8712
*ELSET, ELSET=FULLMESH
1, 2, 3, 4, 5, 6, 7, 8, 9, 10, 11, 12, 13, 14, 15, 16
17, 18, 19, 20, 21, 22, 23, 24, 25, 26, 27, 28, 29, 30, 31, 32
33, 34, 35, 36, 37, 38, 39, 40, 41, 42, 43, 44, 45, 46, 47, 48
49, 50, 51, 52, 53, 54, 55, 56, 57, 58, 59, 60, 61, 62, 63, 64
65, 66, 67, 68, 69, 70, 71, 72, 73, 74, 75, 76, 77, 78, 79, 80
81, 82, 83, 84, 85, 86, 87, 88, 89, 90, 91, 92, 93, 94, 95, 96
97, 98, 99, 100, 101, 102, 103, 104, 105, 106, 107, 108, 109, 110, 111, 112
113, 114, 115, 116, 117, 118, 119, 120, 121, 122, 123, 124, 125, 126, 127, 128
129, 130, 131, 132, 133, 134, 135, 136, 137, 138, 139, 140, 141, 142, 143, 144
145, 146, 147, 148, 149, 150, 151, 152, 153, 154, 155, 156, 157, 158, 159, 160
161, 162, 163, 164, 165, 166, 167, 168, 169, 170, 171, 172, 173, 174, 175, 176
177, 178, 179, 180, 181, 182, 183, 184, 185, 186, 187, 188, 189, 190, 191, 192
193, 194, 195, 196, 197, 198, 199, 200, 201, 202, 203, 204, 205, 206, 207, 208
209, 210, 211, 212, 213, 214, 215, 216, 217, 218, 219, 220, 221, 222, 223, 224
225, 226, 227, 228, 229, 230, 231, 232, 233, 234, 235, 236, 237, 238, 239, 240
241, 242, 243, 244, 245, 246, 247, 248, 249, 250, 251, 252, 253, 254, 255, 256
257, 258, 259, 260, 261, 262, 263, 264, 265, 266, 267, 268, 269, 270, 271, 272
273, 274, 275, 276, 277, 278, 279, 280, 281, 282, 283, 284, 285, 286, 287, 288
289, 290, 291, 292, 293, 294, 295, 296, 297, 298, 299, 300, 301, 302, 303, 304
305, 306, 307, 308, 309, 310, 311, 312, 313, 314, 315, 316, 317, 318, 319, 320
321, 322, 323, 324, 325, 326, 327, 328, 329, 330, 331, 332, 333, 334, 335, 336
337, 338, 339, 340, 341, 342, 343, 344, 345, 346, 347, 348, 349, 350, 351, 352
353, 354, 355, 356, 357, 358, 359, 360, 361, 362, 363, 364, 365, 366, 367, 368
369, 370, 371, 372, 373, 374, 375, 376, 377, 378, 379, 380, 381, 382, 383, 384
385, 386, 387, 388, 389, 390, 391, 392, 393, 394, 395, 396, 397, 398, 399, 400
401, 402, 403, 404, 405, 406, 407, 408, 409, 410, 411, 412, 413, 414, 415, 416
417, 418, 419, 420, 421, 422, 423, 424, 425, 426, 427, 428, 429, 430, 431, 432
433, 434, 435, 436, 437, 438, 439, 440, 441, 442, 443, 444, 445, 446, 447, 448
449, 450, 451, 452, 453, 454, 455, 456, 457, 458, 459, 460, 461, 462, 463, 464
465, 466, 467, 468, 469, 470, 471, 472, 473, 474, 475, 476, 477, 478, 479, 480
481, 482, 483, 484, 485, 486, 487, 488, 489, 490, 491, 492, 493, 494, 495, 496
497, 498, 499, 500, 501, 502, 503, 504, 505, 506, 507, 508, 509, 510, 511, 512
513, 514, 515, 516, 517, 518, 519, 520, 521, 522, 523, 524, 525, 526, 527, 528
529, 530, 531, 532, 533, 534, 535, 536, 537, 538, 539, 540, 541, 542, 543, 544
545, 546, 547, 548, 549, 550, 551, 552, 553, 554, 555, 556, 557, 558, 559, 560
561, 562, 563, 564, 565, 566, 567, 568, 569, 570, 571, 572, 573, 574, 575, 576
577, 578, 579, 580, 581, 582, 583, 584, 585, 586, 587, 588, 589, 590, 591, 592
593, 594, 595, 596, 597, 598, 599, 600, 601, 602, 603, 604, 605, 606, 607, 608
609, 610, 611, 612, 613, 614, 615, 616, 617, 618, 619, 620, 621, 622, 623, 624
625, 626, 627, 628, 629, 630, 631, 632, 633, 634, 635, 636, 637, 638, 639, 640
641, 642, 643, 644, 645, 646, 647, 648, 649, 650, 651, 652, 653, 654, 655, 656
657, 658, 659, 660, 661, 662, 663, 664, 665, 666, 667, 668, 669, 670, 671, 672
673, 674, 675, 676, 677, 678, 679, 680, 681, 682, 683, 684, 685, 686, 687, 688
689, 690, 691, 692, 693, 694, 695, 696, 697, 698, 699, 700, 701, 702, 703, 704
705, 706, 707, 708, 709, 710, 711, 712, 713, 714, 715, 716, 717, 718, 719, 720
721, 722, 723, 724, 725, 726, 727, 728, 729, 730, 731, 732, 733, 734, 735, 736
737, 738, 739, 740, 741, 742, 743, 744, 745, 746, 747, 748, 749, 750, 751, 752
753, 754, 755, 756, 757, 758, 759, 760, 761, 762, 763, 764, 765, 766, 767, 768
769, 770, 771, 772, 773, 774, 775, 776, 777, 778, 779, 780, 781, 782, 783, 784
785, 786, 787, 788, 789, 790, 791, 792, 793, 794, 795, 796, 797, 798, 799, 800
801, 802, 803, 804, 805, 806, 807, 808, 809, 810, 811, 812, 813, 814, 815, 816
817, 818, 819, 820, 821, 822, 823, 824, 825, 826, 827, 828, 829, 830, 831, 832
833, 834, 835, 836, 837, 838, 839, 840, 841, 842, 843, 844, 845, 846, 847, 848
849, 850, 851, 852, 853, 854, 855, 856, 857, 858, 859, 860, 861, 862, 863, 864
865, 866, 867, 868, 869, 870, 871, 872, 873, 874, 875, 876, 877, 878, 879, 880
881, 882, 883, 884, 885, 886, 887, 888, 889, 890, 891, 892, 893, 894, 895, 896
897, 898, 899, 900, 901, 902, 903, 904, 905, 906, 907, 908, 909, 910, 911, 912
913, 914, 915, 916, 917, 918, 919, 920, 921, 922, 923, 924, 925, 926, 927, 928
929, 930, 931, 932, 933, 934, 935, 936, 937, 938, 939, 940, 941, 942, 943, 944
945, 946, 947, 948, 949, 950, 951, 952, 953, 954, 955, 956, 957, 958, 959, 960
961, 962, 963, 964, 965, 966, 967, 968, 969, 970, 971, 972, 973, 974, 975, 976
977, 978, 979, 980, 981, 982, 983, 984, 985, 986, 987, 988, 989, 990, 991, 992
993, 994, 995, 996, 997, 998, 999, 1000, 1001, 1002, 1003, 1004, 1005, 1006, 1007, 1008
1009, 1010, 1011, 1012, 1013, 1014, 1015, 1016, 1017, 1018, 1019, 1020, 1021, 1022, 1023, 1024
1025, 1026, 1027, 1028, 1029, 1030, 1031, 1032, 1033, 1034, 1035, 1036, 1037, 1038, 1039, 1040
1041, 1042, 1043, 1044, 1045, 1046, 1047, 1048, 1049, 1050, 1051, 1052, 1053, 1054, 1055, 1056
1057, 1058, 1059, 1060, 1061, 1062, 1063, 1064, 1065, 1066, 1067, 1068, 1069, 1070, 1071, 1072
1073, 1074, 1075, 1076, 1077, 1078, 1079, 1080, 1081, 1082, 1083, 1084, 1085, 1086, 1087, 1088
1089, 1090, 1091, 1092, 1093, 1094, 1095, 1096, 1097, 1098, 1099, 1100, 1101, 1102, 1103, 1104
1105, 1106, 1107, 1108, 1109, 1110, 1111, 1112, 1113, 1114, 1115, 1116, 1117, 1118, 1119, 1120
1121, 1122, 1123, 1124, 1125, 1126, 1127, 1128, 1129, 1130, 1131, 1132, 1133, 1134, 1135, 1136
1137, 1138, 1139, 1140, 1141, 1142, 1143, 1144, 1145, 1146, 1147, 1148, 1149, 1150, 1151, 1152
1153, 1154, 1155, 1156, 1157, 1158, 1159, 1160, 1161, 1162, 1163, 1164, 1165, 1166, 1167, 1168
1169, 1170, 1171, 1172, 1173, 1174, 1175, 1176, 1177, 1178, 1179, 1180, 1181, 1182, 1183, 1184
1185, 1186, 1187, 1188, 1189, 1190, 1191, 1192, 1193, 1194, 1195, 1196, 1197, 1198, 1199, 1200
1201, 1202, 1203, 1204, 1205, 1206, 1207, 1208, 1209, 1210, 1211, 1212, 1213, 1214, 1215, 1216
1217, 1218, 1219, 1220, 1221, 1222, 1223, 1224, 1225, 1226, 1227, 1228, 1229, 1230, 1231, 1232
1233, 1234, 1235, 1236, 1237, 1238, 1239, 1240, 1241, 1242, 1243, 1244, 1245, 1246, 1247, 1248
1249, 1250, 1251, 1252, 1253, 1254, 1255, 1256, 1257, 1258, 1259, 1260, 1261, 1262, 1263, 1264
1265, 1266, 1267, 1268, 1269, 1270, 1271, 1272, 1273, 1274, 1275, 1276, 1277, 1278, 1279, 1280
1281, 1282, 1283, 1284, 1285, 1286, 1287, 1288, 1289, 1290, 1291, 1292, 1293, 1294, 1295, 1296
1297, 1298, 1299, 1300, 1301, 1302, 1303, 1304, 1305, 1306, 1307, 1308, 1309, 1310, 1311, 1312
1313, 1314, 1315, 1316, 1317, 1318, 1319, 1320, 1321, 1322, 1323, 1324, 1325, 1326, 1327, 1328
1329, 1330, 1331, 1332, 1333, 1334, 1335, 1336, 1337, 1338, 1339, 1340, 1341, 1342, 1343, 1344
1345, 1346, 1347, 1348, 1349, 1350, 1351, 1352, 1353, 1354, 1355, 1356, 1357, 1358, 1359, 1360
1361, 1362, 1363, 1364, 1365, 1366, 1367, 1368, 1369, 1370, 1371, 1372, 1373, 1374, 1375, 1376
1377, 1378, 1379, 1380, 1381, 1382, 1383, 1384, 1385, 1386, 1387, 1388, 1389, 1390, 1391, 1392
1393, 1394, 1395, 1396, 1397, 1398, 1399, 1400, 1401, 1402, 1403, 1404, 1405, 1406, 1407, 1408
1409, 1410, 1411, 1412, 1413, 1414, 1415, 1416, 1417, 1418, 1419, 1420, 1421, 1422, 1423, 1424
1425, 1426, 1427, 1428, 1429, 1430, 1431, 1432, 1433, 1434, 1435, 1436, 1437, 1438, 1439, 1440
1441, 1442, 1443, 1444, 1445, 1446, 1447, 1448, 1449, 1450, 1451, 1452, 1453, 1454, 1455, 1456
1457, 1458, 1459, 1460, 1461, 1462, 1463, 1464, 1465, 1466, 1467, 1468, 1469, 1470, 1471, 1472
1473, 1474, 1475, 1476, 1477, 1478, 1479, 1480, 1481, 1482, 1483, 1484, 1485, 1486, 1487, 1488
1489, 1490, 1491, 1492, 1493, 1494, 1495, 1496, 1497, 1498, 1499, 1500, 1501, 1502, 1503, 1504
1505, 1506, 1507, 1508, 1509, 1510, 1511, 1512, 1513, 1514, 1515, 1516, 1517, 1518, 1519, 1520
1521, 1522, 1523, 1524, 1525, 1526, 1527, 1528, 1529, 1530, 1531, 1532, 1533, 1534, 1535, 1536
1537, 1538, 1539, 1540, 1541, 1542, 1543, 1544, 1545, 1546, 1547, 1548, 1549, 1550, 1551, 1552
1553, 1554, 1555, 1556, 1557, 1558, 1559, 1560, 1561, 1562, 1563, 1564, 1565, 1566, 1567, 1568
1569, 1570, 1571, 1572, 1573, 1574, 1575, 1576, 1577, 1578, 1579, 1580, 1581, 1582, 1583, 1584
1585, 1586, 1587, 1588, 1589, 1590, 1591, 1592, 1593, 1594, 1595, 1596, 1597, 1598, 1599, 1600
1601, 1602, 1603, 1604, 1605, 1606, 1607, 1608, 1609, 1610, 1611, 1612, 1613, 1614, 1615, 1616
1617, 1618, 1619, 1620, 1621, 1622, 1623, 1624, 1625, 1626, 1627, 1628, 1629, 1630, 1631, 1632
1633, 1634, 1635, 1636, 1637, 1638, 1639, 1640, 1641, 1642, 1643, 1644, 1645, 1646, 1647, 1648
1649, 1650, 1651, 1652, 1653, 1654, 1655, 1656, 1657, 1658, 1659, 1660, 1661, 1662, 1663, 1664
1665, 1666, 1667, 1668, 1669, 1670, 1671, 1672, 1673, 1674, 1675, 1676, 1677, 1678, 1679, 1680
1681, 1682, 1683, 1684, 1685, 1686, 1687, 1688, 1689, 1690, 1691, 1692, 1693, 1694, 1695, 1696
1697, 1698, 1699, 1700, 1701, 1702, 1703, 1704, 1705, 1706, 1707, 1708, 1709, 1710, 1711, 1712
1713, 1714, 1715, 1716, 1717, 1718, 1719, 1720, 1721, 1722, 1723, 1724, 1725, 1726, 1727, 1728
1729, 1730, 1731, 1732, 1733, 1734, 1735, 1736, 1737, 1738, 1739, 1740, 1741, 1742, 1743, 1744
1745, 1746, 1747, 1748, 1749, 1750, 1751, 1752, 1753, 1754, 1755, 1756, 1757, 1758, 1759, 1760
1761, 1762, 1763, 1764, 1765, 1766, 1767, 1768, 1769, 1770, 1771, 1772, 1773, 1774, 1775, 1776
1777, 1778, 1779, 1780, 1781, 1782, 1783, 1784, 1785, 1786, 1787, 1788, 1789, 1790, 1791, 1792
1793, 1794, 1795, 1796, 1797, 1798, 1799, 1800, 1801, 1802, 1803, 1804, 1805, 1806, 1807, 1808
1809, 1810, 1811, 1812, 1813, 1814, 1815, 1816, 1817, 1818, 1819, 1820, 1821, 1822, 1823, 1824
1825, 1826, 1827, 1828, 1829, 1830, 1831, 1832, 1833, 1834, 1835, 1836, 1837, 1838, 1839, 1840
1841, 1842, 1843, 1844, 1845, 1846, 1847, 1848, 1849, 1850, 1851, 1852, 1853, 1854, 1855, 1856
1857, 1858, 1859, 1860, 1861, 1862, 1863, 1864, 1865, 1866, 1867, 1868, 1869, 1870, 1871, 1872
1873, 1874, 1875, 1876, 1877, 1878, 1879, 1880, 1881, 1882, 1883, 1884, 1885, 1886, 1887, 1888
1889, 1890, 1891, 1892, 1893, 1894, 1895, 1896, 1897, 1898, 1899, 1900, 1901, 1902, 1903, 1904
1905, 1906, 1907, 1908, 1909, 1910, 1911, 1912, 1913, 1914, 1915, 1916, 1917, 1918, 1919, 1920
1921, 1922, 1923, 1924, 1925, 1926, 1927, 1928, 1929, 1930, 1931, 1932, 1933, 1934, 1935, 1936
1937, 1938, 1939, 1940, 1941, 1942, 1943, 1944, 1945, 1946, 1947, 1948, 1949, 1950, 1951, 1952
1953, 1954, 1955, 1956, 1957, 1958, 1959, 1960, 1961, 1962, 1963, 1964, 1965, 1966, 1967, 1968
1969, 1970, 1971, 1972, 1973, 1974, 1975, 1976, 1977, 1978, 1979, 1980, 1981, 1982, 1983, 1984
1985, 1986, 1987, 1988, 1989, 1990, 1991, 1992, 1993, 1994, 1995, 1996, 1997, 1998, 1999, 2000
2001, 2002, 2003, 2004, 2005, 2006, 2007, 2008, 2009, 2010, 2011, 2012, 2013, 2014, 2015, 2016
2017, 2018, 2019, 2020, 2021, 2022, 2023, 2024, 2025, 2026, 2027, 2028, 2029, 2030, 2031, 2032
2033, 2034, 2035, 2036, 2037, 2038, 2039, 2040, 2041, 2042, 2043, 2044, 2045, 2046, 2047, 2048
2049, 2050, 2051, 2052, 2053, 2054, 2055, 2056, 2057, 2058, 2059, 2060, 2061, 2062, 2063, 2064
2065, 2066, 2067, 2068, 2069, 2070, 2071, 2072, 2073, 2074, 2075, 2076, 2077, 2078, 2079, 2080
2081, 2082, 2083, 2084, 2085, 2086, 2087, 2088, 2089, 2090, 2091, 2092, 2093, 2094, 2095, 2096
2097, 2098, 2099, 2100, 2101, 2102, 2103, 2104, 2105, 2106, 2107, 2108, 2109, 2110, 2111, 2112
2113, 2114, 2115, 2116, 2117, 2118, 2119, 2120, 2121, 2122, 2123, 2124, 2125, 2126, 2127, 2128
2129, 2130, 2131, 2132, 2133, 2134, 2135, 2136, 2137, 2138, 2139, 2140, 2141, 2142, 2143, 2144
2145, 2146, 2147, 2148, 2149, 2150, 2151, 2152, 2153, 2154, 2155, 2156, 2157, 2158, 2159, 2160
2161, 2162, 2163, 2164, 2165, 2166, 2167, 2168, 2169, 2170, 2171, 2172, 2173, 2174, 2175, 2176
2177, 2178, 2179, 2180, 2181, 2182, 2183, 2184, 2185, 2186, 2187, 2188, 2189, 2190, 2191, 2192
2193, 2194, 2195, 2196, 2197, 2198, 2199, 2200, 2201, 2202, 2203, 2204, 2205, 2206, 2207, 2208
2209, 2210, 2211, 2212, 2213, 2214, 2215, 2216, 2217, 2218, 2219, 2220, 2221, 2222, 2223, 2224
2225, 2226, 2227, 2228, 2229, 2230, 2231, 2232, 2233, 2234, 2235, 2236, 2237, 2238, 2239, 2240
2241, 2242, 2243, 2244, 2245, 2246, 2247, 2248, 2249, 2250, 2251, 2252, 2253, 2254, 2255, 2256
2257, 2258, 2259, 2260, 2261, 2262, 2263, 2264, 2265, 2266, 2267, 2268, 2269, 2270, 2271, 2272
2273, 2274, 2275, 2276, 2277, 2278, 2279, 2280, 2281, 2282, 2283, 2284, 2285, 2286, 2287, 2288
2289, 2290, 2291, 2292, 2293, 2294, 2295, 2296, 2297, 2298, 2299, 2300, 2301, 2302, 2303, 2304
2305, 2306, 2307, 2308, 2309, 2310, 2311, 2312, 2313, 2314, 2315, 2316, 2317, 2318, 2319, 2320
2321, 2322, 2323, 2324, 2325, 2326, 2327, 2328, 2329, 2330, 2331, 2332, 2333, 2334, 2335, 2336
2337, 2338, 2339, 2340, 2341, 2342, 2343, 2344, 2345, 2346, 2347, 2348, 2349, 2350, 2351, 2352
2353, 2354, 2355, 2356, 2357, 2358, 2359, 2360, 2361, 2362, 2363, 2364, 2365, 2366, 2367, 2368
2369, 2370, 2371, 2372, 2373, 2374, 2375, 2376, 2377, 2378, 2379, 2380, 2381, 2382, 2383, 2384
2385, 2386, 2387, 2388, 2389, 2390, 2391, 2392, 2393, 2394, 2395, 2396, 2397, 2398, 2399, 2400
2401, 2402, 2403, 2404, 2405, 2406, 2407, 2408, 2409, 2410, 2411, 2412, 2413, 2414, 2415, 2416
2417, 2418, 2419, 2420, 2421, 2422, 2423, 2424, 2425, 2426, 2427, 2428, 2429, 2430, 2431, 2432
2433, 2434, 2435, 2436, 2437, 2438, 2439, 2440, 2441, 2442, 2443, 2444, 2445, 2446, 2447, 2448
2449, 2450, 2451, 2452, 2453, 2454, 2455, 2456, 2457, 2458, 2459, 2460, 2461, 2462, 2463, 2464
2465, 2466, 2467, 2468, 2469, 2470, 2471, 2472, 2473, 2474, 2475, 2476, 2477, 2478, 2479, 2480
2481, 2482, 2483, 2484, 2485, 2486, 2487, 2488, 2489, 2490, 2491, 2492, 2493, 2494, 2495, 2496
2497, 2498, 2499, 2500, 2501, 2502, 2503, 2504, 2505, 2506, 2507, 2508, 2509, 2510, 2511, 2512
2513, 2514, 2515, 2516, 2517, 2518, 2519, 2520, 2521, 2522, 2523, 2524, 2525, 2526, 2527, 2528
2529, 2530, 2531, 2532, 2533, 2534, 2535, 2536, 2537, 2538, 2539, 2540, 2541, 2542, 2543, 2544
2545, 2546, 2547, 2548, 2549, 2550, 2551, 2552, 2553, 2554, 2555, 2556, 2557, 2558, 2559, 2560
2561, 2562, 2563, 2564, 2565, 2566, 2567, 2568, 2569, 2570, 2571, 2572, 2573, 2574, 2575, 2576
2577, 2578, 2579, 2580, 2581, 2582, 2583, 2584, 2585, 2586, 2587, 2588, 2589, 2590, 2591, 2592
2593, 2594, 2595, 2596, 2597, 2598, 2599, 2600, 2601, 2602, 2603, 2604, 2605, 2606, 2607, 2608
2609, 2610, 2611, 2612, 2613, 2614, 2615, 2616, 2617, 2618, 2619, 2620, 2621, 2622, 2623, 2624
2625, 2626, 2627, 2628, 2629, 2630, 2631, 2632, 2633, 2634, 2635, 2636, 2637, 2638, 2639, 2640
2641, 2642, 2643, 2644, 2645, 2646, 2647, 2648, 2649, 2650, 2651, 2652, 2653, 2654, 2655, 2656
2657, 2658, 2659, 2660, 2661, 2662, 2663, 2664, 2665, 2666, 2667, 2668, 2669, 2670, 2671, 2672
2673, 2674, 2675, 2676, 2677, 2678, 2679, 2680, 2681, 2682, 2683, 2684, 2685, 2686, 2687, 2688
2689, 2690, 2691, 2692, 2693, 2694, 2695, 2696, 2697, 2698, 2699, 2700, 2701, 2702, 2703, 2704
2705, 2706, 2707, 2708, 2709, 2710, 2711, 2712, 2713, 2714, 2715, 2716, 2717, 2718, 2719, 2720
2721, 2722, 2723, 2724, 2725, 2726, 2727, 2728, 2729, 2730, 2731, 2732, 2733, 2734, 2735, 2736
2737, 2738, 2739, 2740, 2741, 2742, 2743, 2744, 2745, 2746, 2747, 2748, 2749, 2750, 2751, 2752
2753, 2754, 2755, 2756, 2757, 2758, 2759, 2760, 2761, 2762, 2763, 2764, 2765, 2766, 2767, 2768
2769, 2770, 2771, 2772, 2773, 2774, 2775, 2776, 2777, 2778, 2779, 2780, 2781, 2782, 2783, 2784
2785, 2786, 2787, 2788, 2789, 2790, 2791, 2792, 2793, 2794, 2795, 2796, 2797, 2798, 2799, 2800
2801, 2802, 2803, 2804, 2805, 2806, 2807, 2808, 2809, 2810, 2811, 2812, 2813, 2814, 2815, 2816
2817, 2818, 2819, 2820, 2821, 2822, 2823, 2824, 2825, 2826, 2827, 2828, 2829, 2830, 2831, 2832
2833, 2834, 2835, 2836, 2837, 2838, 2839, 2840, 2841, 2842, 2843, 2844, 2845, 2846, 2847, 2848
2849, 2850, 2851, 2852, 2853, 2854, 2855, 2856, 2857, 2858, 2859, 2860, 2861, 2862, 2863, 2864
2865, 2866, 2867, 2868, 2869, 2870, 2871, 2872, 2873, 2874, 2875, 2876, 2877, 2878, 2879, 2880
2881, 2882, 2883, 2884, 2885, 2886, 2887, 2888, 2889, 2890, 2891, 2892, 2893, 2894, 2895, 2896
2897, 2898, 2899, 2900, 2901, 2902, 2903, 2904, 2905, 2906, 2907, 2908, 2909, 2910, 2911, 2912
2913, 2914, 2915, 2916, 2917, 2918, 2919, 2920, 2921, 2922, 2923, 2924, 2925, 2926, 2927, 2928
2929, 2930, 2931, 2932, 2933, 2934, 2935, 2936, 2937, 2938, 2939, 2940, 2941, 2942, 2943, 2944
2945, 2946, 2947, 2948, 2949, 2950, 2951, 2952, 2953, 2954, 2955, 2956, 2957, 2958, 2959, 2960
2961, 2962, 2963, 2964, 2965, 2966, 2967, 2968, 2969, 2970, 2971, 2972, 2973, 2974, 2975, 2976
2977, 2978, 2979, 2980, 2981, 2982, 2983, 2984, 2985, 2986, 2987, 2988, 2989, 2990, 2991, 2992
2993, 2994, 2995, 2996, 2997, 2998, 2999, 3000, 3001, 3002, 3003, 3004, 3005, 3006, 3007, 3008
3009, 3010, 3011, 3012, 3013, 3014, 3015, 3016, 3017, 3018, 3019, 3020, 3021, 3022, 3023, 3024
3025, 3026, 3027, 3028, 3029, 3030, 3031, 3032, 3033, 3034, 3035, 3036, 3037, 3038, 3039, 3040
3041, 3042, 3043, 3044, 3045, 3046, 3047, 3048, 3049, 3050, 3051, 3052, 3053, 3054, 3055, 3056
3057, 3058, 3059, 3060, 3061, 3062, 3063, 3064, 3065, 3066, 3067, 3068, 3069, 3070, 3071, 3072
3073, 3074, 3075, 3076, 3077, 3078, 3079, 3080, 3081, 3082, 3083, 3084, 3085, 3086, 3087, 3088
3089, 3090, 3091, 3092, 3093, 3094, 3095, 3096, 3097, 3098, 3099, 3100, 3101, 3102, 3103, 3104
3105, 3106, 3107, 3108, 3109, 3110, 3111, 3112, 3113, 3114, 3115, 3116, 3117, 3118, 3119, 3120
3121, 3122, 3123, 3124, 3125, 3126, 3127, 3128, 3129, 3130, 3131, 3132, 3133, 3134, 3135, 3136
3137, 3138, 3139, 3140, 3141, 3142, 3143, 3144, 3145, 3146, 3147, 3148, 3149, 3150, 3151, 3152
3153, 3154, 3155, 3156, 3157, 3158, 3159, 3160, 3161, 3162, 3163, 3164, 3165, 3166, 3167, 3168
3169, 3170, 3171, 3172, 3173, 3174, 3175, 3176, 3177, 3178, 3179, 3180, 3181, 3182, 3183, 3184
3185, 3186, 3187, 3188, 3189, 3190, 3191, 3192, 3193, 3194, 3195, 3196, 3197, 3198, 3199, 3200
3201, 3202, 3203, 3204, 3205, 3206, 3207, 3208, 3209, 3210, 3211, 3212, 3213, 3214, 3215, 3216
3217, 3218, 3219, 3220, 3221, 3222, 3223, 3224, 3225, 3226, 3227, 3228, 3229, 3230, 3231, 3232
3233, 3234, 3235, 3236, 3237, 3238, 3239, 3240, 3241, 3242, 3243, 3244, 3245, 3246, 3247, 3248
3249, 3250, 3251, 3252, 3253, 3254, 3255, 3256, 3257, 3258, 3259, 3260, 3261, 3262, 3263, 3264
3265, 3266, 3267, 3268, 3269, 3270, 3271, 3272, 3273, 3274, 3275, 3276, 3277, 3278, 3279, 3280
3281, 3282, 3283, 3284, 3285, 3286, 3287, 3288, 3289, 3290, 3291, 3292, 3293, 3294, 3295, 3296
3297, 3298, 3299, 3300, 3301, 3302, 3303, 3304, 3305, 3306, 3307, 3308, 3309, 3310, 3311, 3312
3313, 3314, 3315, 3316, 3317, 3318, 3319, 3320, 3321, 3322, 3323, 3324, 3325, 3326, 3327, 3328
3329, 3330, 3331, 3332, 3333, 3334, 3335, 3336, 3337, 3338, 3339, 3340, 3341, 3342, 3343, 3344
3345, 3346, 3347, 3348, 3349, 3350, 3351, 3352, 3353, 3354, 3355, 3356, 3357, 3358, 3359, 3360
3361, 3362, 3363, 3364, 3365, 3366, 3367, 3368, 3369, 3370, 3371, 3372, 3373, 3374, 3375, 3376
3377, 3378, 3379, 3380, 3381, 3382, 3383, 3384, 3385, 3386, 3387, 3388, 3389, 3390, 3391, 3392
3393, 3394, 3395, 3396, 3397, 3398, 3399, 3400, 3401, 3402, 3403, 3404, 3405, 3406, 3407, 3408
3409, 3410, 3411, 3412, 3413, 3414, 3415, 3416, 3417, 3418, 3419, 3420, 3421, 3422, 3423, 3424
3425, 3426, 3427, 3428, 3429, 3430, 3431, 3432, 3433, 3434, 3435, 3436, 3437, 3438, 3439, 3440
3441, 3442, 3443, 3444, 3445, 3446, 3447, 3448, 3449, 3450, 3451, 3452, 3453, 3454, 3455, 3456
3457, 3458, 3459, 3460, 3461, 3462, 3463, 3464, 3465, 3466, 3467, 3468, 3469, 3470, 3471, 3472
3473, 3474, 3475, 3476, 3477, 3478, 3479, 3480, 3481, 3482, 3483, 3484, 3485, 3486, 3487, 3488
3489, 3490, 3491, 3492, 3493, 3494, 3495, 3496, 3497, 3498, 3499, 3500, 3501, 3502, 3503, 3504
3505, 3506, 3507, 3508, 3509, 3510, 3511, 3512, 3513, 3514, 3515, 3516, 3517, 3518, 3519, 3520
3521, 3522, 3523, 3524, 3525, 3526, 3527, 3528, 3529, 3530, 3531, 3532, 3533, 3534, 3535, 3536
3537, 3538, 3539, 3540, 3541, 3542, 3543, 3544, 3545, 3546, 3547, 3548, 3549, 3550, 3551, 3552
3553, 3554, 3555, 3556, 3557, 3558, 3559, 3560, 3561, 3562, 3563, 3564, 3565, 3566, 3567, 3568
3569, 3570, 3571, 3572, 3573, 3574, 3575, 3576, 3577, 3578, 3579, 3580, 3581, 3582, 3583, 3584
3585, 3586, 3587, 3588, 3589, 3590, 3591, 3592, 3593, 3594, 3595, 3596, 3597, 3598, 3599, 3600
3601, 3602, 3603, 3604, 3605, 3606, 3607, 3608, 3609, 3610, 3611, 3612, 3613, 3614, 3615, 3616
3617, 3618, 3619, 3620, 3621, 3622, 3623, 3624, 3625, 3626, 3627, 3628, 3629, 3630, 3631, 3632
3633, 3634, 3635, 3636, 3637, 3638, 3639, 3640, 3641, 3642, 3643, 3644, 3645, 3646, 3647, 3648
3649, 3650, 3651, 3652, 3653, 3654, 3655, 3656, 3657, 3658, 3659, 3660, 3661, 3662, 3663, 3664
3665, 3666, 3667, 3668, 3669, 3670, 3671, 3672, 3673, 3674, 3675, 3676, 3677, 3678, 3679, 3680
3681, 3682, 3683, 3684, 3685, 3686, 3687, 3688, 3689, 3690, 3691, 3692, 3693, 3694, 3695, 3696
3697, 3698, 3699, 3700, 3701, 3702, 3703, 3704, 3705, 3706, 3707, 3708, 3709, 3710, 3711, 3712
3713, 3714, 3715, 3716, 3717, 3718, 3719, 3720, 3721, 3722, 3723, 3724, 3725, 3726, 3727, 3728
3729, 3730, 3731, 3732, 3733, 3734, 3735, 3736, 3737, 3738, 3739, 3740, 3741, 3742, 3743, 3744
3745, 3746, 3747, 3748, 3749, 3750, 3751, 3752, 3753, 3754, 3755, 3756, 3757, 3758, 3759, 3760
3761, 3762, 3763, 3764, 3765, 3766, 3767, 3768, 3769, 3770, 3771, 3772, 3773, 3774, 3775, 3776
3777, 3778, 3779, 3780, 3781, 3782, 3783, 3784, 3785, 3786, 3787, 3788, 3789, 3790, 3791, 3792
3793, 3794, 3795, 3796, 3797, 3798, 3799, 3800, 3801, 3802, 3803, 3804, 3805, 3806, 3807, 3808
3809, 3810, 3811, 3812, 3813, 3814, 3815, 3816, 3817, 3818, 3819, 3820, 3821, 3822, 3823, 3824
3825, 3826, 3827, 3828, 3829, 3830, 3831, 3832, 3833, 3834, 3835, 3836, 3837, 3838, 3839, 3840
3841, 3842, 3843, 3844, 3845, 3846, 3847, 3848, 3849, 3850, 3851, 3852, 3853, 3854, 3855, 3856
3857, 3858, 3859, 3860, 3861, 3862, 3863, 3864, 3865, 3866, 3867, 3868, 3869, 3870, 3871, 3872
3873, 3874, 3875, 3876, 3877, 3878, 3879, 3880, 3881, 3882, 3883, 3884, 3885, 3886, 3887, 3888
3889, 3890, 3891, 3892, 3893, 3894, 3895, 3896, 3897, 3898, 3899, 3900, 3901, 3902, 3903, 3904
3905, 3906, 3907, 3908, 3909, 3910, 3911, 3912, 3913, 3914, 3915, 3916, 3917, 3918, 3919, 3920
3921, 3922, 3923, 3924, 3925, 3926, 3927, 3928, 3929, 3930, 3931, 3932, 3933, 3934, 3935, 3936
3937, 3938, 3939, 3940, 3941, 3942, 3943, 3944, 3945, 3946, 3947, 3948, 3949, 3950, 3951, 3952
3953, 3954, 3955, 3956, 3957, 3958, 3959, 3960, 3961, 3962, 3963, 3964, 3965, 3966, 3967, 3968
3969, 3970, 3971, 3972, 3973, 3974, 3975, 3976, 3977, 3978, 3979, 3980, 3981, 3982, 3983, 3984
3985, 3986, 3987, 3988, 3989, 3990, 3991, 3992, 3993, 3994, 3995, 3996, 3997, 3998, 3999, 4000
4001, 4002, 4003, 4004, 4005, 4006, 4007, 4008, 4009, 4010, 4011, 4012, 4013, 4014, 4015, 4016
4017, 4018, 4019, 4020, 4021, 4022, 4023, 4024, 4025, 4026, 4027, 4028, 4029, 4030, 4031, 4032
4033, 4034, 4035, 4036, 4037, 4038, 4039, 4040, 4041, 4042, 4043, 4044, 4045, 4046, 4047, 4048
4049, 4050, 4051, 4052, 4053, 4054, 4055, 4056, 4057, 4058, 4059, 4060, 4061, 4062, 4063, 4064
4065, 4066, 4067, 4068, 4069, 4070, 4071, 4072, 4073, 4074, 4075, 4076, 4077, 4078, 4079, 4080
4081, 4082, 4083, 4084, 4085, 4086, 4087, 4088, 4089, 4090, 4091, 4092, 4093, 4094, 4095, 4096
4097, 4098, 4099, 4100, 4101, 4102, 4103, 4104, 4105, 4106, 4107, 4108, 4109, 4110, 4111, 4112
4113, 4114, 4115, 4116, 4117, 4118, 4119, 4120, 4121, 4122, 4123, 4124, 4125, 4126, 4127, 4128
4129, 4130, 4131, 4132, 4133, 4134, 4135, 4136, 4137, 4138, 4139, 4140, 4141, 4142, 4143, 4144
4145, 4146, 4147, 4148, 4149, 4150, 4151, 4152, 4153, 4154, 4155, 4156, 4157, 4158, 4159, 4160
4161, 4162, 4163, 4164, 4165, 4166, 4167, 4168, 4169, 4170, 4171, 4172, 4173, 4174, 4175, 4176
4177, 4178, 4179, 4180, 4181, 4182, 4183, 4184, 4185, 4186, 4187, 4188, 4189, 4190, 4191, 4192
4193, 4194, 4195, 4196, 4197, 4198, 4199, 4200, 4201, 4202, 4203, 4204, 4205, 4206, 4207, 4208
4209, 4210, 4211, 4212, 4213, 4214, 4215, 4216, 4217, 4218, 4219, 4220, 4221, 4222, 4223, 4224
4225, 4226, 4227, 4228, 4229, 4230, 4231, 4232, 4233, 4234, 4235, 4236, 4237, 4238, 4239, 4240
4241, 4242, 4243, 4244, 4245, 4246, 4247, 4248, 4249, 4250, 4251, 4252, 4253, 4254, 4255, 4256
4257, 4258, 4259, 4260, 4261, 4262, 4263, 4264, 4265, 4266, 4267, 4268, 4269, 4270, 4271, 4272
4273, 4274, 4275, 4276, 4277, 4278, 4279, 4280, 4281, 4282, 4283, 4284, 4285, 4286, 4287, 4288
4289, 4290, 4291, 4292, 4293, 4294, 4295, 4296, 4297, 4298, 4299, 4300, 4301, 4302, 4303, 4304
4305, 4306, 4307, 4308, 4309, 4310, 4311, 4312, 4313, 4314, 4315, 4316, 4317, 4318, 4319, 4320
4321, 4322, 4323, 4324, 4325, 4326, 4327, 4328, 4329, 4330, 4331, 4332, 4333, 4334, 4335, 4336
4337, 4338, 4339, 4340, 4341, 4342, 4343, 4344, 4345, 4346, 4347, 4348, 4349, 4350, 4351, 4352
4353, 4354, 4355, 4356, 4357, 4358, 4359, 4360, 4361, 4362, 4363, 4364, 4365, 4366, 4367, 4368
4369, 4370, 4371, 4372, 4373, 4374, 4375, 4376, 4377, 4378, 4379, 4380, 4381, 4382, 4383, 4384
4385, 4386, 4387, 4388, 4389, 4390, 4391, 4392, 4393, 4394, 4395, 4396, 4397, 4398, 4399, 4400
4401, 4402, 4403, 4404, 4405, 4406, 4407, 4408, 4409, 4410, 4411, 4412, 4413, 4414, 4415, 4416
4417, 4418, 4419, 4420, 4421, 4422, 4423, 4424, 4425, 4426, 4427, 4428, 4429, 4430, 4431, 4432
4433, 4434, 4435, 4436, 4437, 4438, 4439, 4440, 4441, 4442, 4443, 4444, 4445, 4446, 4447, 4448
4449, 4450, 4451, 4452, 4453, 4454, 4455, 4456, 4457, 4458, 4459, 4460, 4461, 4462, 4463, 4464
4465, 4466, 4467, 4468, 4469, 4470, 4471, 4472, 4473, 4474, 4475, 4476, 4477, 4478, 4479, 4480
4481, 4482, 4483, 4484, 4485, 4486, 4487, 4488, 4489, 4490, 4491, 4492, 4493, 4494, 4495, 4496
4497, 4498, 4499, 4500, 4501, 4502, 4503, 4504, 4505, 4506, 4507, 4508, 4509, 4510, 4511, 4512
4513, 4514, 4515, 4516, 4517, 4518, 4519, 4520, 4521, 4522, 4523, 4524, 4525, 4526, 4527, 4528
4529, 4530, 4531, 4532, 4533, 4534, 4535, 4536, 4537, 4538, 4539, 4540, 4541, 4542, 4543, 4544
4545, 4546, 4547, 4548, 4549, 4550, 4551, 4552, 4553, 4554, 4555, 4556, 4557, 4558, 4559, 4560
4561, 4562, 4563, 4564, 4565, 4566, 4567, 4568, 4569, 4570, 4571, 4572, 4573, 4574, 4575, 4576
4577, 4578, 4579, 4580, 4581, 4582, 4583, 4584, 4585, 4586, 4587, 4588, 4589, 4590, 4591, 4592
4593, 4594, 4595, 4596, 4597, 4598, 4599, 4600, 4601, 4602, 4603, 4604, 4605, 4606, 4607, 4608
4609, 4610, 4611, 4612, 4613, 4614, 4615, 4616, 4617, 4618, 4619, 4620, 4621, 4622, 4623, 4624
4625, 4626, 4627, 4628, 4629, 4630, 4631, 4632, 4633, 4634, 4635, 4636, 4637, 4638, 4639, 4640
4641, 4642, 4643, 4644, 4645, 4646, 4647, 4648, 4649, 4650, 4651, 4652, 4653, 4654, 4655, 4656
4657, 4658, 4659, 4660, 4661, 4662, 4663, 4664, 4665, 4666, 4667, 4668, 4669, 4670, 4671, 4672
4673, 4674, 4675, 4676, 4677, 4678, 4679, 4680, 4681, 4682, 4683, 4684, 4685, 4686, 4687, 4688
4689, 4690, 4691, 4692, 4693, 4694, 4695, 4696, 4697, 4698, 4699, 4700, 4701, 4702, 4703, 4704
4705, 4706, 4707, 4708, 4709, 4710, 4711, 4712, 4713, 4714, 4715, 4716, 4717, 4718, 4719, 4720
4721, 4722, 4723, 4724, 4725, 4726, 4727, 4728, 4729, 4730, 4731, 4732, 4733, 4734, 4735, 4736
4737, 4738, 4739, 4740, 4741, 4742, 4743, 4744, 4745, 4746, 4747, 4748, 4749, 4750, 4751, 4752
4753, 4754, 4755, 4756, 4757, 4758, 4759, 4760, 4761, 4762, 4763, 4764, 4765, 4766, 4767, 4768
4769, 4770, 4771, 4772, 4773, 4774, 4775, 4776, 4777, 4778, 4779, 4780, 4781, 4782, 4783, 4784
4785, 4786, 4787, 4788, 4789, 4790, 4791, 4792, 4793, 4794, 4795, 4796, 4797, 4798, 4799, 4800
4801, 4802, 4803, 4804, 4805, 4806, 4807, 4808, 4809, 4810, 4811, 4812, 4813, 4814, 4815, 4816
4817, 4818, 4819, 4820, 4821, 4822, 4823, 4824, 4825, 4826, 4827, 4828, 4829, 4830, 4831, 4832
4833, 4834, 4835, 4836, 4837, 4838, 4839, 4840, 4841, 4842, 4843, 4844, 4845, 4846, 4847, 4848
4849, 4850, 4851, 4852, 4853, 4854, 4855, 4856, 4857, 4858, 4859, 4860, 4861, 4862, 4863, 4864
4865, 4866, 4867, 4868, 4869, 4870, 4871, 4872, 4873, 4874, 4875, 4876, 4877, 4878, 4879, 4880
4881, 4882, 4883, 4884, 4885, 4886, 4887, 4888, 4889, 4890, 4891, 4892, 4893, 4894, 4895, 4896
4897, 4898, 4899, 4900, 4901, 4902, 4903, 4904, 4905, 4906, 4907, 4908, 4909, 4910, 4911, 4912
4913, 4914, 4915, 4916, 4917, 4918, 4919, 4920, 4921, 4922, 4923, 4924, 4925, 4926, 4927, 4928
4929, 4930, 4931, 4932, 4933, 4934, 4935, 4936, 4937, 4938, 4939, 4940, 4941, 4942, 4943, 4944
4945, 4946, 4947, 4948, 4949, 4950, 4951, 4952, 4953, 4954, 4955, 4956, 4957, 4958, 4959, 4960
4961, 4962, 4963, 4964, 4965, 4966, 4967, 4968, 4969, 4970, 4971, 4972, 4973, 4974, 4975, 4976
4977, 4978, 4979, 4980, 4981, 4982, 4983, 4984, 4985, 4986, 4987, 4988, 4989, 4990, 4991, 4992
4993, 4994, 4995, 4996, 4997, 4998, 4999, 5000, 5001, 5002, 5003, 5004, 5005, 5006, 5007, 5008
5009, 5010, 5011, 5012, 5013, 5014, 5015, 5016, 5017, 5018, 5019, 5020, 5021, 5022, 5023, 5024
5025, 5026, 5027, 5028, 5029, 5030, 5031, 5032, 5033, 5034, 5035, 5036, 5037, 5038, 5039, 5040
5041, 5042, 5043, 5044, 5045, 5046, 5047, 5048, 5049, 5050, 5051, 5052, 5053, 5054, 5055, 5056
5057, 5058, 5059, 5060, 5061, 5062, 5063, 5064, 5065, 5066, 5067, 5068, 5069, 5070, 5071, 5072
5073, 5074, 5075, 5076, 5077, 5078, 5079, 5080, 5081, 5082, 5083, 5084, 5085, 5086, 5087, 5088
5089, 5090, 5091, 5092, 5093, 5094, 5095, 5096, 5097, 5098, 5099, 5100, 5101, 5102, 5103, 5104
5105, 5106, 5107, 5108, 5109, 5110, 5111, 5112, 5113, 5114, 5115, 5116, 5117, 5118, 5119, 5120
5121, 5122, 5123, 5124, 5125, 5126, 5127, 5128, 5129, 5130, 5131, 5132, 5133, 5134, 5135, 5136
5137, 5138, 5139, 5140, 5141, 5142, 5143, 5144, 5145, 5146, 5147, 5148, 5149, 5150, 5151, 5152
5153, 5154, 5155, 5156, 5157, 5158, 5159, 5160, 5161, 5162, 5163, 5164, 5165, 5166, 5167, 5168
5169, 5170, 5171, 5172, 5173, 5174, 5175, 5176, 5177, 5178, 5179, 5180, 5181, 5182, 5183, 5184
5185, 5186, 5187, 5188, 5189, 5190, 5191, 5192, 5193, 5194, 5195, 5196, 5197, 5198, 5199, 5200
5201, 5202, 5203, 5204, 5205, 5206, 5207, 5208, 5209, 5210, 5211, 5212, 5213, 5214, 5215, 5216
5217, 5218, 5219, 5220, 5221, 5222, 5223, 5224, 5225, 5226, 5227, 5228, 5229, 5230, 5231, 5232
5233, 5234, 5235, 5236, 5237, 5238, 5239, 5240, 5241, 5242, 5243, 5244, 5245, 5246, 5247, 5248
5249, 5250, 5251, 5252, 5253, 5254, 5255, 5256, 5257, 5258, 5259, 5260, 5261, 5262, 5263, 5264
5265, 5266, 5267, 5268, 5269, 5270, 5271, 5272, 5273, 5274, 5275, 5276, 5277, 5278, 5279, 5280
5281, 5282, 5283, 5284, 5285, 5286, 5287, 5288, 5289, 5290, 5291, 5292, 5293, 5294, 5295, 5296
5297, 5298, 5299, 5300, 5301, 5302, 5303, 5304, 5305, 5306, 5307, 5308, 5309, 5310, 5311, 5312
5313, 5314, 5315, 5316, 5317, 5318, 5319, 5320, 5321, 5322, 5323, 5324, 5325, 5326, 5327, 5328
5329, 5330, 5331, 5332, 5333, 5334, 5335, 5336, 5337, 5338, 5339, 5340, 5341, 5342, 5343, 5344
5345, 5346, 5347, 5348, 5349, 5350, 5351, 5352, 5353, 5354, 5355, 5356, 5357, 5358, 5359, 5360
5361, 5362, 5363, 5364, 5365, 5366, 5367, 5368, 5369, 5370, 5371, 5372, 5373, 5374, 5375, 5376
5377, 5378, 5379, 5380, 5381, 5382, 5383, 5384, 5385, 5386, 5387, 5388, 5389, 5390, 5391, 5392
5393, 5394, 5395, 5396, 5397, 5398, 5399, 5400, 5401, 5402, 5403, 5404, 5405, 5406, 5407, 5408
5409, 5410, 5411, 5412, 5413, 5414, 5415, 5416, 5417, 5418, 5419, 5420, 5421, 5422, 5423, 5424
5425, 5426, 5427, 5428, 5429, 5430, 5431, 5432, 5433, 5434, 5435, 5436, 5437, 5438, 5439, 5440
5441, 5442, 5443, 5444, 5445, 5446, 5447, 5448, 5449, 5450, 5451, 5452, 5453, 5454, 5455, 5456
5457, 5458, 5459, 5460, 5461, 5462, 5463, 5464, 5465, 5466, 5467, 5468, 5469, 5470, 5471, 5472
5473, 5474, 5475, 5476, 5477, 5478, 5479, 5480, 5481, 5482, 5483, 5484, 5485, 5486, 5487, 5488
5489, 5490, 5491, 5492, 5493, 5494, 5495, 5496, 5497, 5498, 5499, 5500, 5501, 5502, 5503, 5504
5505, 5506, 5507, 5508, 5509, 5510, 5511, 5512, 5513, 5514, 5515, 5516, 5517, 5518, 5519, 5520
5521, 5522, 5523, 5524, 5525, 5526, 5527, 5528, 5529, 5530, 5531, 5532, 5533, 5534, 5535, 5536
5537, 5538, 5539, 5540, 5541, 5542, 5543, 5544, 5545, 5546, 5547, 5548, 5549, 5550, 5551, 5552
5553, 5554, 5555, 5556, 5557, 5558, 5559, 5560, 5561, 5562, 5563, 5564, 5565, 5566, 5567, 5568
5569, 5570, 5571, 5572, 5573, 5574, 5575, 5576, 5577, 5578, 5579, 5580, 5581, 5582, 5583, 5584
5585, 5586, 5587, 5588, 5589, 5590, 5591, 5592, 5593, 5594, 5595, 5596, 5597, 5598, 5599, 5600
5601, 5602, 5603, 5604, 5605, 5606, 5607, 5608, 5609, 5610, 5611, 5612, 5613, 5614, 5615, 5616
5617, 5618, 5619, 5620, 5621, 5622, 5623, 5624, 5625, 5626, 5627, 5628, 5629, 5630, 5631, 5632
5633, 5634, 5635, 5636, 5637, 5638, 5639, 5640, 5641, 5642, 5643, 5644, 5645, 5646, 5647, 5648
5649, 5650, 5651, 5652, 5653, 5654, 5655, 5656, 5657, 5658, 5659, 5660, 5661, 5662, 5663, 5664
5665, 5666, 5667, 5668, 5669, 5670, 5671, 5672, 5673, 5674, 5675, 5676, 5677, 5678, 5679, 5680
5681, 5682, 5683, 5684, 5685, 5686, 5687, 5688, 5689, 5690, 5691, 5692, 5693, 5694, 5695, 5696
5697, 5698, 5699, 5700, 5701, 5702, 5703, 5704, 5705, 5706, 5707, 5708, 5709, 5710, 5711, 5712
5713, 5714, 5715, 5716, 5717, 5718, 5719, 5720, 5721, 5722, 5723, 5724, 5725, 5726, 5727, 5728
5729, 5730, 5731, 5732, 5733, 5734, 5735, 5736, 5737, 5738, 5739, 5740, 5741, 5742, 5743, 5744
5745, 5746, 5747, 5748, 5749, 5750, 5751, 5752, 5753, 5754, 5755, 5756, 5757, 5758, 5759, 5760
5761, 5762, 5763, 5764, 5765, 5766, 5767, 5768, 5769, 5770, 5771, 5772, 5773, 5774, 5775, 5776
5777, 5778, 5779, 5780, 5781, 5782, 5783, 5784, 5785, 5786, 5787, 5788, 5789, 5790, 5791, 5792
5793, 5794, 5795, 5796, 5797, 5798, 5799, 5800, 5801, 5802, 5803, 5804, 5805, 5806, 5807, 5808
5809, 5810, 5811, 5812, 5813, 5814, 5815, 5816, 5817, 5818, 5819, 5820, 5821, 5822, 5823, 5824
5825, 5826, 5827, 5828, 5829, 5830, 5831, 5832, 5833, 5834, 5835, 5836, 5837, 5838, 5839, 5840
5841, 5842, 5843, 5844, 5845, 5846, 5847, 5848, 5849, 5850, 5851, 5852, 5853, 5854, 5855, 5856
5857, 5858, 5859, 5860, 5861, 5862, 5863, 5864, 5865, 5866, 5867, 5868, 5869, 5870, 5871, 5872
5873, 5874, 5875, 5876, 5877, 5878, 5879, 5880, 5881, 5882, 5883, 5884, 5885, 5886, 5887, 5888
5889, 5890, 5891, 5892, 5893, 5894, 5895, 5896, 5897, 5898, 5899, 5900, 5901, 5902, 5903, 5904
5905, 5906, 5907, 5908, 5909, 5910, 5911, 5912, 5913, 5914, 5915, 5916, 5917, 5918, 5919, 5920
5921, 5922, 5923, 5924, 5925, 5926, 5927, 5928, 5929, 5930, 5931, 5932, 5933, 5934, 5935, 5936
5937, 5938, 5939, 5940, 5941, 5942, 5943, 5944, 5945, 5946, 5947, 5948, 5949, 5950, 5951, 5952
5953, 5954, 5955, 5956, 5957, 5958, 5959, 5960, 5961, 5962, 5963, 5964, 5965, 5966, 5967, 5968
5969, 5970, 5971, 5972, 5973, 5974, 5975, 5976, 5977, 5978, 5979, 5980, 5981, 5982, 5983, 5984
5985, 5986, 5987, 5988, 5989, 5990, 5991, 5992, 5993, 5994, 5995, 5996, 5997, 5998, 5999, 6000
6001, 6002, 6003, 6004, 6005, 6006, 6007, 6008, 6009, 6010, 6011, 6012, 6013, 6014, 6015, 6016
6017, 6018, 6019, 6020, 6021, 6022, 6023, 6024, 6025, 6026, 6027, 6028, 6029, 6030, 6031, 6032
6033, 6034, 6035, 6036, 6037, 6038, 6039, 6040, 6041, 6042, 6043, 6044, 6045, 6046, 6047, 6048
6049, 6050, 6051, 6052, 6053, 6054, 6055, 6056, 6057, 6058, 6059, 6060, 6061, 6062, 6063, 6064
6065, 6066, 6067, 6068, 6069, 6070, 6071, 6072, 6073, 6074, 6075, 6076, 6077, 6078, 6079, 6080
6081, 6082, 6083, 6084, 6085, 6086, 6087, 6088, 6089, 6090, 6091, 6092, 6093, 6094, 6095, 6096
6097, 6098, 6099, 6100, 6101, 6102, 6103, 6104, 6105, 6106, 6107, 6108, 6109, 6110, 6111, 6112
6113, 6114, 6115, 6116, 6117, 6118, 6119, 6120, 6121, 6122, 6123, 6124, 6125, 6126, 6127, 6128
6129, 6130, 6131, 6132, 6133, 6134, 6135, 6136, 6137, 6138, 6139, 6140, 6141, 6142, 6143, 6144
6145, 6146, 6147, 6148, 6149, 6150, 6151, 6152, 6153, 6154, 6155, 6156, 6157, 6158, 6159, 6160
6161, 6162, 6163, 6164, 6165, 6166, 6167, 6168, 6169, 6170, 6171, 6172, 6173, 6174, 6175, 6176
6177, 6178, 6179, 6180, 6181, 6182, 6183, 6184, 6185, 6186, 6187, 6188, 6189, 6190, 6191, 6192
6193, 6194, 6195, 6196, 6197, 6198, 6199, 6200, 6201, 6202, 6203, 6204, 6205, 6206, 6207, 6208
6209, 6210, 6211, 6212, 6213, 6214, 6215, 6216, 6217, 6218, 6219, 6220, 6221, 6222, 6223, 6224
6225, 6226, 6227, 6228, 6229, 6230, 6231, 6232, 6233, 6234, 6235, 6236, 6237, 6238, 6239, 6240
6241, 6242, 6243, 6244, 6245, 6246, 6247, 6248, 6249, 6250, 6251, 6252, 6253, 6254, 6255, 6256
6257, 6258, 6259, 6260, 6261, 6262, 6263, 6264, 6265, 6266, 6267, 6268, 6269, 6270, 6271, 6272
6273, 6274, 6275, 6276, 6277, 6278, 6279, 6280, 6281, 6282, 6283, 6284, 6285, 6286, 6287, 6288
6289, 6290, 6291, 6292, 6293, 6294, 6295, 6296, 6297, 6298, 6299, 6300, 6301, 6302, 6303, 6304
6305, 6306, 6307, 6308, 6309, 6310, 6311, 6312, 6313, 6314, 6315, 6316, 6317, 6318, 6319, 6320
6321, 6322, 6323, 6324, 6325, 6326, 6327, 6328, 6329, 6330, 6331, 6332, 6333, 6334, 6335, 6336
6337, 6338, 6339, 6340, 6341, 6342, 6343, 6344, 6345, 6346, 6347, 6348, 6349, 6350, 6351, 6352
6353, 6354, 6355, 6356, 6357, 6358, 6359, 6360, 6361, 6362, 6363, 6364, 6365, 6366, 6367, 6368
6369, 6370, 6371, 6372, 6373, 6374, 6375, 6376, 6377, 6378, 6379, 6380, 6381, 6382, 6383, 6384
6385, 6386, 6387, 6388, 6389, 6390, 6391, 6392, 6393, 6394, 6395, 6396, 6397, 6398, 6399, 6400
6401, 6402, 6403, 6404, 6405, 6406, 6407, 6408, 6409, 6410, 6411, 6412, 6413, 6414, 6415, 6416
6417, 6418, 6419, 6420, 6421, 6422, 6423, 6424, 6425, 6426, 6427, 6428, 6429, 6430, 6431, 6432
6433, 6434, 6435, 6436, 6437, 6438, 6439, 6440, 6441, 6442, 6443, 6444, 6445, 6446, 6447, 6448
6449, 6450, 6451, 6452, 6453, 6454, 6455, 6456, 6457, 6458, 6459, 6460, 6461, 6462, 6463, 6464
6465, 6466, 6467, 6468, 6469, 6470, 6471, 6472, 6473, 6474, 6475, 6476, 6477, 6478, 6479, 6480
6481, 6482, 6483, 6484, 6485, 6486, 6487, 6488, 6489, 6490, 6491, 6492, 6493, 6494, 6495, 6496
6497, 6498, 6499, 6500, 6501, 6502, 6503, 6504, 6505, 6506, 6507, 6508, 6509, 6510, 6511, 6512
6513, 6514, 6515, 6516, 6517, 6518, 6519, 6520, 6521, 6522, 6523, 6524, 6525, 6526, 6527, 6528
6529, 6530, 6531, 6532, 6533, 6534, 6535, 6536, 6537, 6538, 6539, 6540, 6541, 6542, 6543, 6544
6545, 6546, 6547, 6548, 6549, 6550, 6551, 6552, 6553, 6554, 6555, 6556, 6557, 6558, 6559, 6560
6561, 6562, 6563, 6564, 6565, 6566, 6567, 6568, 6569, 6570, 6571, 6572, 6573, 6574, 6575, 6576
6577, 6578, 6579, 6580, 6581, 6582, 6583, 6584, 6585, 6586, 6587, 6588, 6589, 6590, 6591, 6592
6593, 6594, 6595, 6596, 6597, 6598, 6599, 6600, 6601, 6602, 6603, 6604, 6605, 6606, 6607, 6608
6609, 6610, 6611, 6612, 6613, 6614, 6615, 6616, 6617, 6618, 6619, 6620, 6621, 6622, 6623, 6624
6625, 6626, 6627, 6628, 6629, 6630, 6631, 6632, 6633, 6634, 6635, 6636, 6637, 6638, 6639, 6640
6641, 6642, 6643, 6644, 6645, 6646, 6647, 6648, 6649, 6650, 6651, 6652, 6653, 6654, 6655, 6656
6657, 6658, 6659, 6660, 6661, 6662, 6663, 6664, 6665, 6666, 6667, 6668, 6669, 6670, 6671, 6672
6673, 6674, 6675, 6676, 6677, 6678, 6679, 6680, 6681, 6682, 6683, 6684, 6685, 6686, 6687, 6688
6689, 6690, 6691, 6692, 6693, 6694, 6695, 6696, 6697, 6698, 6699, 6700, 6701, 6702, 6703, 6704
6705, 6706, 6707, 6708, 6709, 6710, 6711, 6712, 6713, 6714, 6715, 6716, 6717, 6718, 6719, 6720
6721, 6722, 6723, 6724, 6725, 6726, 6727, 6728, 6729, 6730, 6731, 6732, 6733, 6734, 6735, 6736
6737, 6738, 6739, 6740, 6741, 6742, 6743, 6744, 6745, 6746, 6747, 6748, 6749, 6750, 6751, 6752
6753, 6754, 6755, 6756, 6757, 6758, 6759, 6760, 6761, 6762, 6763, 6764, 6765, 6766, 6767, 6768
6769, 6770, 6771, 6772, 6773, 6774, 6775, 6776, 6777, 6778, 6779, 6780, 6781, 6782, 6783, 6784
6785, 6786, 6787, 6788, 6789, 6790, 6791, 6792, 6793, 6794, 6795, 6796, 6797, 6798, 6799, 6800
6801, 6802, 6803, 6804, 6805, 6806, 6807, 6808, 6809, 6810, 6811, 6812, 6813, 6814, 6815, 6816
6817, 6818, 6819, 6820, 6821, 6822, 6823, 6824, 6825, 6826, 6827, 6828, 6829, 6830, 6831, 6832
6833, 6834, 6835, 6836, 6837, 6838, 6839, 6840, 6841, 6842, 6843, 6844, 6845, 6846, 6847, 6848
6849, 6850, 6851, 6852, 6853, 6854, 6855, 6856, 6857, 6858, 6859, 6860, 6861, 6862, 6863, 6864
6865, 6866, 6867, 6868, 6869, 6870, 6871, 6872, 6873, 6874, 6875, 6876, 6877, 6878, 6879, 6880
6881, 6882, 6883, 6884, 6885, 6886, 6887, 6888, 6889, 6890, 6891, 6892, 6893, 6894, 6895, 6896
6897, 6898, 6899, 6900, 6901, 6902, 6903, 6904, 6905, 6906, 6907, 6908, 6909, 6910, 6911, 6912
6913, 6914, 6915, 6916, 6917, 6918, 6919, 6920, 6921, 6922, 6923, 6924, 6925, 6926, 6927, 6928
6929, 6930, 6931, 6932, 6933, 6934, 6935, 6936, 6937, 6938, 6939, 6940, 6941, 6942, 6943, 6944
6945, 6946, 6947, 6948, 6949, 6950, 6951, 6952, 6953, 6954, 6955, 6956, 6957, 6958, 6959, 6960
6961, 6962, 6963, 6964, 6965, 6966, 6967, 6968, 6969, 6970, 6971, 6972, 6973, 6974, 6975, 6976
6977, 6978, 6979, 6980, 6981, 6982, 6983, 6984, 6985, 6986, 6987, 6988, 6989, 6990, 6991, 6992
6993, 6994, 6995, 6996, 6997, 6998, 6999, 7000, 7001, 7002, 7003, 7004, 7005, 7006, 7007, 7008
7009, 7010, 7011, 7012, 7013, 7014, 7015, 7016, 7017, 7018, 7019, 7020, 7021, 7022, 7023, 7024
7025, 7026, 7027, 7028, 7029, 7030, 7031, 7032, 7033, 7034, 7035, 7036, 7037, 7038, 7039, 7040
7041, 7042, 7043, 7044, 7045, 7046, 7047, 7048, 7049, 7050, 7051, 7052, 7053, 7054, 7055, 7056
7057, 7058, 7059, 7060, 7061, 7062, 7063, 7064, 7065, 7066, 7067, 7068, 7069, 7070, 7071, 7072
7073, 7074, 7075, 7076, 7077, 7078, 7079, 7080, 7081, 7082, 7083, 7084, 7085, 7086, 7087, 7088
7089, 7090, 7091, 7092, 7093, 7094, 7095, 7096, 7097, 7098, 7099, 7100, 7101, 7102, 7103, 7104
7105, 7106, 7107, 7108, 7109, 7110, 7111, 7112, 7113, 7114, 7115, 7116, 7117, 7118, 7119, 7120
7121, 7122, 7123, 7124, 7125, 7126, 7127, 7128, 7129, 7130, 7131, 7132, 7133, 7134, 7135, 7136
7137, 7138, 7139, 7140, 7141, 7142, 7143, 7144, 7145, 7146, 7147, 7148, 7149, 7150, 7151, 7152
7153, 7154, 7155, 7156, 7157, 7158, 7159, 7160, 7161, 7162, 7163, 7164, 7165, 7166, 7167, 7168
7169, 7170, 7171, 7172, 7173, 7174, 7175, 7176, 7177, 7178, 7179, 7180, 7181, 7182, 7183, 7184
7185, 7186, 7187, 7188, 7189, 7190, 7191, 7192, 7193, 7194, 7195, 7196, 7197, 7198, 7199, 7200
7201, 7202, 7203, 7204, 7205, 7206, 7207, 7208, 7209, 7210, 7211, 7212, 7213, 7214, 7215, 7216
7217, 7218, 7219, 7220, 7221, 7222, 7223, 7224, 7225, 7226, 7227, 7228, 7229, 7230, 7231, 7232
7233, 7234, 7235, 7236, 7237, 7238, 7239, 7240, 7241, 7242, 7243, 7244, 7245, 7246, 7247, 7248
7249, 7250, 7251, 7252, 7253, 7254, 7255, 7256, 7257, 7258, 7259, 7260, 7261, 7262, 7263, 7264
7265, 7266, 7267, 7268, 7269, 7270, 7271, 7272, 7273, 7274, 7275, 7276, 7277, 7278, 7279, 7280
7281, 7282, 7283, 7284, 7285, 7286, 7287, 7288, 7289, 7290, 7291, 7292, 7293, 7294, 7295, 7296
7297, 7298, 7299, 7300, 7301, 7302, 7303, 7304, 7305, 7306, 7307, 7308, 7309, 7310, 7311, 7312
7313, 7314, 7315, 7316, 7317, 7318, 7319, 7320, 7321, 7322, 7323, 7324, 7325, 7326, 7327, 7328
7329, 7330, 7331, 7332, 7333, 7334, 7335, 7336, 7337, 7338, 7339, 7340, 7341, 7342, 7343, 7344
7345, 7346, 7347, 7348, 7349, 7350, 7351, 7352, 7353, 7354, 7355, 7356, 7357, 7358, 7359, 7360
7361, 7362, 7363, 7364, 7365, 7366, 7367, 7368, 7369, 7370, 7371, 7372, 7373, 7374, 7375, 7376
7377, 7378, 7379, 7380, 7381, 7382, 7383, 7384, 7385, 7386, 7387, 7388, 7389, 7390, 7391, 7392
7393, 7394, 7395, 7396, 7397, 7398, 7399, 7400, 7401, 7402, 7403, 7404, 7405, 7406, 7407, 7408
7409, 7410, 7411, 7412, 7413, 7414, 7415, 7416, 7417, 7418, 7419, 7420, 7421, 7422, 7423, 7424
7425, 7426, 7427, 7428, 7429, 7430, 7431, 7432, 7433, 7434, 7435, 7436, 7437, 7438, 7439, 7440
7441, 7442, 7443, 7444, 7445, 7446, 7447, 7448, 7449, 7450, 7451, 7452, 7453, 7454, 7455, 7456
7457, 7458, 7459, 7460, 7461, 7462, 7463, 7464, 7465, 7466, 7467, 7468, 7469, 7470, 7471, 7472
7473, 7474, 7475, 7476, 7477, 7478, 7479, 7480, 7481, 7482, 7483, 7484, 7485, 7486, 7487, 7488
7489, 7490, 7491, 7492, 7493, 7494, 7495, 7496, 7497, 7498, 7499, 7500, 7501, 7502, 7503, 7504
7505, 7506, 7507, 7508, 7509, 7510, 7511, 7512, 7513, 7514, 7515, 7516, 7517, 7518, 7519, 7520
7521, 7522, 7523, 7524, 7525, 7526, 7527, 7528, 7529, 7530, 7531, 7532, 7533, 7534, 7535, 7536
7537, 7538, 7539, 7540, 7541, 7542, 7543, 7544, 7545, 7546, 7547, 7548, 7549, 7550, 7551, 7552
7553, 7554, 7555, 7556, 7557, 7558, 7559, 7560, 7561, 7562, 7563, 7564, 7565, 7566, 7567, 7568
7569, 7570, 7571, 7572, 7573, 7574, 7575, 7576, 7577, 7578, 7579, 7580, 7581, 7582, 7583, 7584
7585, 7586, 7587, 7588, 7589, 7590, 7591, 7592, 7593, 7594, 7595, 7596, 7597, 7598, 7599, 7600
7601, 7602, 7603, 7604, 7605, 7606, 7607, 7608, 7609, 7610, 7611, 7612, 7613, 7614, 7615, 7616
7617, 7618, 7619, 7620, 7621, 7622, 7623, 7624, 7625, 7626, 7627, 7628, 7629, 7630, 7631, 7632
7633, 7634, 7635, 7636, 7637, 7638, 7639, 7640, 7641, 7642, 7643, 7644, 7645, 7646, 7647, 7648
7649, 7650, 7651, 7652, 7653, 7654, 7655, 7656, 7657, 7658, 7659, 7660, 7661, 7662, 7663, 7664
7665, 7666, 7667, 7668, 7669, 7670, 7671, 7672, 7673, 7674, 7675, 7676, 7677, 7678, 7679, 7680
7681, 7682, 7683, 7684, 7685, 7686, 7687, 7688, 7689, 7690, 7691, 7692, 7693, 7694, 7695, 7696
7697, 7698, 7699, 7700, 7701, 7702, 7703, 7704, 7705, 7706, 7707, 7708, 7709, 7710, 7711, 7712
7713, 7714, 7715, 7716, 7717, 7718, 7719, 7720, 7721, 7722, 7723, 7724, 7725, 7726, 7727, 7728
7729, 7730, 7731, 7732, 7733, 7734, 7735, 7736, 7737, 7738, 7739, 7740, 7741, 7742, 7743, 7744
7745, 7746, 7747, 7748, 7749, 7750, 7751, 7752, 7753, 7754, 7755, 7756, 7757, 7758, 7759, 7760
7761, 7762, 7763, 7764, 7765, 7766, 7767, 7768, 7769, 7770, 7771, 7772, 7773, 7774, 7775, 7776
7777, 7778, 7779, 7780, 7781, 7782, 7783, 7784, 7785, 7786, 7787, 7788, 7789, 7790, 7791, 7792
7793, 7794, 7795, 7796, 7797, 7798, 7799, 7800, 7801, 7802, 7803, 7804, 7805, 7806, 7807, 7808
7809, 7810, 7811, 7812, 7813, 7814, 7815, 7816, 7817, 7818, 7819, 7820, 7821, 7822, 7823, 7824
7825, 7826, 7827, 7828, 7829, 7830, 7831, 7832, 7833, 7834, 7835, 7836, 7837, 7838, 7839, 7840
7841, 7842, 7843, 7844, 7845, 7846, 7847, 7848, 7849, 7850, 7851, 7852, 7853, 7854, 7855, 7856
7857, 7858, 7859, 7860, 7861, 7862, 7863, 7864, 7865, 7866, 7867, 7868, 7869, 7870, 7871, 7872
7873, 7874, 7875, 7876, 7877, 7878, 7879, 7880, 7881, 7882, 7883, 7884, 7885, 7886, 7887, 7888
7889, 7890, 7891, 7892, 7893, 7894, 7895, 7896, 7897, 7898, 7899, 7900, 7901, 7902, 7903, 7904
7905, 7906, 7907, 7908, 7909, 7910, 7911, 7912, 7913, 7914, 7915, 7916, 7917, 7918, 7919, 7920
7921, 7922, 7923, 7924, 7925, 7926, 7927, 7928, 7929, 7930, 7931, 7932, 7933, 7934, 7935, 7936
7937, 7938, 7939, 7940, 7941, 7942, 7943, 7944, 7945, 7946, 7947, 7948, 7949, 7950, 7951, 7952
7953, 7954, 7955, 7956, 7957, 7958, 7959, 7960, 7961, 7962, 7963, 7964, 7965, 7966, 7967, 7968
7969, 7970, 7971, 7972, 7973, 7974, 7975, 7976, 7977, 7978, 7979, 7980, 7981, 7982, 7983, 7984
7985, 7986, 7987, 7988, 7989, 7990, 7991, 7992, 7993, 7994, 7995, 7996, 7997, 7998, 7999, 8000
8001, 8002, 8003, 8004, 8005, 8006, 8007, 8008, 8009, 8010, 8011, 8012, 8013, 8014, 8015, 8016
8017, 8018, 8019, 8020, 8021, 8022, 8023, 8024, 8025, 8026, 8027, 8028, 8029, 8030, 8031, 8032
8033, 8034, 8035, 8036, 8037, 8038, 8039, 8040, 8041, 8042, 8043, 8044, 8045, 8046, 8047, 8048
8049, 8050, 8051, 8052, 8053, 8054, 8055, 8056, 8057, 8058, 8059, 8060, 8061, 8062, 8063, 8064
8065, 8066, 8067, 8068, 8069, 8070, 8071, 8072, 8073, 8074, 8075, 8076, 8077, 8078, 8079, 8080
8081, 8082, 8083, 8084, 8085, 8086, 8087, 8088, 8089, 8090, 8091, 8092, 8093, 8094, 8095, 8096
8097, 8098, 8099, 8100, 8101, 8102, 8103, 8104, 8105, 8106, 8107, 8108, 8109, 8110, 8111, 8112
8113, 8114, 8115, 8116, 8117, 8118, 8119, 8120, 8121, 8122, 8123, 8124, 8125, 8126, 8127, 8128
8129, 8130, 8131, 8132, 8133, 8134, 8135, 8136, 8137, 8138, 8139, 8140, 8141, 8142, 8143, 8144
8145, 8146, 8147, 8148, 8149, 8150, 8151, 8152, 8153, 8154, 8155, 8156, 8157, 8158, 8159, 8160
8161, 8162, 8163, 8164, 8165, 8166, 8167, 8168, 8169, 8170, 8171, 8172, 8173, 8174, 8175, 8176
8177, 8178, 8179, 8180, 8181, 8182, 8183, 8184, 8185, 8186, 8187, 8188, 8189, 8190, 8191, 8192
8193, 8194, 8195, 8196, 8197, 8198, 8199, 8200, 8201, 8202, 8203, 8204, 8205, 8206, 8207, 8208
8209, 8210, 8211, 8212, 8213, 8214, 8215, 8216, 8217, 8218, 8219, 8220, 8221, 8222, 8223, 8224
8225, 8226, 8227, 8228, 8229, 8230, 8231, 8232, 8233, 8234, 8235, 8236, 8237, 8238, 8239, 8240
8241, 8242, 8243, 8244, 8245, 8246, 8247, 8248, 8249, 8250, 8251, 8252, 8253, 8254, 8255, 8256
8257, 8258, 8259, 8260, 8261, 8262, 8263, 8264, 8265, 8266, 8267, 8268, 8269, 8270, 8271, 8272
8273, 8274, 8275, 8276, 8277, 8278, 8279, 8280, 8281, 8282, 8283, 8284, 8285, 8286, 8287, 8288
8289, 8290, 8291, 8292, 8293, 8294, 8295, 8296, 8297, 8298, 8299, 8300, 8301, 8302, 8303, 8304
8305, 8306, 8307, 8308, 8309, 8310, 8311, 8312, 8313, 8314, 8315, 8316, 8317, 8318, 8319, 8320
8321, 8322, 8323, 8324, 8325, 8326, 8327, 8328, 8329, 8330, 8331, 8332, 8333, 8334, 8335, 8336
8337, 8338, 8339, 8340, 8341, 8342, 8343, 8344, 8345, 8346, 8347, 8348, 8349, 8350, 8351, 8352
8353, 8354, 8355, 8356, 8357, 8358, 8359, 8360, 8361, 8362, 8363, 8364, 8365, 8366, 8367, 8368
8369, 8370, 8371, 8372, 8373, 8374, 8375, 8376, 8377, 8378, 8379, 8380, 8381, 8382, 8383, 8384
8385, 8386, 8387, 8388, 8389, 8390, 8391, 8392, 8393, 8394, 8395, 8396, 8397, 8398, 8399, 8400
8401, 8402, 8403, 8404, 8405, 8406, 8407, 8408, 8409, 8410, 8411, 8412, 8413, 8414, 8415, 8416
8417, 8418, 8419, 8420, 8421, 8422, 8423, 8424, 8425, 8426, 8427, 8428, 8429, 8430, 8431, 8432
8433, 8434, 8435, 8436, 8437, 8438, 8439, 8440, 8441, 8442, 8443, 8444, 8445, 8446, 8447, 8448
8449, 8450, 8451, 8452, 8453, 8454, 8455, 8456, 8457, 8458, 8459, 8460, 8461, 8462, 8463, 8464
8465, 8466, 8467, 8468, 8469, 8470, 8471, 8472, 8473, 8474, 8475, 8476, 8477, 8478, 8479, 8480
8481, 8482, 8483, 8484, 8485, 8486, 8487, 8488, 8489, 8490, 8491, 8492, 8493, 8494, 8495, 8496
8497, 8498, 8499, 8500, 8501, 8502, 8503, 8504, 8505, 8506, 8507, 8508, 8509, 8510, 8511, 8512
8513, 8514, 8515, 8516, 8517, 8518, 8519, 8520, 8521, 8522, 8523, 8524, 8525, 8526, 8527, 8528
8529, 8530, 8531, 8532, 8533, 8534, 8535, 8536, 8537, 8538, 8539, 8540, 8541, 8542, 8543, 8544
8545, 8546, 8547, 8548, 8549, 8550, 8551, 8552, 8553, 8554, 8555, 8556, 8557, 8558, 8559, 8560
8561, 8562, 8563, 8564, 8565, 8566, 8567, 8568, 8569, 8570, 8571, 8572, 8573, 8574, 8575, 8576
8577, 8578, 8579, 8580, 8581, 8582, 8583, 8584, 8585, 8586, 8587, 8588, 8589, 8590, 8591, 8592
8593, 8594, 8595, 8596, 8597, 8598, 8599, 8600, 8601, 8602, 8603, 8604, 8605, 8606, 8607, 8608
8609, 8610, 8611, 8612, 8613, 8614, 8615, 8616, 8617, 8618, 8619, 8620, 8621, 8622, 8623, 8624
8625, 8626, 8627, 8628, 8629, 8630, 8631, 8632, 8633, 8634, 8635, 8636, 8637, 8638, 8639, 8640
8641, 8642, 8643, 8644, 8645, 8646, 8647, 8648, 8649, 8650, 8651, 8652, 8653, 8654, 8655, 8656
8657, 8658, 8659, 8660, 8661, 8662, 8663, 8664, 8665, 8666, 8667, 8668, 8669, 8670, 8671, 8672
8673, 8674, 8675, 8676, 8677, 8678, 8679, 8680, 8681, 8682, 8683, 8684, 8685, 8686, 8687, 8688
8689, 8690, 8691, 8692, 8693, 8694, 8695, 8696, 8697, 8698, 8699, 8700, 8701, 8702, 8703, 8704
8705, 8706, 8707, 8708, 8709, 8710, 8711, 8712, 8713, 8714, 8715, 8716, 8717, 8718, 8719, 8720
8721, 8722, 8723, 8724, 8725, 8726, 8727, 8728, 8729, 8730, 8731, 8732, 8733, 8734, 8735, 8736
8737, 8738, 8739, 8740, 8741, 8742, 8743, 8744, 8745, 8746, 8747, 8748, 8749, 8750, 8751, 8752
8753, 8754, 8755, 8756, 8757, 8758, 8759, 8760, 8761, 8762, 8763, 8764, 8765, 8766, 8767, 8768
8769, 8770, 8771, 8772, 8773, 8774, 8775, 8776, 8777, 8778, 8779, 8780, 8781, 8782, 8783, 8784
8785, 8786, 8787, 8788, 8789, 8790, 8791, 8792, 8793, 8794, 8795, 8796, 8797, 8798, 8799, 8800
8801, 8802, 8803, 8804, 8805, 8806, 8807, 8808, 8809, 8810, 8811, 8812, 8813, 8814, 8815, 8816
8817, 8818, 8819, 8820, 8821, 8822, 8823, 8824, 8825, 8826, 8827, 8828, 8829, 8830, 8831, 8832
8833, 8834, 8835, 8836, 8837, 8838, 8839, 8840, 8841, 8842, 8843, 8844, 8845, 8846, 8847, 8848
8849, 8850, 8851, 8852, 8853, 8854, 8855, 8856, 8857, 8858, 8859, 8860, 8861, 8862, 8863, 8864
8865, 8866, 8867, 8868, 8869, 8870, 8871, 8872, 8873, 8874, 8875, 8876, 8877, 8878, 8879, 8880
8881, 8882, 8883, 8884, 8885, 8886, 8887, 8888, 8889, 8890, 8891, 8892, 8893, 8894, 8895, 8896
8897, 8898, 8899, 8900, 8901, 8902, 8903, 8904, 8905, 8906, 8907, 8908, 8909, 8910, 8911, 8912
8913, 8914, 8915, 8916, 8917, 8918, 8919, 8920, 8921, 8922, 8923, 8924, 8925, 8926, 8927, 8928
8929, 8930, 8931, 8932, 8933, 8934, 8935, 8936, 8937, 8938, 8939, 8940, 8941, 8942, 8943, 8944
8945, 8946, 8947, 8948, 8949, 8950, 8951, 8952, 8953, 8954, 8955, 8956, 8957, 8958, 8959, 8960
8961, 8962, 8963, 8964, 8965, 8966, 8967, 8968, 8969, 8970, 8971, 8972, 8973, 8974, 8975, 8976
8977, 8978, 8979, 8980, 8981, 8982, 8983, 8984, 8985, 8986, 8987, 8988, 8989, 8990, 8991, 8992
8993, 8994, 8995, 8996, 8997, 8998, 8999, 9000, 9001, 9002, 9003, 9004, 9005, 9006, 9007, 9008
9009, 9010, 9011, 9012, 9013, 9014, 9015, 9016, 9017, 9018, 9019, 9020, 9021, 9022, 9023, 9024
9025, 9026, 9027, 9028, 9029, 9030, 9031, 9032, 9033, 9034, 9035, 9036, 9037, 9038, 9039, 9040
9041, 9042, 9043, 9044, 9045, 9046, 9047, 9048, 9049, 9050, 9051, 9052, 9053, 9054, 9055, 9056
9057, 9058, 9059, 9060, 9061, 9062, 9063, 9064, 9065, 9066, 9067, 9068, 9069, 9070, 9071, 9072
9073, 9074, 9075, 9076, 9077, 9078, 9079, 9080, 9081, 9082, 9083, 9084, 9085, 9086, 9087, 9088
9089, 9090, 9091, 9092, 9093, 9094, 9095, 9096, 9097, 9098, 9099, 9100, 9101, 9102, 9103, 9104
9105, 9106, 9107, 9108, 9109, 9110, 9111, 9112, 9113, 9114, 9115, 9116, 9117, 9118, 9119, 9120
9121, 9122, 9123, 9124, 9125, 9126, 9127, 9128, 9129, 9130, 9131, 9132, 9133, 9134, 9135, 9136
9137, 9138, 9139, 9140, 9141, 9142, 9143, 9144, 9145, 9146, 9147, 9148, 9149, 9150, 9151, 9152
9153, 9154, 9155, 9156, 9157, 9158, 9159, 9160, 9161, 9162, 9163, 9164, 9165, 9166, 9167, 9168
9169, 9170, 9171, 9172, 9173, 9174, 9175, 9176, 9177, 9178, 9179, 9180, 9181, 9182, 9183, 9184
9185, 9186, 9187, 9188, 9189, 9190, 9191, 9192, 9193, 9194, 9195, 9196, 9197, 9198, 9199, 9200
9201, 9202, 9203, 9204, 9205, 9206, 9207, 9208, 9209, 9210, 9211, 9212, 9213, 9214, 9215, 9216
9217, 9218, 9219, 9220, 9221, 9222, 9223, 9224, 9225, 9226, 9227, 9228, 9229, 9230, 9231, 9232
9233, 9234, 9235, 9236, 9237, 9238, 9239, 9240, 9241, 9242, 9243, 9244, 9245, 9246, 9247, 9248
9249, 9250, 9251, 9252, 9253, 9254, 9255, 9256, 9257, 9258, 9259, 9260, 9261, 9262, 9263, 9264
9265, 9266, 9267, 9268, 9269, 9270, 9271, 9272, 9273, 9274, 9275, 9276, 9277, 9278, 9279, 9280
9281, 9282, 9283, 9284, 9285, 9286, 9287, 9288, 9289, 9290, 9291, 9292, 9293, 9294, 9295, 9296
9297, 9298, 9299, 9300, 9301, 9302, 9303, 9304, 9305, 9306, 9307, 9308, 9309, 9310, 9311, 9312
9313, 9314, 9315, 9316, 9317, 9318, 9319, 9320, 9321, 9322, 9323, 9324, 9325, 9326, 9327, 9328
9329, 9330, 9331, 9332, 9333, 9334, 9335, 9336, 9337, 9338, 9339, 9340, 9341, 9342, 9343, 9344
9345, 9346, 9347, 9348, 9349, 9350, 9351, 9352, 9353, 9354, 9355, 9356, 9357, 9358, 9359, 9360
9361, 9362, 9363, 9364, 9365, 9366, 9367, 9368, 9369, 9370, 9371, 9372, 9373, 9374, 9375, 9376
9377, 9378, 9379, 9380, 9381, 9382, 9383, 9384, 9385, 9386, 9387, 9388, 9389, 9390, 9391, 9392
9393, 9394, 9395, 9396, 9397, 9398, 9399, 9400, 9401, 9402, 9403, 9404, 9405, 9406, 9407, 9408
9409, 9410, 9411, 9412, 9413, 9414, 9415, 9416, 9417, 9418, 9419, 9420, 9421, 9422, 9423, 9424
9425, 9426, 9427, 9428, 9429, 9430, 9431, 9432, 9433, 9434, 9435, 9436, 9437, 9438, 9439, 9440
9441, 9442, 9443, 9444, 9445, 9446, 9447, 9448, 9449, 9450, 9451, 9452, 9453, 9454, 9455, 9456
9457, 9458, 9459, 9460, 9461, 9462, 9463, 9464, 9465, 9466, 9467, 9468, 9469, 9470, 9471, 9472
9473, 9474, 9475, 9476, 9477, 9478, 9479, 9480, 9481, 9482, 9483, 9484, 9485, 9486, 9487, 9488
9489, 9490, 9491, 9492, 9493, 9494, 9495, 9496, 9497, 9498, 9499, 9500, 9501, 9502, 9503, 9504
9505, 9506, 9507, 9508, 9509, 9510, 9511, 9512, 9513, 9514, 9515, 9516, 9517, 9518, 9519, 9520
9521, 9522, 9523, 9524, 9525, 9526, 9527, 9528, 9529, 9530, 9531, 9532, 9533, 9534, 9535, 9536
9537, 9538, 9539, 9540, 9541, 9542, 9543, 9544, 9545, 9546, 9547, 9548, 9549, 9550, 9551, 9552
9553, 9554, 9555, 9556, 9557, 9558, 9559, 9560, 9561, 9562, 9563, 9564, 9565, 9566, 9567, 9568
9569, 9570, 9571, 9572, 9573, 9574, 9575, 9576, 9577, 9578, 9579, 9580, 9581, 9582, 9583, 9584
9585, 9586, 9587, 9588, 9589, 9590, 9591, 9592, 9593, 9594, 9595, 9596, 9597, 9598, 9599, 9600
9601, 9602, 9603, 9604, 9605, 9606, 9607, 9608, 9609, 9610, 9611, 9612, 9613, 9614, 9615, 9616
9617, 9618, 9619, 9620, 9621, 9622, 9623, 9624, 9625, 9626, 9627, 9628, 9629, 9630, 9631, 9632
9633, 9634, 9635, 9636, 9637, 9638, 9639, 9640, 9641, 9642, 9643, 9644, 9645, 9646, 9647, 9648
9649, 9650, 9651, 9652, 9653, 9654, 9655, 9656, 9657, 9658, 9659, 9660, 9661, 9662, 9663, 9664
9665, 9666, 9667, 9668, 9669, 9670, 9671, 9672, 9673, 9674, 9675, 9676, 9677, 9678, 9679, 9680
9681, 9682, 9683, 9684, 9685, 9686, 9687, 9688, 9689, 9690, 9691, 9692, 9693, 9694, 9695, 9696
9697, 9698, 9699, 9700, 9701, 9702, 9703, 9704, 9705, 9706, 9707, 9708, 9709, 9710, 9711, 9712
9713, 9714, 9715, 9716, 9717, 9718, 9719, 9720, 9721, 9722, 9723, 9724, 9725, 9726, 9727, 9728
9729, 9730, 9731, 9732, 9733, 9734, 9735, 9736, 9737, 9738, 9739, 9740, 9741, 9742, 9743, 9744
9745, 9746, 9747, 9748, 9749, 9750, 9751, 9752, 9753, 9754, 9755, 9756, 9757, 9758, 9759, 9760
9761, 9762, 9763, 9764, 9765, 9766, 9767, 9768, 9769, 9770, 9771, 9772, 9773, 9774, 9775, 9776
9777, 9778, 9779, 9780, 9781, 9782, 9783, 9784, 9785, 9786, 9787, 9788, 9789, 9790, 9791, 9792
9793, 9794, 9795, 9796, 9797, 9798, 9799, 9800, 9801, 9802, 9803, 9804, 9805, 9806, 9807, 9808
9809, 9810, 9811, 9812, 9813, 9814, 9815, 9816, 9817, 9818, 9819, 9820, 9821, 9822, 9823, 9824
9825, 9826, 9827, 9828, 9829, 9830, 9831, 9832, 9833, 9834, 9835, 9836, 9837, 9838, 9839, 9840
9841, 9842, 9843, 9844, 9845, 9846, 9847, 9848, 9849, 9850, 9851, 9852, 9853, 9854, 9855, 9856
9857, 9858, 9859, 9860, 9861, 9862, 9863, 9864, 9865, 9866, 9867, 9868, 9869, 9870, 9871, 9872
9873, 9874, 9875, 9876, 9877, 9878, 9879, 9880, 9881, 9882, 9883, 9884, 9885, 9886, 9887, 9888
9889, 9890, 9891, 9892, 9893, 9894, 9895, 9896, 9897, 9898, 9899, 9900, 9901, 9902, 9903, 9904
9905, 9906, 9907, 9908, 9909, 9910, 9911, 9912, 9913, 9914, 9915, 9916, 9917, 9918, 9919, 9920
9921, 9922, 9923, 9924, 9925, 9926, 9927, 9928, 9929, 9930, 9931, 9932, 9933, 9934, 9935, 9936
9937, 9938, 9939, 9940, 9941, 9942, 9943, 9944, 9945, 9946, 9947, 9948, 9949, 9950, 9951, 9952
9953, 9954, 9955, 9956, 9957, 9958, 9959, 9960, 9961, 9962, 9963, 9964, 9965, 9966, 9967, 9968
9969, 9970, 9971, 9972, 9973, 9974, 9975, 9976, 9977, 9978, 9979, 9980, 9981, 9982, 9983, 9984
9985, 9986, 9987, 9988, 9989, 9990, 9991, 9992, 9993, 9994, 9995, 9996, 9997, 9998, 9999, 10000
10001, 10002, 10003, 10004, 10005, 10006, 10007, 10008, 10009, 10010, 10011, 10012, 10013, 10014, 10015, 10016
10017, 10018, 10019, 10020, 10021, 10022, 10023, 10024, 10025, 10026, 10027, 10028, 10029, 10030, 10031, 10032
10033, 10034, 10035, 10036, 10037, 10038, 10039, 10040, 10041, 10042, 10043, 10044, 10045, 10046, 10047, 10048
10049, 10050, 10051, 10052, 10053, 10054, 10055, 10056, 10057, 10058, 10059, 10060, 10061, 10062, 10063, 10064
10065, 10066, 10067, 10068, 10069, 10070, 10071, 10072, 10073, 10074, 10075, 10076, 10077, 10078, 10079, 10080
10081, 10082, 10083, 10084, 10085, 10086, 10087, 10088, 10089, 10090, 10091, 10092, 10093, 10094, 10095, 10096
10097, 10098, 10099, 10100, 10101, 10102, 10103, 10104, 10105, 10106, 10107, 10108, 10109, 10110, 10111, 10112
10113, 10114, 10115, 10116, 10117, 10118, 10119, 10120, 10121, 10122, 10123, 10124, 10125, 10126, 10127, 10128
10129, 10130, 10131, 10132, 10133, 10134, 10135, 10136, 10137, 10138, 10139, 10140, 10141, 10142, 10143, 10144
10145, 10146, 10147, 10148, 10149, 10150, 10151, 10152, 10153, 10154, 10155, 10156, 10157, 10158, 10159, 10160
10161, 10162, 10163, 10164, 10165, 10166, 10167, 10168, 10169, 10170, 10171, 10172, 10173, 10174, 10175, 10176
10177, 10178, 10179, 10180, 10181, 10182, 10183, 10184, 10185, 10186, 10187, 10188, 10189, 10190, 10191, 10192
10193, 10194, 10195, 10196, 10197, 10198, 10199, 10200, 10201, 10202, 10203, 10204, 10205, 10206, 10207, 10208
10209, 10210, 10211, 10212, 10213, 10214, 10215, 10216, 10217, 10218, 10219, 10220, 10221, 10222, 10223, 10224
10225, 10226, 10227, 10228, 10229, 10230, 10231, 10232, 10233, 10234, 10235, 10236, 10237, 10238, 10239, 10240
10241, 10242, 10243, 10244, 10245, 10246, 10247, 10248, 10249, 10250, 10251, 10252, 10253, 10254, 10255, 10256
10257, 10258, 10259, 10260, 10261, 10262, 10263, 10264, 10265, 10266, 10267, 10268, 10269, 10270, 10271, 10272
10273, 10274, 10275, 10276, 10277, 10278, 10279, 10280, 10281, 10282, 10283, 10284, 10285, 10286, 10287, 10288
10289, 10290, 10291, 10292, 10293, 10294, 10295, 10296, 10297, 10298, 10299, 10300, 10301, 10302, 10303, 10304
10305, 10306, 10307, 10308, 10309, 10310, 10311, 10312, 10313, 10314, 10315, 10316, 10317, 10318, 10319, 10320
10321, 10322, 10323, 10324, 10325, 10326, 10327, 10328, 10329, 10330, 10331, 10332, 10333, 10334, 10335, 10336
10337, 10338, 10339, 10340, 10341, 10342, 10343, 10344, 10345, 10346, 10347, 10348, 10349, 10350, 10351, 10352
10353, 10354, 10355, 10356, 10357, 10358, 10359, 10360, 10361, 10362, 10363, 10364, 10365, 10366, 10367, 10368
10369, 10370, 10371, 10372, 10373, 10374, 10375, 10376, 10377, 10378, 10379, 10380, 10381, 10382, 10383, 10384
10385, 10386, 10387, 10388, 10389, 10390, 10391, 10392, 10393, 10394, 10395, 10396, 10397, 10398, 10399, 10400
10401, 10402, 10403, 10404, 10405, 10406, 10407, 10408, 10409, 10410, 10411, 10412, 10413, 10414, 10415, 10416
10417, 10418, 10419, 10420, 10421, 10422, 10423, 10424, 10425, 10426, 10427, 10428, 10429, 10430, 10431, 10432
10433, 10434, 10435, 10436, 10437, 10438, 10439, 10440, 10441, 10442, 10443, 10444, 10445, 10446, 10447, 10448
10449, 10450, 10451, 10452, 10453, 10454, 10455, 10456, 10457, 10458, 10459, 10460, 10461, 10462, 10463, 10464
10465, 10466, 10467, 10468, 10469, 10470, 10471, 10472, 10473, 10474, 10475, 10476, 10477, 10478, 10479, 10480
10481, 10482, 10483, 10484, 10485, 10486, 10487, 10488, 10489, 10490, 10491, 10492, 10493, 10494, 10495, 10496
10497, 10498, 10499, 10500, 10501, 10502, 10503, 10504, 10505, 10506, 10507, 10508, 10509, 10510, 10511, 10512
10513, 10514, 10515, 10516, 10517, 10518, 10519, 10520, 10521, 10522, 10523, 10524, 10525, 10526, 10527, 10528
10529, 10530, 10531, 10532, 10533, 10534, 10535, 10536, 10537, 10538, 10539, 10540, 10541, 10542, 10543, 10544
10545, 10546, 10547, 10548, 10549, 10550, 10551, 10552, 10553, 10554, 10555, 10556, 10557, 10558, 10559, 10560
10561, 10562, 10563, 10564, 10565, 10566, 10567, 10568, 10569, 10570, 10571, 10572, 10573, 10574, 10575, 10576
10577, 10578, 10579, 10580, 10581, 10582, 10583, 10584, 10585, 10586, 10587, 10588, 10589, 10590, 10591, 10592
10593, 10594, 10595, 10596, 10597, 10598, 10599, 10600, 10601, 10602, 10603, 10604, 10605, 10606, 10607, 10608
10609, 10610, 10611, 10612, 10613, 10614, 10615, 10616, 10617, 10618, 10619, 10620, 10621, 10622, 10623, 10624
10625, 10626, 10627, 10628, 10629, 10630, 10631, 10632, 10633, 10634, 10635, 10636, 10637, 10638, 10639, 10640
10641, 10642, 10643, 10644, 10645, 10646, 10647, 10648, 10649, 10650, 10651, 10652, 10653, 10654, 10655, 10656
10657, 10658, 10659, 10660, 10661, 10662, 10663, 10664, 10665, 10666, 10667, 10668, 10669, 10670, 10671, 10672
10673, 10674, 10675, 10676, 10677, 10678, 10679, 10680, 10681, 10682, 10683, 10684, 10685, 10686, 10687, 10688
10689, 10690, 10691, 10692, 10693, 10694, 10695, 10696, 10697, 10698, 10699, 10700, 10701, 10702, 10703, 10704
10705, 10706, 10707, 10708, 10709, 10710, 10711, 10712, 10713, 10714, 10715, 10716, 10717, 10718, 10719, 10720
10721, 10722, 10723, 10724, 10725, 10726, 10727, 10728, 10729, 10730, 10731, 10732, 10733, 10734, 10735, 10736
10737, 10738, 10739, 10740, 10741, 10742, 10743, 10744, 10745, 10746, 10747, 10748, 10749, 10750, 10751, 10752
10753, 10754, 10755, 10756, 10757, 10758, 10759, 10760, 10761, 10762, 10763, 10764, 10765, 10766, 10767, 10768
10769, 10770, 10771, 10772, 10773, 10774, 10775, 10776, 10777, 10778, 10779, 10780, 10781, 10782, 10783, 10784
10785, 10786, 10787, 10788, 10789, 10790, 10791, 10792, 10793, 10794, 10795, 10796, 10797, 10798, 10799, 10800
10801, 10802, 10803, 10804, 10805, 10806, 10807, 10808, 10809, 10810, 10811, 10812, 10813, 10814, 10815, 10816
10817, 10818, 10819, 10820, 10821, 10822, 10823, 10824, 10825, 10826, 10827, 10828, 10829, 10830, 10831, 10832
10833, 10834, 10835, 10836, 10837, 10838, 10839, 10840, 10841, 10842, 10843, 10844, 10845, 10846, 10847, 10848
10849, 10850, 10851, 10852, 10853, 10854, 10855, 10856, 10857, 10858, 10859, 10860, 10861, 10862, 10863, 10864
10865, 10866, 10867, 10868, 10869, 10870, 10871, 10872, 10873, 10874, 10875, 10876, 10877, 10878, 10879, 10880
10881, 10882, 10883, 10884, 10885, 10886, 10887, 10888, 10889, 10890, 10891, 10892, 10893, 10894, 10895, 10896
10897, 10898, 10899, 10900, 10901, 10902, 10903, 10904, 10905, 10906, 10907, 10908, 10909, 10910, 10911, 10912
10913, 10914, 10915, 10916, 10917, 10918, 10919, 10920, 10921, 10922, 10923, 10924, 10925, 10926, 10927, 10928
10929, 10930, 10931, 10932, 10933, 10934, 10935, 10936, 10937, 10938, 10939, 10940, 10941, 10942, 10943, 10944
10945, 10946, 10947, 10948, 10949, 10950, 10951, 10952, 10953, 10954, 10955, 10956, 10957, 10958, 10959, 10960
10961, 10962, 10963, 10964, 10965, 10966, 10967, 10968, 10969, 10970, 10971, 10972, 10973, 10974, 10975, 10976
10977, 10978, 10979, 10980, 10981, 10982, 10983, 10984, 10985, 10986, 10987, 10988, 10989, 10990, 10991, 10992
10993, 10994, 10995, 10996, 10997, 10998, 10999, 11000, 11001, 11002, 11003, 11004, 11005, 11006, 11007, 11008
11009, 11010, 11011, 11012, 11013, 11014, 11015, 11016, 11017, 11018, 11019, 11020, 11021, 11022, 11023, 11024
11025, 11026, 11027, 11028, 11029, 11030, 11031, 11032, 11033, 11034, 11035, 11036, 11037, 11038, 11039, 11040
11041, 11042, 11043, 11044, 11045, 11046, 11047, 11048, 11049, 11050, 11051, 11052, 11053, 11054, 11055, 11056
11057, 11058, 11059, 11060, 11061, 11062, 11063, 11064, 11065, 11066, 11067, 11068, 11069, 11070, 11071, 11072
11073, 11074, 11075, 11076, 11077, 11078, 11079, 11080, 11081, 11082, 11083, 11084, 11085, 11086, 11087, 11088
11089, 11090, 11091, 11092, 11093, 11094, 11095, 11096, 11097, 11098, 11099, 11100, 11101, 11102, 11103, 11104
11105, 11106, 11107, 11108, 11109, 11110, 11111, 11112, 11113, 11114, 11115, 11116, 11117, 11118, 11119, 11120
11121, 11122, 11123, 11124, 11125, 11126, 11127, 11128, 11129, 11130, 11131, 11132, 11133, 11134, 11135, 11136
11137, 11138, 11139, 11140, 11141, 11142, 11143, 11144, 11145, 11146, 11147, 11148, 11149, 11150, 11151, 11152
11153, 11154, 11155, 11156, 11157, 11158, 11159, 11160, 11161, 11162, 11163, 11164, 11165, 11166, 11167, 11168
11169, 11170, 11171, 11172, 11173, 11174, 11175, 11176, 11177, 11178, 11179, 11180, 11181, 11182, 11183, 11184
11185, 11186, 11187, 11188, 11189, 11190, 11191, 11192, 11193, 11194, 11195, 11196, 11197, 11198, 11199, 11200
11201, 11202, 11203, 11204, 11205, 11206, 11207, 11208, 11209, 11210, 11211, 11212, 11213, 11214, 11215, 11216
11217, 11218, 11219, 11220, 11221, 11222, 11223, 11224, 11225, 11226, 11227, 11228, 11229, 11230, 11231, 11232
11233, 11234, 11235, 11236, 11237, 11238, 11239, 11240, 11241, 11242, 11243, 11244, 11245, 11246, 11247, 11248
11249, 11250, 11251, 11252, 11253, 11254, 11255, 11256, 11257, 11258, 11259, 11260, 11261, 11262, 11263, 11264
11265, 11266, 11267, 11268, 11269, 11270, 11271, 11272, 11273, 11274, 11275, 11276, 11277, 11278, 11279, 11280
11281, 11282, 11283, 11284, 11285, 11286, 11287, 11288, 11289, 11290, 11291, 11292, 11293, 11294, 11295, 11296
11297, 11298, 11299, 11300, 11301, 11302, 11303, 11304, 11305, 11306, 11307, 11308, 11309, 11310, 11311, 11312
11313, 11314, 11315, 11316, 11317, 11318, 11319, 11320, 11321, 11322, 11323, 11324, 11325, 11326, 11327, 11328
11329, 11330, 11331, 11332, 11333, 11334, 11335, 11336, 11337, 11338, 11339, 11340, 11341, 11342, 11343, 11344
11345, 11346, 11347, 11348, 11349, 11350, 11351, 11352, 11353, 11354, 11355, 11356, 11357, 11358, 11359, 11360
11361, 11362, 11363, 11364, 11365, 11366, 11367, 11368, 11369, 11370, 11371, 11372, 11373, 11374, 11375, 11376
11377, 11378, 11379, 11380, 11381, 11382, 11383, 11384, 11385, 11386, 11387, 11388, 11389, 11390, 11391, 11392
11393, 11394, 11395, 11396, 11397, 11398, 11399, 11400, 11401, 11402, 11403, 11404, 11405, 11406, 11407, 11408
11409, 11410, 11411, 11412, 11413, 11414, 11415, 11416, 11417, 11418, 11419, 11420, 11421, 11422, 11423, 11424
11425, 11426, 11427, 11428, 11429, 11430, 11431, 11432, 11433, 11434, 11435, 11436, 11437, 11438, 11439, 11440
11441, 11442, 11443, 11444, 11445, 11446, 11447, 11448, 11449, 11450, 11451, 11452, 11453, 11454, 11455, 11456
11457, 11458, 11459, 11460, 11461, 11462, 11463, 11464, 11465, 11466, 11467, 11468, 11469, 11470, 11471, 11472
11473, 11474, 11475, 11476, 11477, 11478, 11479, 11480, 11481, 11482, 11483, 11484, 11485, 11486, 11487, 11488
11489, 11490, 11491, 11492, 11493, 11494, 11495, 11496, 11497, 11498, 11499, 11500, 11501, 11502, 11503, 11504
11505, 11506, 11507, 11508, 11509, 11510, 11511, 11512, 11513, 11514, 11515, 11516, 11517, 11518, 11519, 11520
11521, 11522, 11523, 11524, 11525, 11526, 11527, 11528, 11529, 11530, 11531, 11532, 11533, 11534, 11535, 11536
11537, 11538, 11539, 11540, 11541, 11542, 11543, 11544, 11545, 11546, 11547, 11548, 11549, 11550, 11551, 11552
11553, 11554, 11555, 11556, 11557, 11558, 11559, 11560, 11561, 11562, 11563, 11564, 11565, 11566, 11567, 11568
11569, 11570, 11571, 11572, 11573, 11574, 11575, 11576, 11577, 11578, 11579, 11580, 11581, 11582, 11583, 11584
11585, 11586, 11587, 11588, 11589, 11590, 11591, 11592, 11593, 11594, 11595, 11596, 11597, 11598, 11599, 11600
11601, 11602, 11603, 11604, 11605, 11606, 11607, 11608, 11609, 11610, 11611, 11612, 11613, 11614, 11615, 11616
11617, 11618, 11619, 11620, 11621, 11622, 11623, 11624, 11625, 11626, 11627, 11628, 11629, 11630, 11631, 11632
11633, 11634, 11635, 11636, 11637, 11638, 11639, 11640, 11641, 11642, 11643, 11644, 11645, 11646, 11647, 11648
11649, 11650, 11651, 11652, 11653, 11654, 11655, 11656, 11657, 11658, 11659, 11660, 11661, 11662, 11663, 11664
11665, 11666, 11667, 11668, 11669, 11670, 11671, 11672, 11673, 11674, 11675, 11676, 11677, 11678, 11679, 11680
11681, 11682, 11683, 11684, 11685, 11686, 11687, 11688, 11689, 11690, 11691, 11692, 11693, 11694, 11695, 11696
11697, 11698, 11699, 11700, 11701, 11702, 11703, 11704, 11705, 11706, 11707, 11708, 11709, 11710, 11711, 11712
11713, 11714, 11715, 11716, 11717, 11718, 11719, 11720, 11721, 11722, 11723, 11724, 11725, 11726, 11727, 11728
11729, 11730, 11731, 11732, 11733, 11734, 11735, 11736, 11737, 11738, 11739, 11740, 11741, 11742, 11743, 11744
11745, 11746, 11747, 11748, 11749, 11750, 11751, 11752, 11753, 11754, 11755, 11756, 11757, 11758, 11759, 11760
11761, 11762, 11763, 11764, 11765, 11766, 11767, 11768, 11769, 11770, 11771, 11772, 11773, 11774, 11775, 11776
11777, 11778, 11779, 11780, 11781, 11782, 11783, 11784, 11785, 11786, 11787, 11788, 11789, 11790, 11791, 11792
11793, 11794, 11795, 11796, 11797, 11798, 11799, 11800, 11801, 11802, 11803, 11804, 11805, 11806, 11807, 11808
11809, 11810, 11811, 11812, 11813, 11814, 11815, 11816, 11817, 11818, 11819, 11820, 11821, 11822, 11823, 11824
11825, 11826, 11827, 11828, 11829, 11830, 11831, 11832, 11833, 11834, 11835, 11836, 11837, 11838, 11839, 11840
11841, 11842, 11843, 11844, 11845, 11846, 11847, 11848, 11849, 11850, 11851, 11852, 11853, 11854, 11855, 11856
11857, 11858, 11859, 11860, 11861, 11862, 11863, 11864, 11865, 11866, 11867, 11868, 11869, 11870, 11871, 11872
11873, 11874, 11875, 11876, 11877, 11878, 11879, 11880, 11881, 11882, 11883, 11884, 11885, 11886, 11887, 11888
11889, 11890, 11891, 11892, 11893, 11894, 11895, 11896, 11897, 11898, 11899, 11900, 11901, 11902, 11903, 11904
11905, 11906, 11907, 11908, 11909, 11910, 11911, 11912, 11913, 11914, 11915, 11916, 11917, 11918, 11919, 11920
11921, 11922, 11923, 11924, 11925, 11926, 11927, 11928, 11929, 11930, 11931, 11932, 11933, 11934, 11935, 11936
11937, 11938, 11939, 11940, 11941, 11942, 11943, 11944, 11945, 11946, 11947, 11948, 11949, 11950, 11951, 11952
11953, 11954, 11955, 11956, 11957, 11958, 11959, 11960, 11961, 11962, 11963, 11964, 11965, 11966, 11967, 11968
11969, 11970, 11971, 11972, 11973, 11974, 11975, 11976, 11977, 11978, 11979, 11980, 11981, 11982, 11983, 11984
11985, 11986, 11987, 11988, 11989, 11990, 11991, 11992, 11993, 11994, 11995, 11996, 11997, 11998, 11999, 12000
12001, 12002, 12003, 12004, 12005, 12006, 12007, 12008, 12009, 12010, 12011, 12012, 12013, 12014, 12015, 12016
12017, 12018, 12019, 12020, 12021, 12022, 12023, 12024, 12025, 12026, 12027, 12028, 12029, 12030, 12031, 12032
12033, 12034, 12035, 12036, 12037, 12038, 12039, 12040, 12041, 12042, 12043, 12044, 12045, 12046, 12047, 12048
12049, 12050, 12051, 12052, 12053, 12054, 12055, 12056, 12057, 12058, 12059, 12060, 12061, 12062, 12063, 12064
12065, 12066, 12067, 12068, 12069, 12070, 12071, 12072, 12073, 12074, 12075, 12076, 12077, 12078, 12079, 12080
12081, 12082, 12083, 12084, 12085, 12086, 12087, 12088, 12089, 12090, 12091, 12092, 12093, 12094, 12095, 12096
12097, 12098, 12099, 12100, 12101, 12102, 12103, 12104, 12105, 12106, 12107, 12108, 12109, 12110, 12111, 12112
12113, 12114, 12115, 12116, 12117, 12118, 12119, 12120, 12121, 12122, 12123, 12124, 12125, 12126, 12127, 12128
12129, 12130, 12131, 12132, 12133, 12134, 12135, 12136, 12137, 12138, 12139, 12140, 12141, 12142, 12143, 12144
12145, 12146, 12147, 12148, 12149, 12150, 12151, 12152, 12153, 12154, 12155, 12156, 12157, 12158, 12159, 12160
12161, 12162, 12163, 12164, 12165, 12166, 12167, 12168, 12169, 12170, 12171, 12172, 12173, 12174, 12175, 12176
12177, 12178, 12179, 12180, 12181, 12182, 12183, 12184, 12185, 12186, 12187, 12188, 12189, 12190, 12191, 12192
12193, 12194, 12195, 12196, 12197, 12198, 12199, 12200, 12201, 12202, 12203, 12204, 12205, 12206, 12207, 12208
12209, 12210, 12211, 12212, 12213, 12214, 12215, 12216, 12217, 12218, 12219, 12220, 12221, 12222, 12223, 12224
12225, 12226, 12227, 12228, 12229, 12230, 12231, 12232, 12233, 12234, 12235, 12236, 12237, 12238, 12239, 12240
12241, 12242, 12243, 12244, 12245, 12246, 12247, 12248, 12249, 12250, 12251, 12252, 12253, 12254, 12255, 12256
12257, 12258, 12259, 12260, 12261, 12262, 12263, 12264, 12265, 12266, 12267, 12268, 12269, 12270, 12271, 12272
12273, 12274, 12275, 12276, 12277, 12278, 12279, 12280, 12281, 12282, 12283, 12284, 12285, 12286, 12287, 12288
12289, 12290, 12291, 12292, 12293, 12294, 12295, 12296, 12297, 12298, 12299, 12300, 12301, 12302, 12303, 12304
12305, 12306, 12307, 12308, 12309, 12310, 12311, 12312, 12313, 12314, 12315, 12316, 12317, 12318, 12319, 12320
12321, 12322, 12323, 12324, 12325, 12326, 12327, 12328, 12329, 12330, 12331, 12332, 12333, 12334, 12335, 12336
12337, 12338, 12339, 12340, 12341, 12342, 12343, 12344, 12345, 12346, 12347, 12348, 12349, 12350, 12351, 12352
12353, 12354, 12355, 12356, 12357, 12358, 12359, 12360, 12361, 12362, 12363, 12364, 12365, 12366, 12367, 12368
12369, 12370, 12371, 12372, 12373, 12374, 12375, 12376, 12377, 12378, 12379, 12380, 12381, 12382, 12383, 12384
12385, 12386, 12387, 12388, 12389, 12390, 12391, 12392, 12393, 12394, 12395, 12396, 12397, 12398, 12399, 12400
12401, 12402, 12403, 12404, 12405, 12406, 12407, 12408, 12409, 12410, 12411, 12412, 12413, 12414, 12415, 12416
12417, 12418, 12419, 12420, 12421, 12422, 12423, 12424, 12425, 12426, 12427, 12428, 12429, 12430, 12431, 12432
12433, 12434, 12435, 12436, 12437, 12438, 12439, 12440, 12441, 12442, 12443, 12444, 12445, 12446, 12447, 12448
12449, 12450, 12451, 12452, 12453, 12454, 12455, 12456, 12457, 12458, 12459, 12460, 12461, 12462, 12463, 12464
12465, 12466, 12467, 12468, 12469, 12470, 12471, 12472, 12473, 12474, 12475, 12476, 12477, 12478, 12479, 12480
12481, 12482, 12483, 12484, 12485, 12486, 12487, 12488, 12489, 12490, 12491, 12492, 12493, 12494, 12495, 12496
12497, 12498, 12499, 12500, 12501, 12502, 12503, 12504, 12505, 12506, 12507, 12508, 12509, 12510, 12511, 12512
12513, 12514, 12515, 12516, 12517, 12518, 12519, 12520, 12521, 12522, 12523, 12524, 12525, 12526, 12527, 12528
12529, 12530, 12531, 12532, 12533, 12534, 12535, 12536, 12537, 12538, 12539, 12540, 12541, 12542, 12543, 12544
12545, 12546, 12547, 12548, 12549, 12550, 12551, 12552, 12553, 12554, 12555, 12556, 12557, 12558, 12559, 12560
12561, 12562, 12563, 12564, 12565, 12566, 12567, 12568, 12569, 12570, 12571, 12572, 12573, 12574, 12575, 12576
12577, 12578, 12579, 12580, 12581, 12582, 12583, 12584, 12585, 12586, 12587, 12588, 12589, 12590, 12591, 12592
12593, 12594, 12595, 12596, 12597, 12598, 12599, 12600, 12601, 12602, 12603, 12604, 12605, 12606, 12607, 12608
12609, 12610, 12611, 12612, 12613, 12614, 12615, 12616, 12617, 12618, 12619, 12620, 12621, 12622, 12623, 12624
12625, 12626, 12627, 12628, 12629, 12630, 12631, 12632, 12633, 12634, 12635, 12636, 12637, 12638, 12639, 12640
12641, 12642, 12643, 12644, 12645, 12646, 12647, 12648, 12649, 12650, 12651, 12652, 12653, 12654, 12655, 12656
12657, 12658, 12659, 12660, 12661, 12662, 12663, 12664, 12665, 12666, 12667, 12668, 12669, 12670, 12671, 12672
12673, 12674, 12675, 12676, 12677, 12678, 12679, 12680, 12681, 12682, 12683, 12684, 12685, 12686, 12687, 12688
12689, 12690, 12691, 12692, 12693, 12694, 12695, 12696, 12697, 12698, 12699, 12700, 12701, 12702, 12703, 12704
12705, 12706, 12707, 12708, 12709, 12710, 12711, 12712, 12713, 12714, 12715, 12716, 12717, 12718, 12719, 12720
12721, 12722, 12723, 12724, 12725, 12726, 12727, 12728, 12729, 12730, 12731, 12732, 12733, 12734, 12735, 12736
12737, 12738, 12739, 12740, 12741, 12742, 12743, 12744, 12745, 12746, 12747, 12748, 12749, 12750, 12751, 12752
12753, 12754, 12755, 12756, 12757, 12758, 12759, 12760, 12761, 12762, 12763, 12764, 12765, 12766, 12767, 12768
12769, 12770, 12771, 12772, 12773, 12774, 12775, 12776, 12777, 12778, 12779, 12780, 12781, 12782, 12783, 12784
12785, 12786, 12787, 12788, 12789, 12790, 12791, 12792, 12793, 12794, 12795, 12796, 12797, 12798, 12799, 12800
12801, 12802, 12803, 12804, 12805, 12806, 12807, 12808, 12809, 12810, 12811, 12812, 12813, 12814, 12815, 12816
12817, 12818, 12819, 12820, 12821, 12822, 12823, 12824, 12825, 12826, 12827, 12828, 12829, 12830, 12831, 12832
12833, 12834, 12835, 12836, 12837, 12838, 12839, 12840, 12841, 12842, 12843, 12844, 12845, 12846, 12847, 12848
12849, 12850, 12851, 12852, 12853, 12854, 12855, 12856, 12857, 12858, 12859, 12860, 12861, 12862, 12863, 12864
12865, 12866, 12867, 12868, 12869, 12870, 12871, 12872, 12873, 12874, 12875, 12876, 12877, 12878, 12879, 12880
12881, 12882, 12883, 12884, 12885, 12886, 12887, 12888, 12889, 12890, 12891, 12892, 12893, 12894, 12895, 12896
12897, 12898, 12899, 12900, 12901, 12902, 12903, 12904, 12905, 12906, 12907, 12908, 12909, 12910, 12911, 12912
12913, 12914, 12915, 12916, 12917, 12918, 12919, 12920, 12921, 12922, 12923, 12924, 12925, 12926, 12927, 12928
12929, 12930, 12931, 12932, 12933, 12934, 12935, 12936, 12937, 12938, 12939, 12940, 12941, 12942, 12943, 12944
12945, 12946, 12947, 12948, 12949, 12950, 12951, 12952, 12953, 12954, 12955, 12956, 12957, 12958, 12959, 12960
12961, 12962, 12963, 12964, 12965, 12966, 12967, 12968, 12969, 12970, 12971, 12972, 12973, 12974, 12975, 12976
12977, 12978, 12979, 12980, 12981, 12982, 12983, 12984, 12985, 12986, 12987, 12988, 12989, 12990, 12991, 12992
12993, 12994, 12995, 12996, 12997, 12998, 12999, 13000, 13001, 13002, 13003, 13004, 13005, 13006, 13007, 13008
13009, 13010, 13011, 13012, 13013, 13014, 13015, 13016, 13017, 13018, 13019, 13020, 13021, 13022, 13023, 13024
13025, 13026, 13027, 13028, 13029, 13030, 13031, 13032, 13033, 13034, 13035, 13036, 13037, 13038, 13039, 13040
13041, 13042, 13043, 13044, 13045, 13046, 13047, 13048, 13049, 13050, 13051, 13052, 13053, 13054, 13055, 13056
13057, 13058, 13059, 13060, 13061, 13062, 13063, 13064, 13065, 13066, 13067, 13068, 13069, 13070, 13071, 13072
13073, 13074, 13075, 13076, 13077, 13078, 13079, 13080, 13081, 13082, 13083, 13084, 13085, 13086, 13087, 13088
13089, 13090, 13091, 13092, 13093, 13094, 13095, 13096, 13097, 13098, 13099, 13100, 13101, 13102, 13103, 13104
13105, 13106, 13107, 13108, 13109, 13110, 13111, 13112, 13113, 13114, 13115, 13116, 13117, 13118, 13119, 13120
13121, 13122, 13123, 13124, 13125, 13126, 13127, 13128, 13129, 13130, 13131, 13132, 13133, 13134, 13135, 13136
13137, 13138, 13139, 13140, 13141, 13142, 13143, 13144, 13145, 13146, 13147, 13148, 13149, 13150, 13151, 13152
13153, 13154, 13155, 13156, 13157, 13158, 13159, 13160, 13161, 13162, 13163, 13164, 13165, 13166, 13167, 13168
13169, 13170, 13171, 13172, 13173, 13174, 13175, 13176, 13177, 13178, 13179, 13180, 13181, 13182, 13183, 13184
13185, 13186, 13187, 13188, 13189, 13190, 13191, 13192, 13193, 13194, 13195, 13196, 13197, 13198, 13199, 13200
13201, 13202, 13203, 13204, 13205, 13206, 13207, 13208, 13209, 13210, 13211, 13212, 13213, 13214, 13215, 13216
13217, 13218, 13219, 13220, 13221, 13222, 13223, 13224, 13225, 13226, 13227, 13228, 13229, 13230, 13231, 13232
13233, 13234, 13235, 13236, 13237, 13238, 13239, 13240, 13241, 13242, 13243, 13244, 13245, 13246, 13247, 13248
13249, 13250, 13251, 13252, 13253, 13254, 13255, 13256, 13257, 13258, 13259, 13260, 13261, 13262, 13263, 13264
13265, 13266, 13267, 13268, 13269, 13270, 13271, 13272, 13273, 13274, 13275, 13276, 13277, 13278, 13279, 13280
13281, 13282, 13283, 13284, 13285, 13286, 13287, 13288, 13289, 13290, 13291, 13292, 13293, 13294, 13295, 13296
13297, 13298, 13299, 13300, 13301, 13302, 13303, 13304, 13305, 13306, 13307, 13308, 13309, 13310, 13311, 13312
13313, 13314, 13315, 13316, 13317, 13318, 13319, 13320, 13321, 13322, 13323, 13324, 13325, 13326, 13327, 13328
13329, 13330, 13331, 13332, 13333, 13334, 13335, 13336, 13337, 13338, 13339, 13340, 13341, 13342, 13343, 13344
13345, 13346, 13347, 13348, 13349, 13350, 13351, 13352, 13353, 13354, 13355, 13356, 13357, 13358, 13359, 13360
13361, 13362, 13363, 13364, 13365, 13366, 13367, 13368, 13369, 13370, 13371, 13372, 13373, 13374, 13375, 13376
13377, 13378, 13379, 13380, 13381, 13382, 13383, 13384, 13385, 13386, 13387, 13388, 13389, 13390, 13391, 13392
13393, 13394, 13395, 13396, 13397, 13398, 13399, 13400, 13401, 13402, 13403, 13404, 13405, 13406, 13407, 13408
13409, 13410, 13411, 13412, 13413, 13414, 13415, 13416, 13417, 13418, 13419, 13420, 13421, 13422, 13423, 13424
13425, 13426, 13427, 13428, 13429, 13430, 13431, 13432, 13433, 13434, 13435, 13436, 13437, 13438, 13439, 13440
13441, 13442, 13443, 13444, 13445, 13446, 13447, 13448, 13449, 13450, 13451, 13452, 13453, 13454, 13455, 13456
13457, 13458, 13459, 13460, 13461, 13462, 13463, 13464, 13465, 13466, 13467, 13468, 13469, 13470, 13471, 13472
13473, 13474, 13475, 13476, 13477, 13478, 13479, 13480, 13481, 13482, 13483, 13484, 13485, 13486, 13487, 13488
13489, 13490, 13491, 13492, 13493, 13494, 13495, 13496, 13497, 13498, 13499, 13500, 13501, 13502, 13503, 13504
13505, 13506, 13507, 13508, 13509, 13510, 13511, 13512, 13513, 13514, 13515, 13516, 13517, 13518, 13519, 13520
13521, 13522, 13523, 13524, 13525, 13526, 13527, 13528, 13529, 13530, 13531, 13532, 13533, 13534, 13535, 13536
13537, 13538, 13539, 13540, 13541, 13542, 13543, 13544, 13545, 13546, 13547, 13548, 13549, 13550, 13551, 13552
13553, 13554, 13555, 13556, 13557, 13558, 13559, 13560, 13561, 13562, 13563, 13564, 13565, 13566, 13567, 13568
13569, 13570, 13571, 13572, 13573, 13574, 13575, 13576, 13577, 13578, 13579, 13580, 13581, 13582, 13583, 13584
13585, 13586, 13587, 13588, 13589, 13590, 13591, 13592, 13593, 13594, 13595, 13596, 13597, 13598, 13599, 13600
13601, 13602, 13603, 13604, 13605, 13606, 13607, 13608, 13609, 13610, 13611, 13612, 13613, 13614, 13615, 13616
13617, 13618, 13619, 13620, 13621, 13622, 13623, 13624, 13625, 13626, 13627, 13628, 13629, 13630, 13631, 13632
13633, 13634, 13635, 13636, 13637, 13638, 13639, 13640, 13641, 13642, 13643, 13644, 13645, 13646, 13647, 13648
13649, 13650, 13651, 13652, 13653, 13654, 13655, 13656, 13657, 13658, 13659, 13660, 13661, 13662, 13663, 13664
13665, 13666, 13667, 13668, 13669, 13670, 13671, 13672, 13673, 13674, 13675, 13676, 13677, 13678, 13679, 13680
13681, 13682, 13683, 13684, 13685, 13686, 13687, 13688, 13689, 13690, 13691, 13692, 13693, 13694, 13695, 13696
13697, 13698, 13699, 13700, 13701, 13702, 13703, 13704, 13705, 13706, 13707, 13708, 13709, 13710, 13711, 13712
13713, 13714, 13715, 13716, 13717, 13718, 13719, 13720, 13721, 13722, 13723, 13724, 13725, 13726, 13727, 13728
13729, 13730, 13731, 13732, 13733, 13734, 13735, 13736, 13737, 13738, 13739, 13740, 13741, 13742, 13743, 13744
13745, 13746, 13747, 13748, 13749, 13750, 13751, 13752, 13753, 13754, 13755, 13756, 13757, 13758, 13759, 13760
13761, 13762, 13763, 13764, 13765, 13766, 13767, 13768, 13769, 13770, 13771, 13772, 13773, 13774, 13775, 13776
13777, 13778, 13779, 13780, 13781, 13782, 13783, 13784, 13785, 13786, 13787, 13788, 13789, 13790, 13791, 13792
13793, 13794, 13795, 13796, 13797, 13798, 13799, 13800, 13801, 13802, 13803, 13804, 13805, 13806, 13807, 13808
13809, 13810, 13811, 13812, 13813, 13814, 13815, 13816, 13817, 13818, 13819, 13820, 13821, 13822, 13823, 13824
13825, 13826, 13827, 13828, 13829, 13830, 13831, 13832, 13833, 13834, 13835, 13836, 13837, 13838, 13839, 13840
13841, 13842, 13843, 13844, 13845, 13846, 13847, 13848, 13849, 13850, 13851, 13852, 13853, 13854, 13855, 13856
13857, 13858, 13859, 13860, 13861, 13862, 13863, 13864, 13865, 13866, 13867, 13868, 13869, 13870, 13871, 13872
13873, 13874, 13875, 13876, 13877, 13878, 13879, 13880, 13881, 13882, 13883, 13884, 13885, 13886, 13887, 13888
13889, 13890, 13891, 13892, 13893, 13894, 13895, 13896, 13897, 13898, 13899, 13900, 13901, 13902, 13903, 13904
13905, 13906, 13907, 13908, 13909, 13910, 13911, 13912, 13913, 13914, 13915, 13916, 13917, 13918, 13919, 13920
13921, 13922, 13923, 13924, 13925, 13926, 13927, 13928, 13929, 13930, 13931, 13932, 13933, 13934, 13935, 13936
13937, 13938, 13939, 13940, 13941, 13942, 13943, 13944, 13945, 13946, 13947, 13948, 13949, 13950, 13951, 13952
13953, 13954, 13955, 13956, 13957, 13958, 13959, 13960, 13961, 13962, 13963, 13964, 13965, 13966, 13967, 13968
13969, 13970, 13971, 13972, 13973, 13974, 13975, 13976, 13977, 13978, 13979, 13980, 13981, 13982, 13983, 13984
13985, 13986, 13987, 13988, 13989, 13990, 13991, 13992, 13993, 13994, 13995, 13996, 13997, 13998, 13999, 14000
14001, 14002, 14003, 14004, 14005, 14006, 14007, 14008, 14009, 14010, 14011, 14012, 14013, 14014, 14015, 14016
14017, 14018, 14019, 14020, 14021, 14022, 14023, 14024, 14025, 14026, 14027, 14028, 14029, 14030, 14031, 14032
14033, 14034, 14035, 14036, 14037, 14038, 14039, 14040, 14041, 14042, 14043, 14044, 14045, 14046, 14047, 14048
14049, 14050, 14051, 14052, 14053, 14054, 14055, 14056, 14057, 14058, 14059, 14060, 14061, 14062, 14063, 14064
14065, 14066, 14067, 14068, 14069, 14070, 14071, 14072, 14073, 14074, 14075, 14076, 14077, 14078, 14079, 14080
14081, 14082, 14083, 14084, 14085, 14086, 14087, 14088, 14089, 14090, 14091, 14092, 14093, 14094, 14095, 14096
14097, 14098, 14099, 14100, 14101, 14102, 14103, 14104, 14105, 14106, 14107, 14108, 14109, 14110, 14111, 14112
14113, 14114, 14115, 14116, 14117, 14118, 14119, 14120, 14121, 14122, 14123, 14124, 14125, 14126, 14127, 14128
14129, 14130, 14131, 14132, 14133, 14134, 14135, 14136, 14137, 14138, 14139, 14140, 14141, 14142, 14143, 14144
14145, 14146, 14147, 14148, 14149, 14150, 14151, 14152, 14153, 14154, 14155, 14156, 14157, 14158, 14159, 14160
14161, 14162, 14163, 14164, 14165, 14166, 14167, 14168, 14169, 14170, 14171, 14172, 14173, 14174, 14175, 14176
14177, 14178, 14179, 14180, 14181, 14182, 14183, 14184, 14185, 14186, 14187, 14188, 14189, 14190, 14191, 14192
14193, 14194, 14195, 14196, 14197, 14198, 14199, 14200, 14201, 14202, 14203, 14204, 14205, 14206, 14207, 14208
14209, 14210, 14211, 14212, 14213, 14214, 14215, 14216, 14217, 14218, 14219, 14220, 14221, 14222, 14223, 14224
14225, 14226, 14227, 14228, 14229, 14230, 14231, 14232, 14233, 14234, 14235, 14236, 14237, 14238, 14239, 14240
14241, 14242, 14243, 14244, 14245, 14246, 14247, 14248, 14249, 14250, 14251, 14252, 14253, 14254, 14255, 14256
14257, 14258, 14259, 14260, 14261, 14262, 14263, 14264, 14265, 14266, 14267, 14268, 14269, 14270, 14271, 14272
14273, 14274, 14275, 14276, 14277, 14278, 14279, 14280, 14281, 14282, 14283, 14284, 14285, 14286, 14287, 14288
14289, 14290, 14291, 14292, 14293, 14294, 14295, 14296, 14297, 14298, 14299, 14300, 14301, 14302, 14303, 14304
14305, 14306, 14307, 14308, 14309, 14310, 14311, 14312, 14313, 14314, 14315, 14316, 14317, 14318, 14319, 14320
14321, 14322, 14323, 14324, 14325, 14326, 14327, 14328, 14329, 14330, 14331, 14332, 14333, 14334, 14335, 14336
14337, 14338, 14339, 14340, 14341, 14342, 14343, 14344, 14345, 14346, 14347, 14348, 14349, 14350, 14351, 14352
14353, 14354, 14355, 14356, 14357, 14358, 14359, 14360, 14361, 14362, 14363, 14364, 14365, 14366, 14367, 14368
14369, 14370, 14371, 14372, 14373, 14374, 14375, 14376, 14377, 14378, 14379, 14380, 14381, 14382, 14383, 14384
14385, 14386, 14387, 14388, 14389, 14390, 14391, 14392, 14393, 14394, 14395, 14396, 14397, 14398, 14399, 14400
14401, 14402, 14403, 14404, 14405, 14406, 14407, 14408, 14409, 14410, 14411, 14412, 14413, 14414, 14415, 14416
14417, 14418, 14419, 14420, 14421, 14422, 14423, 14424, 14425, 14426, 14427, 14428, 14429, 14430, 14431, 14432
14433, 14434, 14435, 14436, 14437, 14438, 14439, 14440, 14441, 14442, 14443, 14444, 14445, 14446, 14447, 14448
14449, 14450, 14451, 14452, 14453, 14454, 14455, 14456, 14457, 14458, 14459, 14460, 14461, 14462, 14463, 14464
14465, 14466, 14467, 14468, 14469, 14470, 14471, 14472, 14473, 14474, 14475, 14476, 14477, 14478, 14479, 14480
14481, 14482, 14483, 14484, 14485, 14486, 14487, 14488, 14489, 14490, 14491, 14492, 14493, 14494, 14495, 14496
14497, 14498, 14499, 14500, 14501, 14502, 14503, 14504, 14505, 14506, 14507, 14508, 14509, 14510, 14511, 14512
14513, 14514, 14515, 14516, 14517, 14518, 14519, 14520, 14521, 14522, 14523, 14524, 14525, 14526, 14527, 14528
14529, 14530, 14531, 14532, 14533, 14534, 14535, 14536, 14537, 14538, 14539, 14540, 14541, 14542, 14543, 14544
14545, 14546, 14547, 14548, 14549, 14550, 14551, 14552, 14553, 14554, 14555, 14556, 14557, 14558, 14559, 14560
14561, 14562, 14563, 14564, 14565, 14566, 14567, 14568, 14569, 14570, 14571, 14572, 14573, 14574, 14575, 14576
14577, 14578, 14579, 14580, 14581, 14582, 14583, 14584, 14585, 14586, 14587, 14588, 14589, 14590, 14591, 14592
14593, 14594, 14595, 14596, 14597, 14598, 14599, 14600, 14601, 14602, 14603, 14604, 14605, 14606, 14607, 14608
14609, 14610, 14611, 14612, 14613, 14614, 14615, 14616, 14617, 14618, 14619, 14620, 14621, 14622, 14623, 14624
14625, 14626, 14627, 14628, 14629, 14630, 14631, 14632, 14633, 14634, 14635, 14636, 14637, 14638, 14639, 14640
14641, 14642, 14643, 14644, 14645, 14646, 14647, 14648, 14649, 14650, 14651, 14652, 14653, 14654, 14655, 14656
14657, 14658, 14659, 14660, 14661, 14662, 14663, 14664, 14665, 14666, 14667, 14668, 14669, 14670, 14671, 14672
14673, 14674, 14675, 14676, 14677, 14678, 14679, 14680, 14681, 14682, 14683, 14684, 14685, 14686, 14687, 14688
14689, 14690, 14691, 14692, 14693, 14694, 14695, 14696, 14697, 14698, 14699, 14700, 14701, 14702, 14703, 14704
14705, 14706, 14707, 14708, 14709, 14710, 14711, 14712, 14713, 14714, 14715, 14716, 14717, 14718, 14719, 14720
14721, 14722, 14723, 14724, 14725, 14726, 14727, 14728, 14729, 14730, 14731, 14732, 14733, 14734, 14735, 14736
14737, 14738, 14739, 14740, 14741, 14742, 14743, 14744, 14745, 14746, 14747, 14748, 14749, 14750, 14751, 14752
14753, 14754, 14755, 14756, 14757, 14758, 14759, 14760, 14761, 14762, 14763, 14764, 14765, 14766, 14767, 14768
14769, 14770, 14771, 14772, 14773, 14774, 14775, 14776, 14777, 14778, 14779, 14780, 14781, 14782, 14783, 14784
14785, 14786, 14787, 14788, 14789, 14790, 14791, 14792, 14793, 14794, 14795, 14796, 14797, 14798, 14799, 14800
14801, 14802, 14803, 14804, 14805, 14806, 14807, 14808, 14809, 14810, 14811, 14812, 14813, 14814, 14815, 14816
14817, 14818, 14819, 14820, 14821, 14822, 14823, 14824, 14825, 14826, 14827, 14828, 14829, 14830, 14831, 14832
14833, 14834, 14835, 14836, 14837, 14838, 14839, 14840, 14841, 14842, 14843, 14844, 14845, 14846, 14847, 14848
14849, 14850, 14851, 14852, 14853, 14854, 14855, 14856, 14857, 14858, 14859, 14860, 14861, 14862, 14863, 14864
14865, 14866, 14867, 14868, 14869, 14870, 14871, 14872, 14873, 14874, 14875, 14876, 14877, 14878, 14879, 14880
14881, 14882, 14883, 14884, 14885, 14886, 14887, 14888, 14889, 14890, 14891, 14892, 14893, 14894, 14895, 14896
14897, 14898, 14899, 14900, 14901, 14902, 14903, 14904, 14905, 14906, 14907, 14908, 14909, 14910, 14911, 14912
14913, 14914, 14915, 14916, 14917, 14918, 14919, 14920, 14921, 14922, 14923, 14924, 14925, 14926, 14927, 14928
14929, 14930, 14931, 14932, 14933, 14934, 14935, 14936, 14937, 14938, 14939, 14940, 14941, 14942, 14943, 14944
14945, 14946, 14947, 14948, 14949, 14950, 14951, 14952, 14953, 14954, 14955, 14956, 14957, 14958, 14959, 14960
14961, 14962, 14963, 14964, 14965, 14966, 14967, 14968, 14969, 14970, 14971, 14972, 14973, 14974, 14975, 14976
14977, 14978, 14979, 14980, 14981, 14982, 14983, 14984, 14985, 14986, 14987, 14988, 14989, 14990, 14991, 14992
14993, 14994, 14995, 14996, 14997, 14998, 14999, 15000, 15001, 15002, 15003, 15004, 15005, 15006, 15007, 15008
15009, 15010, 15011, 15012, 15013, 15014, 15015, 15016, 15017, 15018, 15019, 15020, 15021, 15022, 15023, 15024
15025, 15026, 15027, 15028, 15029, 15030, 15031, 15032, 15033, 15034, 15035, 15036, 15037, 15038, 15039, 15040
15041, 15042, 15043, 15044, 15045, 15046, 15047, 15048, 15049, 15050, 15051, 15052, 15053, 15054, 15055, 15056
15057, 15058, 15059, 15060, 15061, 15062, 15063, 15064, 15065, 15066, 15067, 15068, 15069, 15070, 15071, 15072
15073, 15074, 15075, 15076, 15077, 15078, 15079, 15080, 15081, 15082, 15083, 15084, 15085, 15086, 15087, 15088
15089, 15090, 15091, 15092, 15093, 15094, 15095, 15096, 15097, 15098, 15099, 15100, 15101, 15102, 15103, 15104
15105, 15106, 15107, 15108, 15109, 15110, 15111, 15112, 15113, 15114, 15115, 15116, 15117, 15118, 15119, 15120
15121, 15122, 15123, 15124, 15125, 15126, 15127, 15128, 15129, 15130, 15131, 15132, 15133, 15134, 15135, 15136
15137, 15138, 15139, 15140, 15141, 15142, 15143, 15144, 15145, 15146, 15147, 15148, 15149, 15150, 15151, 15152
15153, 15154, 15155, 15156, 15157, 15158, 15159, 15160, 15161, 15162, 15163, 15164, 15165, 15166, 15167, 15168
15169, 15170, 15171, 15172, 15173, 15174, 15175, 15176, 15177, 15178, 15179, 15180, 15181, 15182, 15183, 15184
15185, 15186, 15187, 15188, 15189, 15190, 15191, 15192, 15193, 15194, 15195, 15196, 15197, 15198, 15199, 15200
15201, 15202, 15203, 15204, 15205, 15206, 15207, 15208, 15209, 15210, 15211, 15212, 15213, 15214, 15215, 15216
15217, 15218, 15219, 15220, 15221, 15222, 15223, 15224, 15225, 15226, 15227, 15228, 15229, 15230, 15231, 15232
15233, 15234, 15235, 15236, 15237, 15238, 15239, 15240, 15241, 15242, 15243, 15244, 15245, 15246, 15247, 15248
15249, 15250, 15251, 15252, 15253, 15254, 15255, 15256, 15257, 15258, 15259, 15260, 15261, 15262, 15263, 15264
15265, 15266, 15267, 15268, 15269, 15270, 15271, 15272, 15273, 15274, 15275, 15276, 15277, 15278, 15279, 15280
15281, 15282, 15283, 15284, 15285, 15286, 15287, 15288, 15289, 15290, 15291, 15292, 15293, 15294, 15295, 15296
15297, 15298, 15299, 15300, 15301, 15302, 15303, 15304, 15305, 15306, 15307, 15308, 15309, 15310, 15311, 15312
15313, 15314, 15315, 15316, 15317, 15318, 15319, 15320, 15321, 15322, 15323, 15324, 15325, 15326, 15327, 15328
15329, 15330, 15331, 15332, 15333, 15334, 15335, 15336, 15337, 15338, 15339, 15340, 15341, 15342, 15343, 15344
15345, 15346, 15347, 15348, 15349, 15350, 15351, 15352, 15353, 15354, 15355, 15356, 15357, 15358, 15359, 15360
15361, 15362, 15363, 15364, 15365, 15366, 15367, 15368, 15369, 15370, 15371, 15372, 15373, 15374, 15375, 15376
15377, 15378, 15379, 15380, 15381, 15382, 15383, 15384, 15385, 15386, 15387, 15388, 15389, 15390, 15391, 15392
15393, 15394, 15395, 15396, 15397, 15398, 15399, 15400, 15401, 15402, 15403, 15404, 15405, 15406, 15407, 15408
15409, 15410, 15411, 15412, 15413, 15414, 15415, 15416, 15417, 15418, 15419, 15420, 15421, 15422, 15423, 15424
15425, 15426, 15427, 15428, 15429, 15430, 15431, 15432, 15433, 15434, 15435, 15436, 15437, 15438, 15439, 15440
15441, 15442, 15443, 15444, 15445, 15446, 15447, 15448, 15449, 15450, 15451, 15452, 15453, 15454, 15455, 15456
15457, 15458, 15459, 15460, 15461, 15462, 15463, 15464, 15465, 15466, 15467, 15468, 15469, 15470, 15471, 15472
15473, 15474, 15475, 15476, 15477, 15478, 15479, 15480, 15481, 15482, 15483, 15484, 15485, 15486, 15487, 15488
15489, 15490, 15491, 15492, 15493, 15494, 15495, 15496, 15497, 15498, 15499, 15500, 15501, 15502, 15503, 15504
15505, 15506, 15507, 15508, 15509, 15510, 15511, 15512, 15513, 15514, 15515, 15516, 15517, 15518, 15519, 15520
15521, 15522, 15523, 15524, 15525, 15526, 15527, 15528, 15529, 15530, 15531, 15532, 15533, 15534, 15535, 15536
15537, 15538, 15539, 15540, 15541, 15542, 15543, 15544, 15545, 15546, 15547, 15548, 15549, 15550, 15551, 15552
15553, 15554, 15555, 15556, 15557, 15558, 15559, 15560, 15561, 15562, 15563, 15564, 15565, 15566, 15567, 15568
15569, 15570, 15571, 15572, 15573, 15574, 15575, 15576, 15577, 15578, 15579, 15580, 15581, 15582, 15583, 15584
15585, 15586, 15587, 15588, 15589, 15590, 15591, 15592, 15593, 15594, 15595, 15596, 15597, 15598, 15599, 15600
15601, 15602, 15603, 15604, 15605, 15606, 15607, 15608, 15609, 15610, 15611, 15612, 15613, 15614, 15615, 15616
15617, 15618, 15619, 15620, 15621, 15622, 15623, 15624, 15625, 15626, 15627, 15628, 15629, 15630, 15631, 15632
15633, 15634, 15635, 15636, 15637, 15638, 15639, 15640, 15641, 15642, 15643, 15644, 15645, 15646, 15647, 15648
15649, 15650, 15651, 15652, 15653, 15654, 15655, 15656, 15657, 15658, 15659, 15660, 15661, 15662, 15663, 15664
15665, 15666, 15667, 15668, 15669, 15670, 15671, 15672, 15673, 15674, 15675, 15676, 15677, 15678, 15679, 15680
15681, 15682, 15683, 15684, 15685, 15686, 15687, 15688, 15689, 15690, 15691, 15692, 15693, 15694, 15695, 15696
15697, 15698, 15699, 15700, 15701, 15702, 15703, 15704, 15705, 15706, 15707, 15708, 15709, 15710, 15711, 15712
15713, 15714, 15715, 15716, 15717, 15718, 15719, 15720, 15721, 15722, 15723, 15724, 15725, 15726, 15727, 15728
15729, 15730, 15731, 15732, 15733, 15734, 15735, 15736, 15737, 15738, 15739, 15740, 15741, 15742, 15743, 15744
15745, 15746, 15747, 15748, 15749, 15750, 15751, 15752, 15753, 15754, 15755, 15756, 15757, 15758, 15759, 15760
15761, 15762, 15763, 15764, 15765, 15766, 15767, 15768, 15769, 15770, 15771, 15772, 15773, 15774, 15775, 15776
15777, 15778, 15779, 15780, 15781, 15782, 15783, 15784, 15785, 15786, 15787, 15788, 15789, 15790, 15791, 15792
15793, 15794, 15795, 15796, 15797, 15798, 15799, 15800, 15801, 15802, 15803, 15804, 15805, 15806, 15807, 15808
15809, 15810, 15811, 15812, 15813, 15814, 15815, 15816, 15817
*MATERIAL, NAME=MATERIAL1
*ELASTIC
3000, 0.35
*SOLID SECTION, ELSET=FULLMESH, MATERIAL=MATERIAL1
*STEP, NAME=X-AXIS-TENSION, NLGEOM=NO
*STATIC
*OUTPUT, FIELD
*ELEMENT OUTPUT, DIRECTIONS=YES
IVOL, S
*NODE OUTPUT
U
*BOUNDARY
TOP, 2, 2, 0
BOTTOM, 2, 2, 0
LEFT, 1, 1, -5
RIGHT, 1, 1, 5

*ENDSTEP